c Standarized MaxSat Instance
c{
c "sha1sum": "19796a12a6914f579087b30633215a8a73bd64bd",
c "nvars": 12764,
c "ncls": 46236,
c "total_lits": 112632,
c "nhards": 45996,
c "nhard_nlits": 112392,
c "nhard_len_stats":
c    { "min": 1,
c      "max": 6,
c      "ave": 2.4435,
c      "stddev": 0.9078 },
c "nsofts": 240,
c "nsoft_nlits": 240,
c "nsoft_len_stats":
c    { "min": 1,
c      "max": 1,
c      "ave": 1.0000,
c      "stddev": 0.0000 },
c "nsoft_wts": 1,
c "soft_wt_stats":
c    { "min": 1,
c      "max": 1,
c      "ave": 1.0000,
c      "stddev": 0.0000 }
c}
p cnf 12764 46236
1 0
-1 2 3 4 5 0
1 -2 0
1 -3 0
1 -4 0
1 -5 0
6 0
-6 7 8 9 10 0
6 -7 0
6 -8 0
6 -9 0
6 -10 0
11 0
-11 12 13 14 15 0
11 -12 0
11 -13 0
11 -14 0
11 -15 0
16 0
-16 17 18 19 20 0
16 -17 0
16 -18 0
16 -19 0
16 -20 0
21 0
-21 22 23 24 25 0
21 -22 0
21 -23 0
21 -24 0
21 -25 0
26 0
-26 27 28 29 30 0
26 -27 0
26 -28 0
26 -29 0
26 -30 0
31 0
-31 32 33 34 35 0
31 -32 0
31 -33 0
31 -34 0
31 -35 0
36 0
-36 37 38 39 40 0
36 -37 0
36 -38 0
36 -39 0
36 -40 0
41 0
-41 42 43 44 45 0
41 -42 0
41 -43 0
41 -44 0
41 -45 0
46 0
-46 47 48 49 50 0
46 -47 0
46 -48 0
46 -49 0
46 -50 0
51 0
-51 52 53 54 55 0
51 -52 0
51 -53 0
51 -54 0
51 -55 0
56 0
-56 57 58 59 60 0
56 -57 0
56 -58 0
56 -59 0
56 -60 0
61 0
-61 62 63 64 65 0
61 -62 0
61 -63 0
61 -64 0
61 -65 0
66 0
-66 67 68 69 70 0
66 -67 0
66 -68 0
66 -69 0
66 -70 0
71 0
-71 72 73 74 75 0
71 -72 0
71 -73 0
71 -74 0
71 -75 0
76 0
-76 77 78 79 80 0
76 -77 0
76 -78 0
76 -79 0
76 -80 0
81 0
-81 82 83 84 85 0
81 -82 0
81 -83 0
81 -84 0
81 -85 0
86 0
-86 87 88 89 90 0
86 -87 0
86 -88 0
86 -89 0
86 -90 0
91 0
-91 92 93 94 95 0
91 -92 0
91 -93 0
91 -94 0
91 -95 0
96 0
-96 97 98 99 100 0
96 -97 0
96 -98 0
96 -99 0
96 -100 0
101 0
-101 102 103 104 105 0
101 -102 0
101 -103 0
101 -104 0
101 -105 0
106 0
-106 107 108 109 110 0
106 -107 0
106 -108 0
106 -109 0
106 -110 0
111 0
-111 112 113 114 115 0
111 -112 0
111 -113 0
111 -114 0
111 -115 0
116 0
-116 117 118 119 120 0
116 -117 0
116 -118 0
116 -119 0
116 -120 0
121 0
-121 122 123 124 125 0
121 -122 0
121 -123 0
121 -124 0
121 -125 0
126 0
-126 127 128 129 130 0
126 -127 0
126 -128 0
126 -129 0
126 -130 0
131 0
-131 132 133 134 135 0
131 -132 0
131 -133 0
131 -134 0
131 -135 0
136 0
-136 137 138 139 140 0
136 -137 0
136 -138 0
136 -139 0
136 -140 0
141 0
-141 142 143 144 145 0
141 -142 0
141 -143 0
141 -144 0
141 -145 0
146 0
-146 147 148 149 150 0
146 -147 0
146 -148 0
146 -149 0
146 -150 0
151 0
-151 152 153 154 155 0
151 -152 0
151 -153 0
151 -154 0
151 -155 0
156 0
-156 157 158 159 160 0
156 -157 0
156 -158 0
156 -159 0
156 -160 0
161 0
-161 162 163 164 165 0
161 -162 0
161 -163 0
161 -164 0
161 -165 0
166 0
-166 167 168 169 170 0
166 -167 0
166 -168 0
166 -169 0
166 -170 0
171 0
-171 172 173 174 175 0
171 -172 0
171 -173 0
171 -174 0
171 -175 0
176 0
-176 177 178 179 180 0
176 -177 0
176 -178 0
176 -179 0
176 -180 0
181 0
-181 182 183 184 185 0
181 -182 0
181 -183 0
181 -184 0
181 -185 0
-186 0
-186 187 188 189 190 0
186 -187 0
186 -188 0
186 -189 0
186 -190 0
191 0
-191 192 193 194 195 0
191 -192 0
191 -193 0
191 -194 0
191 -195 0
196 0
-196 197 198 199 200 0
196 -197 0
196 -198 0
196 -199 0
196 -200 0
201 0
-201 202 203 204 205 0
201 -202 0
201 -203 0
201 -204 0
201 -205 0
-206 0
-206 207 208 209 210 0
206 -207 0
206 -208 0
206 -209 0
206 -210 0
211 0
-211 212 213 214 215 0
211 -212 0
211 -213 0
211 -214 0
211 -215 0
216 0
-216 217 218 219 220 0
216 -217 0
216 -218 0
216 -219 0
216 -220 0
221 0
-221 222 223 224 225 0
221 -222 0
221 -223 0
221 -224 0
221 -225 0
226 0
-226 227 228 229 230 0
226 -227 0
226 -228 0
226 -229 0
226 -230 0
231 0
-231 232 233 234 235 0
231 -232 0
231 -233 0
231 -234 0
231 -235 0
236 0
-236 237 238 239 240 0
236 -237 0
236 -238 0
236 -239 0
236 -240 0
241 0
-241 242 243 244 245 0
241 -242 0
241 -243 0
241 -244 0
241 -245 0
246 0
-246 247 248 249 250 0
246 -247 0
246 -248 0
246 -249 0
246 -250 0
251 0
-251 252 253 254 255 0
251 -252 0
251 -253 0
251 -254 0
251 -255 0
256 0
-256 257 258 259 260 0
256 -257 0
256 -258 0
256 -259 0
256 -260 0
261 0
-261 262 263 264 265 0
261 -262 0
261 -263 0
261 -264 0
261 -265 0
266 0
-266 267 268 269 270 0
266 -267 0
266 -268 0
266 -269 0
266 -270 0
271 0
-271 272 273 274 275 0
271 -272 0
271 -273 0
271 -274 0
271 -275 0
276 0
-276 277 278 279 280 0
276 -277 0
276 -278 0
276 -279 0
276 -280 0
281 0
-281 282 283 284 285 0
281 -282 0
281 -283 0
281 -284 0
281 -285 0
286 0
-286 287 288 289 290 0
286 -287 0
286 -288 0
286 -289 0
286 -290 0
291 0
-291 292 293 294 295 0
291 -292 0
291 -293 0
291 -294 0
291 -295 0
296 0
-296 297 298 299 300 0
296 -297 0
296 -298 0
296 -299 0
296 -300 0
301 0
-301 302 303 304 305 0
301 -302 0
301 -303 0
301 -304 0
301 -305 0
306 0
-306 307 308 309 310 0
306 -307 0
306 -308 0
306 -309 0
306 -310 0
311 0
-311 312 313 314 315 0
311 -312 0
311 -313 0
311 -314 0
311 -315 0
316 0
-316 317 318 319 320 0
316 -317 0
316 -318 0
316 -319 0
316 -320 0
321 0
-321 322 323 324 325 0
321 -322 0
321 -323 0
321 -324 0
321 -325 0
326 0
-326 327 328 329 330 0
326 -327 0
326 -328 0
326 -329 0
326 -330 0
331 0
-331 332 333 334 335 0
331 -332 0
331 -333 0
331 -334 0
331 -335 0
336 0
-336 337 338 339 340 0
336 -337 0
336 -338 0
336 -339 0
336 -340 0
341 0
-341 342 343 344 345 0
341 -342 0
341 -343 0
341 -344 0
341 -345 0
346 0
-346 347 348 349 350 0
346 -347 0
346 -348 0
346 -349 0
346 -350 0
351 0
-351 352 353 354 355 0
351 -352 0
351 -353 0
351 -354 0
351 -355 0
356 0
-356 357 358 359 360 0
356 -357 0
356 -358 0
356 -359 0
356 -360 0
361 0
-361 362 363 364 365 0
361 -362 0
361 -363 0
361 -364 0
361 -365 0
366 0
-366 367 368 369 370 0
366 -367 0
366 -368 0
366 -369 0
366 -370 0
371 0
-371 372 373 374 375 0
371 -372 0
371 -373 0
371 -374 0
371 -375 0
376 0
-376 377 378 379 380 0
376 -377 0
376 -378 0
376 -379 0
376 -380 0
381 0
-381 382 383 384 385 0
381 -382 0
381 -383 0
381 -384 0
381 -385 0
386 0
-386 387 388 389 390 0
386 -387 0
386 -388 0
386 -389 0
386 -390 0
391 0
-391 392 393 394 395 0
391 -392 0
391 -393 0
391 -394 0
391 -395 0
396 0
-396 397 398 399 400 0
396 -397 0
396 -398 0
396 -399 0
396 -400 0
-401 0
-401 402 403 404 405 0
401 -402 0
401 -403 0
401 -404 0
401 -405 0
406 0
-406 407 408 409 410 0
406 -407 0
406 -408 0
406 -409 0
406 -410 0
411 0
-411 412 413 414 415 0
411 -412 0
411 -413 0
411 -414 0
411 -415 0
416 0
-416 417 418 419 420 0
416 -417 0
416 -418 0
416 -419 0
416 -420 0
421 0
-421 422 423 424 425 0
421 -422 0
421 -423 0
421 -424 0
421 -425 0
426 0
-426 427 428 429 430 0
426 -427 0
426 -428 0
426 -429 0
426 -430 0
431 0
-431 432 433 434 435 0
431 -432 0
431 -433 0
431 -434 0
431 -435 0
436 0
-436 437 438 439 440 0
436 -437 0
436 -438 0
436 -439 0
436 -440 0
441 0
-441 442 443 444 445 0
441 -442 0
441 -443 0
441 -444 0
441 -445 0
446 0
-446 447 448 449 450 0
446 -447 0
446 -448 0
446 -449 0
446 -450 0
451 0
-451 452 453 454 455 0
451 -452 0
451 -453 0
451 -454 0
451 -455 0
456 0
-456 457 458 459 460 0
456 -457 0
456 -458 0
456 -459 0
456 -460 0
461 0
-461 462 463 464 465 0
461 -462 0
461 -463 0
461 -464 0
461 -465 0
466 0
-466 467 468 469 470 0
466 -467 0
466 -468 0
466 -469 0
466 -470 0
471 0
-471 472 473 474 475 0
471 -472 0
471 -473 0
471 -474 0
471 -475 0
476 0
-476 477 478 479 480 0
476 -477 0
476 -478 0
476 -479 0
476 -480 0
481 0
-481 482 483 484 485 0
481 -482 0
481 -483 0
481 -484 0
481 -485 0
486 0
-486 487 488 489 490 0
486 -487 0
486 -488 0
486 -489 0
486 -490 0
491 0
-491 492 493 494 495 0
491 -492 0
491 -493 0
491 -494 0
491 -495 0
-496 0
-496 497 498 499 500 0
496 -497 0
496 -498 0
496 -499 0
496 -500 0
501 0
-501 502 503 504 505 0
501 -502 0
501 -503 0
501 -504 0
501 -505 0
506 0
-506 507 508 509 510 0
506 -507 0
506 -508 0
506 -509 0
506 -510 0
511 0
-511 512 513 514 515 0
511 -512 0
511 -513 0
511 -514 0
511 -515 0
516 0
-516 517 518 519 520 0
516 -517 0
516 -518 0
516 -519 0
516 -520 0
521 0
-521 522 523 524 525 0
521 -522 0
521 -523 0
521 -524 0
521 -525 0
526 0
-526 527 528 529 530 0
526 -527 0
526 -528 0
526 -529 0
526 -530 0
-531 0
-531 532 533 534 535 0
531 -532 0
531 -533 0
531 -534 0
531 -535 0
-536 0
-536 537 538 539 540 0
536 -537 0
536 -538 0
536 -539 0
536 -540 0
541 0
-541 542 543 544 545 0
541 -542 0
541 -543 0
541 -544 0
541 -545 0
546 0
-546 547 548 549 550 0
546 -547 0
546 -548 0
546 -549 0
546 -550 0
551 0
-551 552 553 554 555 0
551 -552 0
551 -553 0
551 -554 0
551 -555 0
-556 0
-556 557 558 559 560 0
556 -557 0
556 -558 0
556 -559 0
556 -560 0
-561 0
-561 562 563 564 565 0
561 -562 0
561 -563 0
561 -564 0
561 -565 0
-566 0
-566 567 568 569 570 0
566 -567 0
566 -568 0
566 -569 0
566 -570 0
571 0
-571 572 573 574 575 0
571 -572 0
571 -573 0
571 -574 0
571 -575 0
576 0
-576 577 578 579 580 0
576 -577 0
576 -578 0
576 -579 0
576 -580 0
-581 0
-581 582 583 584 585 0
581 -582 0
581 -583 0
581 -584 0
581 -585 0
586 0
-586 587 588 589 590 0
586 -587 0
586 -588 0
586 -589 0
586 -590 0
591 0
-591 592 593 594 595 0
591 -592 0
591 -593 0
591 -594 0
591 -595 0
596 0
-596 597 598 599 600 0
596 -597 0
596 -598 0
596 -599 0
596 -600 0
601 0
-601 602 603 604 605 0
601 -602 0
601 -603 0
601 -604 0
601 -605 0
606 0
-606 607 608 609 610 0
606 -607 0
606 -608 0
606 -609 0
606 -610 0
611 0
-611 612 613 614 615 0
611 -612 0
611 -613 0
611 -614 0
611 -615 0
616 0
-616 617 618 619 620 0
616 -617 0
616 -618 0
616 -619 0
616 -620 0
621 0
-621 622 623 624 625 0
621 -622 0
621 -623 0
621 -624 0
621 -625 0
626 0
-626 627 628 629 630 0
626 -627 0
626 -628 0
626 -629 0
626 -630 0
631 0
-631 632 633 634 635 0
631 -632 0
631 -633 0
631 -634 0
631 -635 0
636 0
-636 637 638 639 640 0
636 -637 0
636 -638 0
636 -639 0
636 -640 0
641 0
-641 642 643 644 645 0
641 -642 0
641 -643 0
641 -644 0
641 -645 0
646 0
-646 647 648 649 650 0
646 -647 0
646 -648 0
646 -649 0
646 -650 0
-651 0
-651 652 653 654 655 0
651 -652 0
651 -653 0
651 -654 0
651 -655 0
656 0
-656 657 658 659 660 0
656 -657 0
656 -658 0
656 -659 0
656 -660 0
661 0
-661 662 663 664 665 0
661 -662 0
661 -663 0
661 -664 0
661 -665 0
666 0
-666 667 668 669 670 0
666 -667 0
666 -668 0
666 -669 0
666 -670 0
671 0
-671 672 673 674 675 0
671 -672 0
671 -673 0
671 -674 0
671 -675 0
676 0
-676 677 678 679 680 0
676 -677 0
676 -678 0
676 -679 0
676 -680 0
681 0
-681 682 683 684 685 0
681 -682 0
681 -683 0
681 -684 0
681 -685 0
686 0
-686 687 688 689 690 0
686 -687 0
686 -688 0
686 -689 0
686 -690 0
691 0
-691 692 693 694 695 0
691 -692 0
691 -693 0
691 -694 0
691 -695 0
696 0
-696 697 698 699 700 0
696 -697 0
696 -698 0
696 -699 0
696 -700 0
701 0
-701 702 703 704 705 0
701 -702 0
701 -703 0
701 -704 0
701 -705 0
706 0
-706 707 708 709 710 0
706 -707 0
706 -708 0
706 -709 0
706 -710 0
711 0
-711 712 713 714 715 0
711 -712 0
711 -713 0
711 -714 0
711 -715 0
716 0
-716 717 718 719 720 0
716 -717 0
716 -718 0
716 -719 0
716 -720 0
721 0
-721 722 723 724 725 0
721 -722 0
721 -723 0
721 -724 0
721 -725 0
726 0
-726 727 728 729 730 0
726 -727 0
726 -728 0
726 -729 0
726 -730 0
731 0
-731 732 733 734 735 0
731 -732 0
731 -733 0
731 -734 0
731 -735 0
736 0
-736 737 738 739 740 0
736 -737 0
736 -738 0
736 -739 0
736 -740 0
741 0
-741 742 743 744 745 0
741 -742 0
741 -743 0
741 -744 0
741 -745 0
746 0
-746 747 748 749 750 0
746 -747 0
746 -748 0
746 -749 0
746 -750 0
751 0
-751 752 753 754 755 0
751 -752 0
751 -753 0
751 -754 0
751 -755 0
756 0
-756 757 758 759 760 0
756 -757 0
756 -758 0
756 -759 0
756 -760 0
761 0
-761 762 763 764 765 0
761 -762 0
761 -763 0
761 -764 0
761 -765 0
766 0
-766 767 768 769 770 0
766 -767 0
766 -768 0
766 -769 0
766 -770 0
-771 0
-771 772 773 774 775 0
771 -772 0
771 -773 0
771 -774 0
771 -775 0
776 0
-776 777 778 779 780 0
776 -777 0
776 -778 0
776 -779 0
776 -780 0
-781 0
-781 782 783 784 785 0
781 -782 0
781 -783 0
781 -784 0
781 -785 0
786 0
-786 787 788 789 790 0
786 -787 0
786 -788 0
786 -789 0
786 -790 0
-791 0
-791 792 793 794 795 0
791 -792 0
791 -793 0
791 -794 0
791 -795 0
796 0
-796 797 798 799 800 0
796 -797 0
796 -798 0
796 -799 0
796 -800 0
-801 0
-801 802 803 804 805 0
801 -802 0
801 -803 0
801 -804 0
801 -805 0
-806 0
-806 807 808 809 810 0
806 -807 0
806 -808 0
806 -809 0
806 -810 0
811 0
-811 812 813 814 815 0
811 -812 0
811 -813 0
811 -814 0
811 -815 0
816 0
-816 817 818 819 820 0
816 -817 0
816 -818 0
816 -819 0
816 -820 0
-821 0
-821 822 823 824 825 0
821 -822 0
821 -823 0
821 -824 0
821 -825 0
826 0
-826 827 828 829 830 0
826 -827 0
826 -828 0
826 -829 0
826 -830 0
831 0
-831 832 833 834 835 0
831 -832 0
831 -833 0
831 -834 0
831 -835 0
836 0
-836 837 838 839 840 0
836 -837 0
836 -838 0
836 -839 0
836 -840 0
-841 0
-841 842 843 844 845 0
841 -842 0
841 -843 0
841 -844 0
841 -845 0
846 0
-846 847 848 849 850 0
846 -847 0
846 -848 0
846 -849 0
846 -850 0
851 0
-851 852 853 854 855 0
851 -852 0
851 -853 0
851 -854 0
851 -855 0
856 0
-856 857 858 859 860 0
856 -857 0
856 -858 0
856 -859 0
856 -860 0
861 0
-861 862 863 864 865 0
861 -862 0
861 -863 0
861 -864 0
861 -865 0
866 0
-866 867 868 869 870 0
866 -867 0
866 -868 0
866 -869 0
866 -870 0
871 0
-871 872 873 874 875 0
871 -872 0
871 -873 0
871 -874 0
871 -875 0
876 0
-876 877 878 879 880 0
876 -877 0
876 -878 0
876 -879 0
876 -880 0
881 0
-881 882 883 884 885 0
881 -882 0
881 -883 0
881 -884 0
881 -885 0
886 0
-886 887 888 889 890 0
886 -887 0
886 -888 0
886 -889 0
886 -890 0
891 0
-891 892 893 894 895 0
891 -892 0
891 -893 0
891 -894 0
891 -895 0
896 0
-896 897 898 899 900 0
896 -897 0
896 -898 0
896 -899 0
896 -900 0
901 0
-901 902 903 904 905 0
901 -902 0
901 -903 0
901 -904 0
901 -905 0
-906 0
-906 907 908 909 910 0
906 -907 0
906 -908 0
906 -909 0
906 -910 0
-911 0
-911 912 913 914 915 0
911 -912 0
911 -913 0
911 -914 0
911 -915 0
916 0
-916 917 918 919 920 0
916 -917 0
916 -918 0
916 -919 0
916 -920 0
-921 0
-921 922 923 924 925 0
921 -922 0
921 -923 0
921 -924 0
921 -925 0
-926 0
-926 927 928 929 930 0
926 -927 0
926 -928 0
926 -929 0
926 -930 0
931 0
-931 932 933 934 935 0
931 -932 0
931 -933 0
931 -934 0
931 -935 0
936 0
-936 937 938 939 940 0
936 -937 0
936 -938 0
936 -939 0
936 -940 0
941 0
-941 942 943 944 945 0
941 -942 0
941 -943 0
941 -944 0
941 -945 0
-946 0
-946 947 948 949 950 0
946 -947 0
946 -948 0
946 -949 0
946 -950 0
-951 0
-951 952 953 954 955 0
951 -952 0
951 -953 0
951 -954 0
951 -955 0
-956 0
-956 957 958 959 960 0
956 -957 0
956 -958 0
956 -959 0
956 -960 0
-961 0
-961 962 963 964 965 0
961 -962 0
961 -963 0
961 -964 0
961 -965 0
966 0
-966 967 968 969 970 0
966 -967 0
966 -968 0
966 -969 0
966 -970 0
971 0
-971 972 973 974 975 0
971 -972 0
971 -973 0
971 -974 0
971 -975 0
976 0
-976 977 978 979 980 0
976 -977 0
976 -978 0
976 -979 0
976 -980 0
981 0
-981 982 983 984 985 0
981 -982 0
981 -983 0
981 -984 0
981 -985 0
986 0
-986 987 988 989 990 0
986 -987 0
986 -988 0
986 -989 0
986 -990 0
991 0
-991 992 993 994 995 0
991 -992 0
991 -993 0
991 -994 0
991 -995 0
996 0
-996 997 998 999 1000 0
996 -997 0
996 -998 0
996 -999 0
996 -1000 0
1001 0
-1001 1002 1003 1004 1005 0
1001 -1002 0
1001 -1003 0
1001 -1004 0
1001 -1005 0
-1006 0
-1006 1007 1008 1009 1010 0
1006 -1007 0
1006 -1008 0
1006 -1009 0
1006 -1010 0
1011 0
-1011 1012 1013 1014 1015 0
1011 -1012 0
1011 -1013 0
1011 -1014 0
1011 -1015 0
-1016 0
-1016 1017 1018 1019 1020 0
1016 -1017 0
1016 -1018 0
1016 -1019 0
1016 -1020 0
1021 0
-1021 1022 1023 1024 1025 0
1021 -1022 0
1021 -1023 0
1021 -1024 0
1021 -1025 0
1026 0
-1026 1027 1028 1029 1030 0
1026 -1027 0
1026 -1028 0
1026 -1029 0
1026 -1030 0
1031 0
-1031 1032 1033 1034 1035 0
1031 -1032 0
1031 -1033 0
1031 -1034 0
1031 -1035 0
1036 0
-1036 1037 1038 1039 1040 0
1036 -1037 0
1036 -1038 0
1036 -1039 0
1036 -1040 0
1041 0
-1041 1042 1043 1044 1045 0
1041 -1042 0
1041 -1043 0
1041 -1044 0
1041 -1045 0
1046 0
-1046 1047 1048 1049 1050 0
1046 -1047 0
1046 -1048 0
1046 -1049 0
1046 -1050 0
1051 0
-1051 1052 1053 1054 1055 0
1051 -1052 0
1051 -1053 0
1051 -1054 0
1051 -1055 0
1056 0
-1056 1057 1058 1059 1060 0
1056 -1057 0
1056 -1058 0
1056 -1059 0
1056 -1060 0
1061 0
-1061 1062 1063 1064 1065 0
1061 -1062 0
1061 -1063 0
1061 -1064 0
1061 -1065 0
1066 0
-1066 1067 1068 1069 1070 0
1066 -1067 0
1066 -1068 0
1066 -1069 0
1066 -1070 0
1071 0
-1071 1072 1073 1074 1075 0
1071 -1072 0
1071 -1073 0
1071 -1074 0
1071 -1075 0
1076 0
-1076 1077 1078 1079 1080 0
1076 -1077 0
1076 -1078 0
1076 -1079 0
1076 -1080 0
1081 0
-1081 1082 1083 1084 1085 0
1081 -1082 0
1081 -1083 0
1081 -1084 0
1081 -1085 0
-1086 0
-1086 1087 1088 1089 1090 0
1086 -1087 0
1086 -1088 0
1086 -1089 0
1086 -1090 0
-1091 0
-1091 1092 1093 1094 1095 0
1091 -1092 0
1091 -1093 0
1091 -1094 0
1091 -1095 0
-1096 0
-1096 1097 1098 1099 1100 0
1096 -1097 0
1096 -1098 0
1096 -1099 0
1096 -1100 0
-1101 0
-1101 1102 1103 1104 1105 0
1101 -1102 0
1101 -1103 0
1101 -1104 0
1101 -1105 0
-1106 0
-1106 1107 1108 1109 1110 0
1106 -1107 0
1106 -1108 0
1106 -1109 0
1106 -1110 0
1111 0
-1111 1112 1113 1114 1115 0
1111 -1112 0
1111 -1113 0
1111 -1114 0
1111 -1115 0
-1116 0
-1116 1117 1118 1119 1120 0
1116 -1117 0
1116 -1118 0
1116 -1119 0
1116 -1120 0
-1121 0
-1121 1122 1123 1124 1125 0
1121 -1122 0
1121 -1123 0
1121 -1124 0
1121 -1125 0
1126 0
-1126 1127 1128 1129 1130 0
1126 -1127 0
1126 -1128 0
1126 -1129 0
1126 -1130 0
1131 0
-1131 1132 1133 1134 1135 0
1131 -1132 0
1131 -1133 0
1131 -1134 0
1131 -1135 0
1136 0
-1136 1137 1138 1139 1140 0
1136 -1137 0
1136 -1138 0
1136 -1139 0
1136 -1140 0
1141 0
-1141 1142 1143 1144 1145 0
1141 -1142 0
1141 -1143 0
1141 -1144 0
1141 -1145 0
-1146 0
-1146 1147 1148 1149 1150 0
1146 -1147 0
1146 -1148 0
1146 -1149 0
1146 -1150 0
1151 0
-1151 1152 1153 1154 1155 0
1151 -1152 0
1151 -1153 0
1151 -1154 0
1151 -1155 0
-1156 0
-1156 1157 1158 1159 1160 0
1156 -1157 0
1156 -1158 0
1156 -1159 0
1156 -1160 0
1161 0
-1161 1162 1163 1164 1165 0
1161 -1162 0
1161 -1163 0
1161 -1164 0
1161 -1165 0
1166 0
-1166 1167 1168 1169 1170 0
1166 -1167 0
1166 -1168 0
1166 -1169 0
1166 -1170 0
-1171 0
-1171 1172 1173 1174 1175 0
1171 -1172 0
1171 -1173 0
1171 -1174 0
1171 -1175 0
1176 0
-1176 1177 1178 1179 1180 0
1176 -1177 0
1176 -1178 0
1176 -1179 0
1176 -1180 0
1181 0
-1181 1182 1183 1184 1185 0
1181 -1182 0
1181 -1183 0
1181 -1184 0
1181 -1185 0
1186 0
-1186 1187 1188 1189 1190 0
1186 -1187 0
1186 -1188 0
1186 -1189 0
1186 -1190 0
-1191 0
-1191 1192 1193 1194 1195 0
1191 -1192 0
1191 -1193 0
1191 -1194 0
1191 -1195 0
-1196 0
-1196 1197 1198 1199 1200 0
1196 -1197 0
1196 -1198 0
1196 -1199 0
1196 -1200 0
-1201 0
-1202 0
-1203 0
-1204 0
-1205 0
-1206 0
-1207 0
-1208 0
-1209 0
-1210 0
-1211 0
-1212 0
-1213 0
-1214 0
-1215 0
-1216 0
-1217 0
-1218 0
-1219 0
-1220 0
-1221 0
1222 -1223 -1224 0
-1222 1223 0
-1222 1224 0
1225 -1224 -1224 0
-1225 1224 0
-1225 1224 0
1226 -1224 -1223 0
-1226 1224 0
-1226 1223 0
1227 -1223 -1223 -1228 0
-1227 1223 0
-1227 1223 0
-1227 1228 0
-1229 1230 1222 1225 1226 1227 0
1229 -1230 0
1229 -1222 0
1229 -1225 0
1229 -1226 0
1229 -1227 0
1231 -1223 -1232 0
-1231 1223 0
-1231 1232 0
1233 -1224 -1232 0
-1233 1224 0
-1233 1232 0
1234 -1224 -1235 0
-1234 1224 0
-1234 1235 0
1236 -1223 -1235 -1228 0
-1236 1223 0
-1236 1235 0
-1236 1228 0
-584 1237 1231 1233 1234 1236 0
584 -1237 0
584 -1231 0
584 -1233 0
584 -1234 0
584 -1236 0
1238 -1223 -1239 0
-1238 1223 0
-1238 1239 0
1240 -1224 -1241 0
-1240 1224 0
-1240 1241 0
1242 -1224 -1239 0
-1242 1224 0
-1242 1239 0
1243 -1223 -1241 -1228 0
-1243 1223 0
-1243 1241 0
-1243 1228 0
-582 1244 1238 1240 1242 1243 0
582 -1244 0
582 -1238 0
582 -1240 0
582 -1242 0
582 -1243 0
1245 -1246 -1239 0
-1245 1246 0
-1245 1239 0
1247 -1248 -1239 0
-1247 1248 0
-1247 1239 0
1249 -1248 -1241 0
-1249 1248 0
-1249 1241 0
1250 -1246 -1241 -1228 0
-1250 1246 0
-1250 1241 0
-1250 1228 0
-585 1251 1245 1247 1249 1250 0
585 -1251 0
585 -1245 0
585 -1247 0
585 -1249 0
585 -1250 0
1252 -1235 -1248 0
-1252 1235 0
-1252 1248 0
1253 -1232 -1246 0
-1253 1232 0
-1253 1246 0
1254 -1232 -1248 0
-1254 1232 0
-1254 1248 0
1255 -1235 -1246 -1228 0
-1255 1235 0
-1255 1246 0
-1255 1228 0
-583 1256 1252 1253 1254 1255 0
583 -1256 0
583 -1252 0
583 -1253 0
583 -1254 0
583 -1255 0
1257 -1235 -1232 0
-1257 1235 0
-1257 1232 0
1258 -1232 -1232 0
-1258 1232 0
-1258 1232 0
1259 -1232 -1235 0
-1259 1232 0
-1259 1235 0
1260 -1235 -1235 -1228 0
-1260 1235 0
-1260 1235 0
-1260 1228 0
-1261 1262 1257 1258 1259 1260 0
1261 -1262 0
1261 -1257 0
1261 -1258 0
1261 -1259 0
1261 -1260 0
1263 -1264 -1265 0
-1263 1264 0
-1263 1265 0
1266 -1265 -1265 0
-1266 1265 0
-1266 1265 0
1267 -1265 -1264 0
-1267 1265 0
-1267 1264 0
1268 -1264 -1264 -1269 0
-1268 1264 0
-1268 1264 0
-1268 1269 0
-1270 1271 1263 1266 1267 1268 0
1270 -1271 0
1270 -1263 0
1270 -1266 0
1270 -1267 0
1270 -1268 0
1272 -1264 -1273 0
-1272 1264 0
-1272 1273 0
1274 -1265 -1273 0
-1274 1265 0
-1274 1273 0
1275 -1265 -1276 0
-1275 1265 0
-1275 1276 0
1277 -1264 -1276 -1269 0
-1277 1264 0
-1277 1276 0
-1277 1269 0
-144 1278 1272 1274 1275 1277 0
144 -1278 0
144 -1272 0
144 -1274 0
144 -1275 0
144 -1277 0
1279 -1264 -1280 0
-1279 1264 0
-1279 1280 0
1281 -1265 -1282 0
-1281 1265 0
-1281 1282 0
1283 -1265 -1280 0
-1283 1265 0
-1283 1280 0
1284 -1264 -1282 -1269 0
-1284 1264 0
-1284 1282 0
-1284 1269 0
-142 1285 1279 1281 1283 1284 0
142 -1285 0
142 -1279 0
142 -1281 0
142 -1283 0
142 -1284 0
1286 -1287 -1280 0
-1286 1287 0
-1286 1280 0
1288 -1289 -1280 0
-1288 1289 0
-1288 1280 0
1290 -1289 -1282 0
-1290 1289 0
-1290 1282 0
1291 -1287 -1282 -1269 0
-1291 1287 0
-1291 1282 0
-1291 1269 0
-145 1292 1286 1288 1290 1291 0
145 -1292 0
145 -1286 0
145 -1288 0
145 -1290 0
145 -1291 0
1293 -1276 -1289 0
-1293 1276 0
-1293 1289 0
1294 -1273 -1287 0
-1294 1273 0
-1294 1287 0
1295 -1273 -1289 0
-1295 1273 0
-1295 1289 0
1296 -1276 -1287 -1269 0
-1296 1276 0
-1296 1287 0
-1296 1269 0
-143 1297 1293 1294 1295 1296 0
143 -1297 0
143 -1293 0
143 -1294 0
143 -1295 0
143 -1296 0
1298 -1276 -1273 0
-1298 1276 0
-1298 1273 0
1299 -1273 -1273 0
-1299 1273 0
-1299 1273 0
1300 -1273 -1276 0
-1300 1273 0
-1300 1276 0
1301 -1276 -1276 -1269 0
-1301 1276 0
-1301 1276 0
-1301 1269 0
-1302 1303 1298 1299 1300 1301 0
1302 -1303 0
1302 -1298 0
1302 -1299 0
1302 -1300 0
1302 -1301 0
1304 -1305 -1305 0
-1304 1305 0
-1304 1305 0
-1306 1307 1304 0
1306 -1307 0
1306 -1304 0
1308 -1305 -1309 0
-1308 1305 0
-1308 1309 0
-424 1310 1308 0
424 -1310 0
424 -1308 0
1311 -1305 -1312 0
-1311 1305 0
-1311 1312 0
-422 1313 1311 0
422 -1313 0
422 -1311 0
1314 -1315 -1312 0
-1314 1315 0
-1314 1312 0
-425 1316 1314 0
425 -1316 0
425 -1314 0
1317 -1309 -1315 0
-1317 1309 0
-1317 1315 0
-423 1318 1317 0
423 -1318 0
423 -1317 0
1319 -1309 -1309 0
-1319 1309 0
-1319 1309 0
-1320 1321 1319 0
1320 -1321 0
1320 -1319 0
1322 -1323 -1324 0
-1322 1323 0
-1322 1324 0
1325 -1324 -1324 0
-1325 1324 0
-1325 1324 0
1326 -1324 -1323 0
-1326 1324 0
-1326 1323 0
1327 -1323 -1323 -1328 0
-1327 1323 0
-1327 1323 0
-1327 1328 0
-1329 1330 1322 1325 1326 1327 0
1329 -1330 0
1329 -1322 0
1329 -1325 0
1329 -1326 0
1329 -1327 0
1331 -1323 -1332 0
-1331 1323 0
-1331 1332 0
1333 -1324 -1332 0
-1333 1324 0
-1333 1332 0
1334 -1324 -1335 0
-1334 1324 0
-1334 1335 0
1336 -1323 -1335 -1328 0
-1336 1323 0
-1336 1335 0
-1336 1328 0
-779 1337 1331 1333 1334 1336 0
779 -1337 0
779 -1331 0
779 -1333 0
779 -1334 0
779 -1336 0
1338 -1323 -1339 0
-1338 1323 0
-1338 1339 0
1340 -1324 -1341 0
-1340 1324 0
-1340 1341 0
1342 -1324 -1339 0
-1342 1324 0
-1342 1339 0
1343 -1323 -1341 -1328 0
-1343 1323 0
-1343 1341 0
-1343 1328 0
-777 1344 1338 1340 1342 1343 0
777 -1344 0
777 -1338 0
777 -1340 0
777 -1342 0
777 -1343 0
1345 -1346 -1339 0
-1345 1346 0
-1345 1339 0
1347 -1348 -1339 0
-1347 1348 0
-1347 1339 0
1349 -1348 -1341 0
-1349 1348 0
-1349 1341 0
1350 -1346 -1341 -1328 0
-1350 1346 0
-1350 1341 0
-1350 1328 0
-780 1351 1345 1347 1349 1350 0
780 -1351 0
780 -1345 0
780 -1347 0
780 -1349 0
780 -1350 0
1352 -1335 -1348 0
-1352 1335 0
-1352 1348 0
1353 -1332 -1346 0
-1353 1332 0
-1353 1346 0
1354 -1332 -1348 0
-1354 1332 0
-1354 1348 0
1355 -1335 -1346 -1328 0
-1355 1335 0
-1355 1346 0
-1355 1328 0
-778 1356 1352 1353 1354 1355 0
778 -1356 0
778 -1352 0
778 -1353 0
778 -1354 0
778 -1355 0
1357 -1335 -1332 0
-1357 1335 0
-1357 1332 0
1358 -1332 -1332 0
-1358 1332 0
-1358 1332 0
1359 -1332 -1335 0
-1359 1332 0
-1359 1335 0
1360 -1335 -1335 -1328 0
-1360 1335 0
-1360 1335 0
-1360 1328 0
-1361 1362 1357 1358 1359 1360 0
1361 -1362 0
1361 -1357 0
1361 -1358 0
1361 -1359 0
1361 -1360 0
1363 -1364 -1364 0
-1363 1364 0
-1363 1364 0
-1365 1366 1363 0
1365 -1366 0
1365 -1363 0
1367 -1364 -1368 0
-1367 1364 0
-1367 1368 0
-624 1369 1367 0
624 -1369 0
624 -1367 0
1370 -1364 -1371 0
-1370 1364 0
-1370 1371 0
-622 1372 1370 0
622 -1372 0
622 -1370 0
1373 -1374 -1371 0
-1373 1374 0
-1373 1371 0
-625 1375 1373 0
625 -1375 0
625 -1373 0
1376 -1368 -1374 0
-1376 1368 0
-1376 1374 0
-623 1377 1376 0
623 -1377 0
623 -1376 0
1378 -1368 -1368 0
-1378 1368 0
-1378 1368 0
-1379 1380 1378 0
1379 -1380 0
1379 -1378 0
1381 -1382 -1382 0
-1381 1382 0
-1381 1382 0
-1383 1384 1381 0
1383 -1384 0
1383 -1381 0
1385 -1382 -1386 0
-1385 1382 0
-1385 1386 0
-529 1387 1385 0
529 -1387 0
529 -1385 0
1388 -1382 -1389 0
-1388 1382 0
-1388 1389 0
-527 1390 1388 0
527 -1390 0
527 -1388 0
1391 -1392 -1389 0
-1391 1392 0
-1391 1389 0
-530 1393 1391 0
530 -1393 0
530 -1391 0
1394 -1386 -1392 0
-1394 1386 0
-1394 1392 0
-528 1395 1394 0
528 -1395 0
528 -1394 0
1396 -1386 -1386 0
-1396 1386 0
-1396 1386 0
-1397 1398 1396 0
1397 -1398 0
1397 -1396 0
1399 -1400 -1401 0
-1399 1400 0
-1399 1401 0
1402 -1401 -1401 0
-1402 1401 0
-1402 1401 0
1403 -1401 -1400 0
-1403 1401 0
-1403 1400 0
1404 -1400 -1400 -1405 0
-1404 1400 0
-1404 1400 0
-1404 1405 0
-1406 1407 1399 1402 1403 1404 0
1406 -1407 0
1406 -1399 0
1406 -1402 0
1406 -1403 0
1406 -1404 0
1408 -1400 -1409 0
-1408 1400 0
-1408 1409 0
1410 -1401 -1409 0
-1410 1401 0
-1410 1409 0
1411 -1401 -1412 0
-1411 1401 0
-1411 1412 0
1413 -1400 -1412 -1405 0
-1413 1400 0
-1413 1412 0
-1413 1405 0
-434 1414 1408 1410 1411 1413 0
434 -1414 0
434 -1408 0
434 -1410 0
434 -1411 0
434 -1413 0
1415 -1400 -1416 0
-1415 1400 0
-1415 1416 0
1417 -1401 -1418 0
-1417 1401 0
-1417 1418 0
1419 -1401 -1416 0
-1419 1401 0
-1419 1416 0
1420 -1400 -1418 -1405 0
-1420 1400 0
-1420 1418 0
-1420 1405 0
-432 1421 1415 1417 1419 1420 0
432 -1421 0
432 -1415 0
432 -1417 0
432 -1419 0
432 -1420 0
1422 -1423 -1416 0
-1422 1423 0
-1422 1416 0
1424 -1425 -1416 0
-1424 1425 0
-1424 1416 0
1426 -1425 -1418 0
-1426 1425 0
-1426 1418 0
1427 -1423 -1418 -1405 0
-1427 1423 0
-1427 1418 0
-1427 1405 0
-435 1428 1422 1424 1426 1427 0
435 -1428 0
435 -1422 0
435 -1424 0
435 -1426 0
435 -1427 0
1429 -1412 -1425 0
-1429 1412 0
-1429 1425 0
1430 -1409 -1423 0
-1430 1409 0
-1430 1423 0
1431 -1409 -1425 0
-1431 1409 0
-1431 1425 0
1432 -1412 -1423 -1405 0
-1432 1412 0
-1432 1423 0
-1432 1405 0
-433 1433 1429 1430 1431 1432 0
433 -1433 0
433 -1429 0
433 -1430 0
433 -1431 0
433 -1432 0
1434 -1412 -1409 0
-1434 1412 0
-1434 1409 0
1435 -1409 -1409 0
-1435 1409 0
-1435 1409 0
1436 -1409 -1412 0
-1436 1409 0
-1436 1412 0
1437 -1412 -1412 -1405 0
-1437 1412 0
-1437 1412 0
-1437 1405 0
-1438 1439 1434 1435 1436 1437 0
1438 -1439 0
1438 -1434 0
1438 -1435 0
1438 -1436 0
1438 -1437 0
1440 -1441 -1441 0
-1440 1441 0
-1440 1441 0
-1442 1443 1440 0
1442 -1443 0
1442 -1440 0
1444 -1441 -1445 0
-1444 1441 0
-1444 1445 0
-199 1446 1444 0
199 -1446 0
199 -1444 0
1447 -1441 -1448 0
-1447 1441 0
-1447 1448 0
-197 1449 1447 0
197 -1449 0
197 -1447 0
1450 -1451 -1448 0
-1450 1451 0
-1450 1448 0
-200 1452 1450 0
200 -1452 0
200 -1450 0
1453 -1445 -1451 0
-1453 1445 0
-1453 1451 0
-198 1454 1453 0
198 -1454 0
198 -1453 0
1455 -1445 -1445 0
-1455 1445 0
-1455 1445 0
-1456 1457 1455 0
1456 -1457 0
1456 -1455 0
1458 -1459 -1460 0
-1458 1459 0
-1458 1460 0
1461 -1460 -1460 0
-1461 1460 0
-1461 1460 0
1462 -1460 -1459 0
-1462 1460 0
-1462 1459 0
1463 -1459 -1459 -1464 0
-1463 1459 0
-1463 1459 0
-1463 1464 0
-1465 1466 1458 1461 1462 1463 0
1465 -1466 0
1465 -1458 0
1465 -1461 0
1465 -1462 0
1465 -1463 0
1467 -1459 -1468 0
-1467 1459 0
-1467 1468 0
1469 -1460 -1468 0
-1469 1460 0
-1469 1468 0
1470 -1460 -1471 0
-1470 1460 0
-1470 1471 0
1472 -1459 -1471 -1464 0
-1472 1459 0
-1472 1471 0
-1472 1464 0
-334 1473 1467 1469 1470 1472 0
334 -1473 0
334 -1467 0
334 -1469 0
334 -1470 0
334 -1472 0
1474 -1459 -1475 0
-1474 1459 0
-1474 1475 0
1476 -1460 -1477 0
-1476 1460 0
-1476 1477 0
1478 -1460 -1475 0
-1478 1460 0
-1478 1475 0
1479 -1459 -1477 -1464 0
-1479 1459 0
-1479 1477 0
-1479 1464 0
-332 1480 1474 1476 1478 1479 0
332 -1480 0
332 -1474 0
332 -1476 0
332 -1478 0
332 -1479 0
1481 -1482 -1475 0
-1481 1482 0
-1481 1475 0
1483 -1484 -1475 0
-1483 1484 0
-1483 1475 0
1485 -1484 -1477 0
-1485 1484 0
-1485 1477 0
1486 -1482 -1477 -1464 0
-1486 1482 0
-1486 1477 0
-1486 1464 0
-335 1487 1481 1483 1485 1486 0
335 -1487 0
335 -1481 0
335 -1483 0
335 -1485 0
335 -1486 0
1488 -1471 -1484 0
-1488 1471 0
-1488 1484 0
1489 -1468 -1482 0
-1489 1468 0
-1489 1482 0
1490 -1468 -1484 0
-1490 1468 0
-1490 1484 0
1491 -1471 -1482 -1464 0
-1491 1471 0
-1491 1482 0
-1491 1464 0
-333 1492 1488 1489 1490 1491 0
333 -1492 0
333 -1488 0
333 -1489 0
333 -1490 0
333 -1491 0
1493 -1471 -1468 0
-1493 1471 0
-1493 1468 0
1494 -1468 -1468 0
-1494 1468 0
-1494 1468 0
1495 -1468 -1471 0
-1495 1468 0
-1495 1471 0
1496 -1471 -1471 -1464 0
-1496 1471 0
-1496 1471 0
-1496 1464 0
-1497 1498 1493 1494 1495 1496 0
1497 -1498 0
1497 -1493 0
1497 -1494 0
1497 -1495 0
1497 -1496 0
1499 -1500 -1501 0
-1499 1500 0
-1499 1501 0
1502 -1501 -1501 0
-1502 1501 0
-1502 1501 0
1503 -1501 -1500 0
-1503 1501 0
-1503 1500 0
1504 -1500 -1500 -1505 0
-1504 1500 0
-1504 1500 0
-1504 1505 0
-1506 1507 1499 1502 1503 1504 0
1506 -1507 0
1506 -1499 0
1506 -1502 0
1506 -1503 0
1506 -1504 0
1508 -1500 -1509 0
-1508 1500 0
-1508 1509 0
1510 -1501 -1509 0
-1510 1501 0
-1510 1509 0
1511 -1501 -1512 0
-1511 1501 0
-1511 1512 0
1513 -1500 -1512 -1505 0
-1513 1500 0
-1513 1512 0
-1513 1505 0
-489 1514 1508 1510 1511 1513 0
489 -1514 0
489 -1508 0
489 -1510 0
489 -1511 0
489 -1513 0
1515 -1500 -1516 0
-1515 1500 0
-1515 1516 0
1517 -1501 -1518 0
-1517 1501 0
-1517 1518 0
1519 -1501 -1516 0
-1519 1501 0
-1519 1516 0
1520 -1500 -1518 -1505 0
-1520 1500 0
-1520 1518 0
-1520 1505 0
-487 1521 1515 1517 1519 1520 0
487 -1521 0
487 -1515 0
487 -1517 0
487 -1519 0
487 -1520 0
1522 -1523 -1516 0
-1522 1523 0
-1522 1516 0
1524 -1525 -1516 0
-1524 1525 0
-1524 1516 0
1526 -1525 -1518 0
-1526 1525 0
-1526 1518 0
1527 -1523 -1518 -1505 0
-1527 1523 0
-1527 1518 0
-1527 1505 0
-490 1528 1522 1524 1526 1527 0
490 -1528 0
490 -1522 0
490 -1524 0
490 -1526 0
490 -1527 0
1529 -1512 -1525 0
-1529 1512 0
-1529 1525 0
1530 -1509 -1523 0
-1530 1509 0
-1530 1523 0
1531 -1509 -1525 0
-1531 1509 0
-1531 1525 0
1532 -1512 -1523 -1505 0
-1532 1512 0
-1532 1523 0
-1532 1505 0
-488 1533 1529 1530 1531 1532 0
488 -1533 0
488 -1529 0
488 -1530 0
488 -1531 0
488 -1532 0
1534 -1512 -1509 0
-1534 1512 0
-1534 1509 0
1535 -1509 -1509 0
-1535 1509 0
-1535 1509 0
1536 -1509 -1512 0
-1536 1509 0
-1536 1512 0
1537 -1512 -1512 -1505 0
-1537 1512 0
-1537 1512 0
-1537 1505 0
-1538 1539 1534 1535 1536 1537 0
1538 -1539 0
1538 -1534 0
1538 -1535 0
1538 -1536 0
1538 -1537 0
1540 -1541 -1541 0
-1540 1541 0
-1540 1541 0
-1542 1543 1540 0
1542 -1543 0
1542 -1540 0
1544 -1541 -1545 0
-1544 1541 0
-1544 1545 0
-1164 1546 1544 0
1164 -1546 0
1164 -1544 0
1547 -1541 -1548 0
-1547 1541 0
-1547 1548 0
-1162 1549 1547 0
1162 -1549 0
1162 -1547 0
1550 -1551 -1548 0
-1550 1551 0
-1550 1548 0
-1165 1552 1550 0
1165 -1552 0
1165 -1550 0
1553 -1545 -1551 0
-1553 1545 0
-1553 1551 0
-1163 1554 1553 0
1163 -1554 0
1163 -1553 0
1555 -1545 -1545 0
-1555 1545 0
-1555 1545 0
-1556 1557 1555 0
1556 -1557 0
1556 -1555 0
1558 -1559 -1560 0
-1558 1559 0
-1558 1560 0
1561 -1560 -1560 0
-1561 1560 0
-1561 1560 0
1562 -1560 -1559 0
-1562 1560 0
-1562 1559 0
1563 -1559 -1559 -1564 0
-1563 1559 0
-1563 1559 0
-1563 1564 0
-1565 1566 1558 1561 1562 1563 0
1565 -1566 0
1565 -1558 0
1565 -1561 0
1565 -1562 0
1565 -1563 0
1567 -1559 -1568 0
-1567 1559 0
-1567 1568 0
1569 -1560 -1568 0
-1569 1560 0
-1569 1568 0
1570 -1560 -1571 0
-1570 1560 0
-1570 1571 0
1572 -1559 -1571 -1564 0
-1572 1559 0
-1572 1571 0
-1572 1564 0
-509 1573 1567 1569 1570 1572 0
509 -1573 0
509 -1567 0
509 -1569 0
509 -1570 0
509 -1572 0
1574 -1559 -1575 0
-1574 1559 0
-1574 1575 0
1576 -1560 -1577 0
-1576 1560 0
-1576 1577 0
1578 -1560 -1575 0
-1578 1560 0
-1578 1575 0
1579 -1559 -1577 -1564 0
-1579 1559 0
-1579 1577 0
-1579 1564 0
-507 1580 1574 1576 1578 1579 0
507 -1580 0
507 -1574 0
507 -1576 0
507 -1578 0
507 -1579 0
1581 -1582 -1575 0
-1581 1582 0
-1581 1575 0
1583 -1584 -1575 0
-1583 1584 0
-1583 1575 0
1585 -1584 -1577 0
-1585 1584 0
-1585 1577 0
1586 -1582 -1577 -1564 0
-1586 1582 0
-1586 1577 0
-1586 1564 0
-510 1587 1581 1583 1585 1586 0
510 -1587 0
510 -1581 0
510 -1583 0
510 -1585 0
510 -1586 0
1588 -1571 -1584 0
-1588 1571 0
-1588 1584 0
1589 -1568 -1582 0
-1589 1568 0
-1589 1582 0
1590 -1568 -1584 0
-1590 1568 0
-1590 1584 0
1591 -1571 -1582 -1564 0
-1591 1571 0
-1591 1582 0
-1591 1564 0
-508 1592 1588 1589 1590 1591 0
508 -1592 0
508 -1588 0
508 -1589 0
508 -1590 0
508 -1591 0
1593 -1571 -1568 0
-1593 1571 0
-1593 1568 0
1594 -1568 -1568 0
-1594 1568 0
-1594 1568 0
1595 -1568 -1571 0
-1595 1568 0
-1595 1571 0
1596 -1571 -1571 -1564 0
-1596 1571 0
-1596 1571 0
-1596 1564 0
-1597 1598 1593 1594 1595 1596 0
1597 -1598 0
1597 -1593 0
1597 -1594 0
1597 -1595 0
1597 -1596 0
1599 -1600 -1600 0
-1599 1600 0
-1599 1600 0
-1601 1602 1599 0
1601 -1602 0
1601 -1599 0
1603 -1600 -1604 0
-1603 1600 0
-1603 1604 0
-739 1605 1603 0
739 -1605 0
739 -1603 0
1606 -1600 -1607 0
-1606 1600 0
-1606 1607 0
-737 1608 1606 0
737 -1608 0
737 -1606 0
1609 -1610 -1607 0
-1609 1610 0
-1609 1607 0
-740 1611 1609 0
740 -1611 0
740 -1609 0
1612 -1604 -1610 0
-1612 1604 0
-1612 1610 0
-738 1613 1612 0
738 -1613 0
738 -1612 0
1614 -1604 -1604 0
-1614 1604 0
-1614 1604 0
-1615 1616 1614 0
1615 -1616 0
1615 -1614 0
1617 -1618 -1619 0
-1617 1618 0
-1617 1619 0
1620 -1619 -1619 0
-1620 1619 0
-1620 1619 0
1621 -1619 -1618 0
-1621 1619 0
-1621 1618 0
1622 -1618 -1618 -1623 0
-1622 1618 0
-1622 1618 0
-1622 1623 0
-1624 1625 1617 1620 1621 1622 0
1624 -1625 0
1624 -1617 0
1624 -1620 0
1624 -1621 0
1624 -1622 0
1626 -1618 -1627 0
-1626 1618 0
-1626 1627 0
1628 -1619 -1627 0
-1628 1619 0
-1628 1627 0
1629 -1619 -1630 0
-1629 1619 0
-1629 1630 0
1631 -1618 -1630 -1623 0
-1631 1618 0
-1631 1630 0
-1631 1623 0
-59 1632 1626 1628 1629 1631 0
59 -1632 0
59 -1626 0
59 -1628 0
59 -1629 0
59 -1631 0
1633 -1618 -1634 0
-1633 1618 0
-1633 1634 0
1635 -1619 -1636 0
-1635 1619 0
-1635 1636 0
1637 -1619 -1634 0
-1637 1619 0
-1637 1634 0
1638 -1618 -1636 -1623 0
-1638 1618 0
-1638 1636 0
-1638 1623 0
-57 1639 1633 1635 1637 1638 0
57 -1639 0
57 -1633 0
57 -1635 0
57 -1637 0
57 -1638 0
1640 -1641 -1634 0
-1640 1641 0
-1640 1634 0
1642 -1643 -1634 0
-1642 1643 0
-1642 1634 0
1644 -1643 -1636 0
-1644 1643 0
-1644 1636 0
1645 -1641 -1636 -1623 0
-1645 1641 0
-1645 1636 0
-1645 1623 0
-60 1646 1640 1642 1644 1645 0
60 -1646 0
60 -1640 0
60 -1642 0
60 -1644 0
60 -1645 0
1647 -1630 -1643 0
-1647 1630 0
-1647 1643 0
1648 -1627 -1641 0
-1648 1627 0
-1648 1641 0
1649 -1627 -1643 0
-1649 1627 0
-1649 1643 0
1650 -1630 -1641 -1623 0
-1650 1630 0
-1650 1641 0
-1650 1623 0
-58 1651 1647 1648 1649 1650 0
58 -1651 0
58 -1647 0
58 -1648 0
58 -1649 0
58 -1650 0
1652 -1630 -1627 0
-1652 1630 0
-1652 1627 0
1653 -1627 -1627 0
-1653 1627 0
-1653 1627 0
1654 -1627 -1630 0
-1654 1627 0
-1654 1630 0
1655 -1630 -1630 -1623 0
-1655 1630 0
-1655 1630 0
-1655 1623 0
-1656 1657 1652 1653 1654 1655 0
1656 -1657 0
1656 -1652 0
1656 -1653 0
1656 -1654 0
1656 -1655 0
1658 -1659 -1660 0
-1658 1659 0
-1658 1660 0
1661 -1660 -1660 0
-1661 1660 0
-1661 1660 0
1662 -1660 -1659 0
-1662 1660 0
-1662 1659 0
1663 -1659 -1659 -1664 0
-1663 1659 0
-1663 1659 0
-1663 1664 0
-1665 1666 1658 1661 1662 1663 0
1665 -1666 0
1665 -1658 0
1665 -1661 0
1665 -1662 0
1665 -1663 0
1667 -1659 -1668 0
-1667 1659 0
-1667 1668 0
1669 -1660 -1668 0
-1669 1660 0
-1669 1668 0
1670 -1660 -1671 0
-1670 1660 0
-1670 1671 0
1672 -1659 -1671 -1664 0
-1672 1659 0
-1672 1671 0
-1672 1664 0
-39 1673 1667 1669 1670 1672 0
39 -1673 0
39 -1667 0
39 -1669 0
39 -1670 0
39 -1672 0
1674 -1659 -1675 0
-1674 1659 0
-1674 1675 0
1676 -1660 -1677 0
-1676 1660 0
-1676 1677 0
1678 -1660 -1675 0
-1678 1660 0
-1678 1675 0
1679 -1659 -1677 -1664 0
-1679 1659 0
-1679 1677 0
-1679 1664 0
-37 1680 1674 1676 1678 1679 0
37 -1680 0
37 -1674 0
37 -1676 0
37 -1678 0
37 -1679 0
1681 -1682 -1675 0
-1681 1682 0
-1681 1675 0
1683 -1684 -1675 0
-1683 1684 0
-1683 1675 0
1685 -1684 -1677 0
-1685 1684 0
-1685 1677 0
1686 -1682 -1677 -1664 0
-1686 1682 0
-1686 1677 0
-1686 1664 0
-40 1687 1681 1683 1685 1686 0
40 -1687 0
40 -1681 0
40 -1683 0
40 -1685 0
40 -1686 0
1688 -1671 -1684 0
-1688 1671 0
-1688 1684 0
1689 -1668 -1682 0
-1689 1668 0
-1689 1682 0
1690 -1668 -1684 0
-1690 1668 0
-1690 1684 0
1691 -1671 -1682 -1664 0
-1691 1671 0
-1691 1682 0
-1691 1664 0
-38 1692 1688 1689 1690 1691 0
38 -1692 0
38 -1688 0
38 -1689 0
38 -1690 0
38 -1691 0
1693 -1671 -1668 0
-1693 1671 0
-1693 1668 0
1694 -1668 -1668 0
-1694 1668 0
-1694 1668 0
1695 -1668 -1671 0
-1695 1668 0
-1695 1671 0
1696 -1671 -1671 -1664 0
-1696 1671 0
-1696 1671 0
-1696 1664 0
-1697 1698 1693 1694 1695 1696 0
1697 -1698 0
1697 -1693 0
1697 -1694 0
1697 -1695 0
1697 -1696 0
1699 -1700 -1701 0
-1699 1700 0
-1699 1701 0
1702 -1701 -1701 0
-1702 1701 0
-1702 1701 0
1703 -1701 -1700 0
-1703 1701 0
-1703 1700 0
1704 -1700 -1700 -1705 0
-1704 1700 0
-1704 1700 0
-1704 1705 0
-1706 1707 1699 1702 1703 1704 0
1706 -1707 0
1706 -1699 0
1706 -1702 0
1706 -1703 0
1706 -1704 0
1708 -1700 -1709 0
-1708 1700 0
-1708 1709 0
1710 -1701 -1709 0
-1710 1701 0
-1710 1709 0
1711 -1701 -1712 0
-1711 1701 0
-1711 1712 0
1713 -1700 -1712 -1705 0
-1713 1700 0
-1713 1712 0
-1713 1705 0
-689 1714 1708 1710 1711 1713 0
689 -1714 0
689 -1708 0
689 -1710 0
689 -1711 0
689 -1713 0
1715 -1700 -1716 0
-1715 1700 0
-1715 1716 0
1717 -1701 -1718 0
-1717 1701 0
-1717 1718 0
1719 -1701 -1716 0
-1719 1701 0
-1719 1716 0
1720 -1700 -1718 -1705 0
-1720 1700 0
-1720 1718 0
-1720 1705 0
-687 1721 1715 1717 1719 1720 0
687 -1721 0
687 -1715 0
687 -1717 0
687 -1719 0
687 -1720 0
1722 -1723 -1716 0
-1722 1723 0
-1722 1716 0
1724 -1725 -1716 0
-1724 1725 0
-1724 1716 0
1726 -1725 -1718 0
-1726 1725 0
-1726 1718 0
1727 -1723 -1718 -1705 0
-1727 1723 0
-1727 1718 0
-1727 1705 0
-690 1728 1722 1724 1726 1727 0
690 -1728 0
690 -1722 0
690 -1724 0
690 -1726 0
690 -1727 0
1729 -1712 -1725 0
-1729 1712 0
-1729 1725 0
1730 -1709 -1723 0
-1730 1709 0
-1730 1723 0
1731 -1709 -1725 0
-1731 1709 0
-1731 1725 0
1732 -1712 -1723 -1705 0
-1732 1712 0
-1732 1723 0
-1732 1705 0
-688 1733 1729 1730 1731 1732 0
688 -1733 0
688 -1729 0
688 -1730 0
688 -1731 0
688 -1732 0
1734 -1712 -1709 0
-1734 1712 0
-1734 1709 0
1735 -1709 -1709 0
-1735 1709 0
-1735 1709 0
1736 -1709 -1712 0
-1736 1709 0
-1736 1712 0
1737 -1712 -1712 -1705 0
-1737 1712 0
-1737 1712 0
-1737 1705 0
-1738 1739 1734 1735 1736 1737 0
1738 -1739 0
1738 -1734 0
1738 -1735 0
1738 -1736 0
1738 -1737 0
1740 -1741 -1741 0
-1740 1741 0
-1740 1741 0
-1742 1743 1740 0
1742 -1743 0
1742 -1740 0
1744 -1741 -1745 0
-1744 1741 0
-1744 1745 0
-1179 1746 1744 0
1179 -1746 0
1179 -1744 0
1747 -1741 -1748 0
-1747 1741 0
-1747 1748 0
-1177 1749 1747 0
1177 -1749 0
1177 -1747 0
1750 -1751 -1748 0
-1750 1751 0
-1750 1748 0
-1180 1752 1750 0
1180 -1752 0
1180 -1750 0
1753 -1745 -1751 0
-1753 1745 0
-1753 1751 0
-1178 1754 1753 0
1178 -1754 0
1178 -1753 0
1755 -1745 -1745 0
-1755 1745 0
-1755 1745 0
-1756 1757 1755 0
1756 -1757 0
1756 -1755 0
1758 -1759 -1760 0
-1758 1759 0
-1758 1760 0
1761 -1760 -1760 0
-1761 1760 0
-1761 1760 0
1762 -1760 -1759 0
-1762 1760 0
-1762 1759 0
1763 -1759 -1759 -1764 0
-1763 1759 0
-1763 1759 0
-1763 1764 0
-1765 1766 1758 1761 1762 1763 0
1765 -1766 0
1765 -1758 0
1765 -1761 0
1765 -1762 0
1765 -1763 0
1767 -1759 -1768 0
-1767 1759 0
-1767 1768 0
1769 -1760 -1768 0
-1769 1760 0
-1769 1768 0
1770 -1760 -1771 0
-1770 1760 0
-1770 1771 0
1772 -1759 -1771 -1764 0
-1772 1759 0
-1772 1771 0
-1772 1764 0
-44 1773 1767 1769 1770 1772 0
44 -1773 0
44 -1767 0
44 -1769 0
44 -1770 0
44 -1772 0
1774 -1759 -1775 0
-1774 1759 0
-1774 1775 0
1776 -1760 -1777 0
-1776 1760 0
-1776 1777 0
1778 -1760 -1775 0
-1778 1760 0
-1778 1775 0
1779 -1759 -1777 -1764 0
-1779 1759 0
-1779 1777 0
-1779 1764 0
-42 1780 1774 1776 1778 1779 0
42 -1780 0
42 -1774 0
42 -1776 0
42 -1778 0
42 -1779 0
1781 -1782 -1775 0
-1781 1782 0
-1781 1775 0
1783 -1784 -1775 0
-1783 1784 0
-1783 1775 0
1785 -1784 -1777 0
-1785 1784 0
-1785 1777 0
1786 -1782 -1777 -1764 0
-1786 1782 0
-1786 1777 0
-1786 1764 0
-45 1787 1781 1783 1785 1786 0
45 -1787 0
45 -1781 0
45 -1783 0
45 -1785 0
45 -1786 0
1788 -1771 -1784 0
-1788 1771 0
-1788 1784 0
1789 -1768 -1782 0
-1789 1768 0
-1789 1782 0
1790 -1768 -1784 0
-1790 1768 0
-1790 1784 0
1791 -1771 -1782 -1764 0
-1791 1771 0
-1791 1782 0
-1791 1764 0
-43 1792 1788 1789 1790 1791 0
43 -1792 0
43 -1788 0
43 -1789 0
43 -1790 0
43 -1791 0
1793 -1771 -1768 0
-1793 1771 0
-1793 1768 0
1794 -1768 -1768 0
-1794 1768 0
-1794 1768 0
1795 -1768 -1771 0
-1795 1768 0
-1795 1771 0
1796 -1771 -1771 -1764 0
-1796 1771 0
-1796 1771 0
-1796 1764 0
-1797 1798 1793 1794 1795 1796 0
1797 -1798 0
1797 -1793 0
1797 -1794 0
1797 -1795 0
1797 -1796 0
1799 -1800 -1800 0
-1799 1800 0
-1799 1800 0
-1801 1802 1799 0
1801 -1802 0
1801 -1799 0
1803 -1800 -1804 0
-1803 1800 0
-1803 1804 0
-604 1805 1803 0
604 -1805 0
604 -1803 0
1806 -1800 -1807 0
-1806 1800 0
-1806 1807 0
-602 1808 1806 0
602 -1808 0
602 -1806 0
1809 -1810 -1807 0
-1809 1810 0
-1809 1807 0
-605 1811 1809 0
605 -1811 0
605 -1809 0
1812 -1804 -1810 0
-1812 1804 0
-1812 1810 0
-603 1813 1812 0
603 -1813 0
603 -1812 0
1814 -1804 -1804 0
-1814 1804 0
-1814 1804 0
-1815 1816 1814 0
1815 -1816 0
1815 -1814 0
1817 -1818 -1818 0
-1817 1818 0
-1817 1818 0
-1819 1820 1817 0
1819 -1820 0
1819 -1817 0
1821 -1818 -1822 0
-1821 1818 0
-1821 1822 0
-564 1823 1821 0
564 -1823 0
564 -1821 0
1824 -1818 -1825 0
-1824 1818 0
-1824 1825 0
-562 1826 1824 0
562 -1826 0
562 -1824 0
1827 -1828 -1825 0
-1827 1828 0
-1827 1825 0
-565 1829 1827 0
565 -1829 0
565 -1827 0
1830 -1822 -1828 0
-1830 1822 0
-1830 1828 0
-563 1831 1830 0
563 -1831 0
563 -1830 0
1832 -1822 -1822 0
-1832 1822 0
-1832 1822 0
-1833 1834 1832 0
1833 -1834 0
1833 -1832 0
1835 -1836 -1837 0
-1835 1836 0
-1835 1837 0
1838 -1837 -1837 0
-1838 1837 0
-1838 1837 0
1839 -1837 -1836 0
-1839 1837 0
-1839 1836 0
1840 -1836 -1836 -1841 0
-1840 1836 0
-1840 1836 0
-1840 1841 0
-1842 1843 1835 1838 1839 1840 0
1842 -1843 0
1842 -1835 0
1842 -1838 0
1842 -1839 0
1842 -1840 0
1844 -1836 -1845 0
-1844 1836 0
-1844 1845 0
1846 -1837 -1845 0
-1846 1837 0
-1846 1845 0
1847 -1837 -1848 0
-1847 1837 0
-1847 1848 0
1849 -1836 -1848 -1841 0
-1849 1836 0
-1849 1848 0
-1849 1841 0
-294 1850 1844 1846 1847 1849 0
294 -1850 0
294 -1844 0
294 -1846 0
294 -1847 0
294 -1849 0
1851 -1836 -1852 0
-1851 1836 0
-1851 1852 0
1853 -1837 -1854 0
-1853 1837 0
-1853 1854 0
1855 -1837 -1852 0
-1855 1837 0
-1855 1852 0
1856 -1836 -1854 -1841 0
-1856 1836 0
-1856 1854 0
-1856 1841 0
-292 1857 1851 1853 1855 1856 0
292 -1857 0
292 -1851 0
292 -1853 0
292 -1855 0
292 -1856 0
1858 -1859 -1852 0
-1858 1859 0
-1858 1852 0
1860 -1861 -1852 0
-1860 1861 0
-1860 1852 0
1862 -1861 -1854 0
-1862 1861 0
-1862 1854 0
1863 -1859 -1854 -1841 0
-1863 1859 0
-1863 1854 0
-1863 1841 0
-295 1864 1858 1860 1862 1863 0
295 -1864 0
295 -1858 0
295 -1860 0
295 -1862 0
295 -1863 0
1865 -1848 -1861 0
-1865 1848 0
-1865 1861 0
1866 -1845 -1859 0
-1866 1845 0
-1866 1859 0
1867 -1845 -1861 0
-1867 1845 0
-1867 1861 0
1868 -1848 -1859 -1841 0
-1868 1848 0
-1868 1859 0
-1868 1841 0
-293 1869 1865 1866 1867 1868 0
293 -1869 0
293 -1865 0
293 -1866 0
293 -1867 0
293 -1868 0
1870 -1848 -1845 0
-1870 1848 0
-1870 1845 0
1871 -1845 -1845 0
-1871 1845 0
-1871 1845 0
1872 -1845 -1848 0
-1872 1845 0
-1872 1848 0
1873 -1848 -1848 -1841 0
-1873 1848 0
-1873 1848 0
-1873 1841 0
-1874 1875 1870 1871 1872 1873 0
1874 -1875 0
1874 -1870 0
1874 -1871 0
1874 -1872 0
1874 -1873 0
1876 -1877 -1877 0
-1876 1877 0
-1876 1877 0
-1878 1879 1876 0
1878 -1879 0
1878 -1876 0
1880 -1877 -1881 0
-1880 1877 0
-1880 1881 0
-1159 1882 1880 0
1159 -1882 0
1159 -1880 0
1883 -1877 -1884 0
-1883 1877 0
-1883 1884 0
-1157 1885 1883 0
1157 -1885 0
1157 -1883 0
1886 -1887 -1884 0
-1886 1887 0
-1886 1884 0
-1160 1888 1886 0
1160 -1888 0
1160 -1886 0
1889 -1881 -1887 0
-1889 1881 0
-1889 1887 0
-1158 1890 1889 0
1158 -1890 0
1158 -1889 0
1891 -1881 -1881 0
-1891 1881 0
-1891 1881 0
-1892 1893 1891 0
1892 -1893 0
1892 -1891 0
1894 -1895 -1895 0
-1894 1895 0
-1894 1895 0
-1896 1897 1894 0
1896 -1897 0
1896 -1894 0
1898 -1895 -1899 0
-1898 1895 0
-1898 1899 0
-79 1900 1898 0
79 -1900 0
79 -1898 0
1901 -1895 -1902 0
-1901 1895 0
-1901 1902 0
-77 1903 1901 0
77 -1903 0
77 -1901 0
1904 -1905 -1902 0
-1904 1905 0
-1904 1902 0
-80 1906 1904 0
80 -1906 0
80 -1904 0
1907 -1899 -1905 0
-1907 1899 0
-1907 1905 0
-78 1908 1907 0
78 -1908 0
78 -1907 0
1909 -1899 -1899 0
-1909 1899 0
-1909 1899 0
-1910 1911 1909 0
1910 -1911 0
1910 -1909 0
1912 -1877 -1913 0
-1912 1877 0
-1912 1913 0
1914 -1913 -1913 0
-1914 1913 0
-1914 1913 0
1915 -1913 -1877 0
-1915 1913 0
-1915 1877 0
1916 -1877 -1877 -1917 0
-1916 1877 0
-1916 1877 0
-1916 1917 0
-1918 1879 1912 1914 1915 1916 0
1918 -1879 0
1918 -1912 0
1918 -1914 0
1918 -1915 0
1918 -1916 0
1919 -1877 -1920 0
-1919 1877 0
-1919 1920 0
1921 -1913 -1920 0
-1921 1913 0
-1921 1920 0
1922 -1913 -1881 0
-1922 1913 0
-1922 1881 0
1923 -1877 -1881 -1917 0
-1923 1877 0
-1923 1881 0
-1923 1917 0
-964 1882 1919 1921 1922 1923 0
964 -1882 0
964 -1919 0
964 -1921 0
964 -1922 0
964 -1923 0
1924 -1877 -1925 0
-1924 1877 0
-1924 1925 0
1926 -1913 -1884 0
-1926 1913 0
-1926 1884 0
1927 -1913 -1925 0
-1927 1913 0
-1927 1925 0
1928 -1877 -1884 -1917 0
-1928 1877 0
-1928 1884 0
-1928 1917 0
-962 1885 1924 1926 1927 1928 0
962 -1885 0
962 -1924 0
962 -1926 0
962 -1927 0
962 -1928 0
1929 -1887 -1925 0
-1929 1887 0
-1929 1925 0
1930 -1931 -1925 0
-1930 1931 0
-1930 1925 0
1932 -1931 -1884 0
-1932 1931 0
-1932 1884 0
1933 -1887 -1884 -1917 0
-1933 1887 0
-1933 1884 0
-1933 1917 0
-965 1888 1929 1930 1932 1933 0
965 -1888 0
965 -1929 0
965 -1930 0
965 -1932 0
965 -1933 0
1934 -1881 -1931 0
-1934 1881 0
-1934 1931 0
1935 -1920 -1887 0
-1935 1920 0
-1935 1887 0
1936 -1920 -1931 0
-1936 1920 0
-1936 1931 0
1937 -1881 -1887 -1917 0
-1937 1881 0
-1937 1887 0
-1937 1917 0
-963 1890 1934 1935 1936 1937 0
963 -1890 0
963 -1934 0
963 -1935 0
963 -1936 0
963 -1937 0
1938 -1881 -1920 0
-1938 1881 0
-1938 1920 0
1939 -1920 -1920 0
-1939 1920 0
-1939 1920 0
1940 -1920 -1881 0
-1940 1920 0
-1940 1881 0
1941 -1881 -1881 -1917 0
-1941 1881 0
-1941 1881 0
-1941 1917 0
-1942 1893 1938 1939 1940 1941 0
1942 -1893 0
1942 -1938 0
1942 -1939 0
1942 -1940 0
1942 -1941 0
1943 -1944 -1944 0
-1943 1944 0
-1943 1944 0
-1945 1946 1943 0
1945 -1946 0
1945 -1943 0
1947 -1944 -1948 0
-1947 1944 0
-1947 1948 0
-1169 1949 1947 0
1169 -1949 0
1169 -1947 0
1950 -1944 -1951 0
-1950 1944 0
-1950 1951 0
-1167 1952 1950 0
1167 -1952 0
1167 -1950 0
1953 -1954 -1951 0
-1953 1954 0
-1953 1951 0
-1170 1955 1953 0
1170 -1955 0
1170 -1953 0
1956 -1948 -1954 0
-1956 1948 0
-1956 1954 0
-1168 1957 1956 0
1168 -1957 0
1168 -1956 0
1958 -1948 -1948 0
-1958 1948 0
-1958 1948 0
-1959 1960 1958 0
1959 -1960 0
1959 -1958 0
1961 -1962 -1962 0
-1961 1962 0
-1961 1962 0
-1963 1964 1961 0
1963 -1964 0
1963 -1961 0
1965 -1962 -1966 0
-1965 1962 0
-1965 1966 0
-679 1967 1965 0
679 -1967 0
679 -1965 0
1968 -1962 -1969 0
-1968 1962 0
-1968 1969 0
-677 1970 1968 0
677 -1970 0
677 -1968 0
1971 -1972 -1969 0
-1971 1972 0
-1971 1969 0
-680 1973 1971 0
680 -1973 0
680 -1971 0
1974 -1966 -1972 0
-1974 1966 0
-1974 1972 0
-678 1975 1974 0
678 -1975 0
678 -1974 0
1976 -1966 -1966 0
-1976 1966 0
-1976 1966 0
-1977 1978 1976 0
1977 -1978 0
1977 -1976 0
1979 -1980 -1980 0
-1979 1980 0
-1979 1980 0
-1981 1982 1979 0
1981 -1982 0
1981 -1979 0
1983 -1980 -1984 0
-1983 1980 0
-1983 1984 0
-279 1985 1983 0
279 -1985 0
279 -1983 0
1986 -1980 -1987 0
-1986 1980 0
-1986 1987 0
-277 1988 1986 0
277 -1988 0
277 -1986 0
1989 -1990 -1987 0
-1989 1990 0
-1989 1987 0
-280 1991 1989 0
280 -1991 0
280 -1989 0
1992 -1984 -1990 0
-1992 1984 0
-1992 1990 0
-278 1993 1992 0
278 -1993 0
278 -1992 0
1994 -1984 -1984 0
-1994 1984 0
-1994 1984 0
-1995 1996 1994 0
1995 -1996 0
1995 -1994 0
1997 -1998 -1998 0
-1997 1998 0
-1997 1998 0
-1999 2000 1997 0
1999 -2000 0
1999 -1997 0
2001 -1998 -2002 0
-2001 1998 0
-2001 2002 0
-574 2003 2001 0
574 -2003 0
574 -2001 0
2004 -1998 -2005 0
-2004 1998 0
-2004 2005 0
-572 2006 2004 0
572 -2006 0
572 -2004 0
2007 -2008 -2005 0
-2007 2008 0
-2007 2005 0
-575 2009 2007 0
575 -2009 0
575 -2007 0
2010 -2002 -2008 0
-2010 2002 0
-2010 2008 0
-573 2011 2010 0
573 -2011 0
573 -2010 0
2012 -2002 -2002 0
-2012 2002 0
-2012 2002 0
-2013 2014 2012 0
2013 -2014 0
2013 -2012 0
2015 -2016 -2016 0
-2015 2016 0
-2015 2016 0
-2017 2018 2015 0
2017 -2018 0
2017 -2015 0
2019 -2016 -2020 0
-2019 2016 0
-2019 2020 0
-1099 2021 2019 0
1099 -2021 0
1099 -2019 0
2022 -2016 -2023 0
-2022 2016 0
-2022 2023 0
-1097 2024 2022 0
1097 -2024 0
1097 -2022 0
2025 -2026 -2023 0
-2025 2026 0
-2025 2023 0
-1100 2027 2025 0
1100 -2027 0
1100 -2025 0
2028 -2020 -2026 0
-2028 2020 0
-2028 2026 0
-1098 2029 2028 0
1098 -2029 0
1098 -2028 0
2030 -2020 -2020 0
-2030 2020 0
-2030 2020 0
-2031 2032 2030 0
2031 -2032 0
2031 -2030 0
2033 -2034 -2034 0
-2033 2034 0
-2033 2034 0
-2035 2036 2033 0
2035 -2036 0
2035 -2033 0
2037 -2034 -2038 0
-2037 2034 0
-2037 2038 0
-889 2039 2037 0
889 -2039 0
889 -2037 0
2040 -2034 -2041 0
-2040 2034 0
-2040 2041 0
-887 2042 2040 0
887 -2042 0
887 -2040 0
2043 -2044 -2041 0
-2043 2044 0
-2043 2041 0
-890 2045 2043 0
890 -2045 0
890 -2043 0
2046 -2038 -2044 0
-2046 2038 0
-2046 2044 0
-888 2047 2046 0
888 -2047 0
888 -2046 0
2048 -2038 -2038 0
-2048 2038 0
-2048 2038 0
-2049 2050 2048 0
2049 -2050 0
2049 -2048 0
2051 -1944 -2052 0
-2051 1944 0
-2051 2052 0
2053 -2052 -2052 0
-2053 2052 0
-2053 2052 0
2054 -2052 -1944 0
-2054 2052 0
-2054 1944 0
2055 -1944 -1944 -2056 0
-2055 1944 0
-2055 1944 0
-2055 2056 0
-2057 1946 2051 2053 2054 2055 0
2057 -1946 0
2057 -2051 0
2057 -2053 0
2057 -2054 0
2057 -2055 0
2058 -1944 -2059 0
-2058 1944 0
-2058 2059 0
2060 -2052 -2059 0
-2060 2052 0
-2060 2059 0
2061 -2052 -1948 0
-2061 2052 0
-2061 1948 0
2062 -1944 -1948 -2056 0
-2062 1944 0
-2062 1948 0
-2062 2056 0
-1004 1949 2058 2060 2061 2062 0
1004 -1949 0
1004 -2058 0
1004 -2060 0
1004 -2061 0
1004 -2062 0
2063 -1944 -2064 0
-2063 1944 0
-2063 2064 0
2065 -2052 -1951 0
-2065 2052 0
-2065 1951 0
2066 -2052 -2064 0
-2066 2052 0
-2066 2064 0
2067 -1944 -1951 -2056 0
-2067 1944 0
-2067 1951 0
-2067 2056 0
-1002 1952 2063 2065 2066 2067 0
1002 -1952 0
1002 -2063 0
1002 -2065 0
1002 -2066 0
1002 -2067 0
2068 -1954 -2064 0
-2068 1954 0
-2068 2064 0
2069 -2070 -2064 0
-2069 2070 0
-2069 2064 0
2071 -2070 -1951 0
-2071 2070 0
-2071 1951 0
2072 -1954 -1951 -2056 0
-2072 1954 0
-2072 1951 0
-2072 2056 0
-1005 1955 2068 2069 2071 2072 0
1005 -1955 0
1005 -2068 0
1005 -2069 0
1005 -2071 0
1005 -2072 0
2073 -1948 -2070 0
-2073 1948 0
-2073 2070 0
2074 -2059 -1954 0
-2074 2059 0
-2074 1954 0
2075 -2059 -2070 0
-2075 2059 0
-2075 2070 0
2076 -1948 -1954 -2056 0
-2076 1948 0
-2076 1954 0
-2076 2056 0
-1003 1957 2073 2074 2075 2076 0
1003 -1957 0
1003 -2073 0
1003 -2074 0
1003 -2075 0
1003 -2076 0
2077 -1948 -2059 0
-2077 1948 0
-2077 2059 0
2078 -2059 -2059 0
-2078 2059 0
-2078 2059 0
2079 -2059 -1948 0
-2079 2059 0
-2079 1948 0
2080 -1948 -1948 -2056 0
-2080 1948 0
-2080 1948 0
-2080 2056 0
-2081 1960 2077 2078 2079 2080 0
2081 -1960 0
2081 -2077 0
2081 -2078 0
2081 -2079 0
2081 -2080 0
2082 -1425 -1425 0
-2082 1425 0
-2082 1425 0
-2083 1405 2082 0
2083 -1405 0
2083 -2082 0
2084 -1425 -1433 0
-2084 1425 0
-2084 1433 0
-939 1409 2084 0
939 -1409 0
939 -2084 0
2085 -1425 -1428 0
-2085 1425 0
-2085 1428 0
-937 1416 2085 0
937 -1416 0
937 -2085 0
2086 -1423 -1428 0
-2086 1423 0
-2086 1428 0
-940 1418 2086 0
940 -1418 0
940 -2086 0
2087 -1433 -1423 0
-2087 1433 0
-2087 1423 0
-938 1412 2087 0
938 -1412 0
938 -2087 0
2088 -1433 -1433 0
-2088 1433 0
-2088 1433 0
-2089 1439 2088 0
2089 -1439 0
2089 -2088 0
2090 -2091 -2091 0
-2090 2091 0
-2090 2091 0
-2092 2093 2090 0
2092 -2093 0
2092 -2090 0
2094 -2091 -2095 0
-2094 2091 0
-2094 2095 0
-994 2096 2094 0
994 -2096 0
994 -2094 0
2097 -2091 -2098 0
-2097 2091 0
-2097 2098 0
-992 2099 2097 0
992 -2099 0
992 -2097 0
2100 -2101 -2098 0
-2100 2101 0
-2100 2098 0
-995 2102 2100 0
995 -2102 0
995 -2100 0
2103 -2095 -2101 0
-2103 2095 0
-2103 2101 0
-993 2104 2103 0
993 -2104 0
993 -2103 0
2105 -2095 -2095 0
-2105 2095 0
-2105 2095 0
-2106 2107 2105 0
2106 -2107 0
2106 -2105 0
2108 -2109 -2109 0
-2108 2109 0
-2108 2109 0
-2110 2111 2108 0
2110 -2111 0
2110 -2108 0
2112 -2109 -2113 0
-2112 2109 0
-2112 2113 0
-664 2114 2112 0
664 -2114 0
664 -2112 0
2115 -2109 -2116 0
-2115 2109 0
-2115 2116 0
-662 2117 2115 0
662 -2117 0
662 -2115 0
2118 -2119 -2116 0
-2118 2119 0
-2118 2116 0
-665 2120 2118 0
665 -2120 0
665 -2118 0
2121 -2113 -2119 0
-2121 2113 0
-2121 2119 0
-663 2122 2121 0
663 -2122 0
663 -2121 0
2123 -2113 -2113 0
-2123 2113 0
-2123 2113 0
-2124 2125 2123 0
2124 -2125 0
2124 -2123 0
2126 -1684 -1684 0
-2126 1684 0
-2126 1684 0
-2127 1664 2126 0
2127 -1664 0
2127 -2126 0
2128 -1684 -1692 0
-2128 1684 0
-2128 1692 0
-139 1668 2128 0
139 -1668 0
139 -2128 0
2129 -1684 -1687 0
-2129 1684 0
-2129 1687 0
-137 1675 2129 0
137 -1675 0
137 -2129 0
2130 -1682 -1687 0
-2130 1682 0
-2130 1687 0
-140 1677 2130 0
140 -1677 0
140 -2130 0
2131 -1692 -1682 0
-2131 1692 0
-2131 1682 0
-138 1671 2131 0
138 -1671 0
138 -2131 0
2132 -1692 -1692 0
-2132 1692 0
-2132 1692 0
-2133 1698 2132 0
2133 -1698 0
2133 -2132 0
2134 -2135 -2136 0
-2134 2135 0
-2134 2136 0
2137 -2136 -2136 0
-2137 2136 0
-2137 2136 0
2138 -2136 -2135 0
-2138 2136 0
-2138 2135 0
2139 -2135 -2135 -2140 0
-2139 2135 0
-2139 2135 0
-2139 2140 0
-2141 2142 2134 2137 2138 2139 0
2141 -2142 0
2141 -2134 0
2141 -2137 0
2141 -2138 0
2141 -2139 0
2143 -2135 -2144 0
-2143 2135 0
-2143 2144 0
2145 -2136 -2144 0
-2145 2136 0
-2145 2144 0
2146 -2136 -2147 0
-2146 2136 0
-2146 2147 0
2148 -2135 -2147 -2140 0
-2148 2135 0
-2148 2147 0
-2148 2140 0
-719 2149 2143 2145 2146 2148 0
719 -2149 0
719 -2143 0
719 -2145 0
719 -2146 0
719 -2148 0
2150 -2135 -2151 0
-2150 2135 0
-2150 2151 0
2152 -2136 -2153 0
-2152 2136 0
-2152 2153 0
2154 -2136 -2151 0
-2154 2136 0
-2154 2151 0
2155 -2135 -2153 -2140 0
-2155 2135 0
-2155 2153 0
-2155 2140 0
-717 2156 2150 2152 2154 2155 0
717 -2156 0
717 -2150 0
717 -2152 0
717 -2154 0
717 -2155 0
2157 -2158 -2151 0
-2157 2158 0
-2157 2151 0
2159 -2160 -2151 0
-2159 2160 0
-2159 2151 0
2161 -2160 -2153 0
-2161 2160 0
-2161 2153 0
2162 -2158 -2153 -2140 0
-2162 2158 0
-2162 2153 0
-2162 2140 0
-720 2163 2157 2159 2161 2162 0
720 -2163 0
720 -2157 0
720 -2159 0
720 -2161 0
720 -2162 0
2164 -2147 -2160 0
-2164 2147 0
-2164 2160 0
2165 -2144 -2158 0
-2165 2144 0
-2165 2158 0
2166 -2144 -2160 0
-2166 2144 0
-2166 2160 0
2167 -2147 -2158 -2140 0
-2167 2147 0
-2167 2158 0
-2167 2140 0
-718 2168 2164 2165 2166 2167 0
718 -2168 0
718 -2164 0
718 -2165 0
718 -2166 0
718 -2167 0
2169 -2147 -2144 0
-2169 2147 0
-2169 2144 0
2170 -2144 -2144 0
-2170 2144 0
-2170 2144 0
2171 -2144 -2147 0
-2171 2144 0
-2171 2147 0
2172 -2147 -2147 -2140 0
-2172 2147 0
-2172 2147 0
-2172 2140 0
-2173 2174 2169 2170 2171 2172 0
2173 -2174 0
2173 -2169 0
2173 -2170 0
2173 -2171 0
2173 -2172 0
2175 -2176 -2177 0
-2175 2176 0
-2175 2177 0
2178 -2177 -2177 0
-2178 2177 0
-2178 2177 0
2179 -2177 -2176 0
-2179 2177 0
-2179 2176 0
2180 -2176 -2176 -2181 0
-2180 2176 0
-2180 2176 0
-2180 2181 0
-2182 2183 2175 2178 2179 2180 0
2182 -2183 0
2182 -2175 0
2182 -2178 0
2182 -2179 0
2182 -2180 0
2184 -2176 -2185 0
-2184 2176 0
-2184 2185 0
2186 -2177 -2185 0
-2186 2177 0
-2186 2185 0
2187 -2177 -2188 0
-2187 2177 0
-2187 2188 0
2189 -2176 -2188 -2181 0
-2189 2176 0
-2189 2188 0
-2189 2181 0
-69 2190 2184 2186 2187 2189 0
69 -2190 0
69 -2184 0
69 -2186 0
69 -2187 0
69 -2189 0
2191 -2176 -2192 0
-2191 2176 0
-2191 2192 0
2193 -2177 -2194 0
-2193 2177 0
-2193 2194 0
2195 -2177 -2192 0
-2195 2177 0
-2195 2192 0
2196 -2176 -2194 -2181 0
-2196 2176 0
-2196 2194 0
-2196 2181 0
-67 2197 2191 2193 2195 2196 0
67 -2197 0
67 -2191 0
67 -2193 0
67 -2195 0
67 -2196 0
2198 -2199 -2192 0
-2198 2199 0
-2198 2192 0
2200 -2201 -2192 0
-2200 2201 0
-2200 2192 0
2202 -2201 -2194 0
-2202 2201 0
-2202 2194 0
2203 -2199 -2194 -2181 0
-2203 2199 0
-2203 2194 0
-2203 2181 0
-70 2204 2198 2200 2202 2203 0
70 -2204 0
70 -2198 0
70 -2200 0
70 -2202 0
70 -2203 0
2205 -2188 -2201 0
-2205 2188 0
-2205 2201 0
2206 -2185 -2199 0
-2206 2185 0
-2206 2199 0
2207 -2185 -2201 0
-2207 2185 0
-2207 2201 0
2208 -2188 -2199 -2181 0
-2208 2188 0
-2208 2199 0
-2208 2181 0
-68 2209 2205 2206 2207 2208 0
68 -2209 0
68 -2205 0
68 -2206 0
68 -2207 0
68 -2208 0
2210 -2188 -2185 0
-2210 2188 0
-2210 2185 0
2211 -2185 -2185 0
-2211 2185 0
-2211 2185 0
2212 -2185 -2188 0
-2212 2185 0
-2212 2188 0
2213 -2188 -2188 -2181 0
-2213 2188 0
-2213 2188 0
-2213 2181 0
-2214 2215 2210 2211 2212 2213 0
2214 -2215 0
2214 -2210 0
2214 -2211 0
2214 -2212 0
2214 -2213 0
2216 -2217 -2217 0
-2216 2217 0
-2216 2217 0
-2218 2219 2216 0
2218 -2219 0
2218 -2216 0
2220 -2217 -2221 0
-2220 2217 0
-2220 2221 0
-814 2222 2220 0
814 -2222 0
814 -2220 0
2223 -2217 -2224 0
-2223 2217 0
-2223 2224 0
-812 2225 2223 0
812 -2225 0
812 -2223 0
2226 -2227 -2224 0
-2226 2227 0
-2226 2224 0
-815 2228 2226 0
815 -2228 0
815 -2226 0
2229 -2221 -2227 0
-2229 2221 0
-2229 2227 0
-813 2230 2229 0
813 -2230 0
813 -2229 0
2231 -2221 -2221 0
-2231 2221 0
-2231 2221 0
-2232 2233 2231 0
2232 -2233 0
2232 -2231 0
2234 -2235 -2235 0
-2234 2235 0
-2234 2235 0
-2236 2237 2234 0
2236 -2237 0
2236 -2234 0
2238 -2235 -2239 0
-2238 2235 0
-2238 2239 0
-1014 2240 2238 0
1014 -2240 0
1014 -2238 0
2241 -2235 -2242 0
-2241 2235 0
-2241 2242 0
-1012 2243 2241 0
1012 -2243 0
1012 -2241 0
2244 -2245 -2242 0
-2244 2245 0
-2244 2242 0
-1015 2246 2244 0
1015 -2246 0
1015 -2244 0
2247 -2239 -2245 0
-2247 2239 0
-2247 2245 0
-1013 2248 2247 0
1013 -2248 0
1013 -2247 0
2249 -2239 -2239 0
-2249 2239 0
-2249 2239 0
-2250 2251 2249 0
2250 -2251 0
2250 -2249 0
2252 -2253 -2253 0
-2252 2253 0
-2252 2253 0
-2254 2255 2252 0
2254 -2255 0
2254 -2252 0
2256 -2253 -1831 0
-2256 2253 0
-2256 1831 0
-444 2257 2256 0
444 -2257 0
444 -2256 0
2258 -2253 -1829 0
-2258 2253 0
-2258 1829 0
-442 2259 2258 0
442 -2259 0
442 -2258 0
2260 -1828 -1829 0
-2260 1828 0
-2260 1829 0
-445 1825 2260 0
445 -1825 0
445 -2260 0
2261 -1831 -1828 0
-2261 1831 0
-2261 1828 0
-443 1822 2261 0
443 -1822 0
443 -2261 0
2262 -1831 -1831 0
-2262 1831 0
-2262 1831 0
-2263 1834 2262 0
2263 -1834 0
2263 -2262 0
2264 -2265 -2266 0
-2264 2265 0
-2264 2266 0
2267 -2266 -2266 0
-2267 2266 0
-2267 2266 0
2268 -2266 -2265 0
-2268 2266 0
-2268 2265 0
2269 -2265 -2265 -1443 0
-2269 2265 0
-2269 2265 0
-2269 1443 0
-2270 2271 2264 2267 2268 2269 0
2270 -2271 0
2270 -2264 0
2270 -2267 0
2270 -2268 0
2270 -2269 0
2272 -2265 -1446 0
-2272 2265 0
-2272 1446 0
2273 -2266 -1446 0
-2273 2266 0
-2273 1446 0
2274 -2266 -1454 0
-2274 2266 0
-2274 1454 0
2275 -2265 -1454 -1443 0
-2275 2265 0
-2275 1454 0
-2275 1443 0
-14 2276 2272 2273 2274 2275 0
14 -2276 0
14 -2272 0
14 -2273 0
14 -2274 0
14 -2275 0
2277 -2265 -1449 0
-2277 2265 0
-2277 1449 0
2278 -2266 -1452 0
-2278 2266 0
-2278 1452 0
2279 -2266 -1449 0
-2279 2266 0
-2279 1449 0
2280 -2265 -1452 -1443 0
-2280 2265 0
-2280 1452 0
-2280 1443 0
-12 2281 2277 2278 2279 2280 0
12 -2281 0
12 -2277 0
12 -2278 0
12 -2279 0
12 -2280 0
2282 -1451 -1449 0
-2282 1451 0
-2282 1449 0
2283 -1441 -1449 0
-2283 1441 0
-2283 1449 0
2284 -1441 -1452 0
-2284 1441 0
-2284 1452 0
2285 -1451 -1452 -1443 0
-2285 1451 0
-2285 1452 0
-2285 1443 0
-15 1448 2282 2283 2284 2285 0
15 -1448 0
15 -2282 0
15 -2283 0
15 -2284 0
15 -2285 0
2286 -1454 -1441 0
-2286 1454 0
-2286 1441 0
2287 -1446 -1451 0
-2287 1446 0
-2287 1451 0
2288 -1446 -1441 0
-2288 1446 0
-2288 1441 0
2289 -1454 -1451 -1443 0
-2289 1454 0
-2289 1451 0
-2289 1443 0
-13 1445 2286 2287 2288 2289 0
13 -1445 0
13 -2286 0
13 -2287 0
13 -2288 0
13 -2289 0
2290 -1454 -1446 0
-2290 1454 0
-2290 1446 0
2291 -1446 -1446 0
-2291 1446 0
-2291 1446 0
2292 -1446 -1454 0
-2292 1446 0
-2292 1454 0
2293 -1454 -1454 -1443 0
-2293 1454 0
-2293 1454 0
-2293 1443 0
-2294 1457 2290 2291 2292 2293 0
2294 -1457 0
2294 -2290 0
2294 -2291 0
2294 -2292 0
2294 -2293 0
2295 -2296 -2297 0
-2295 2296 0
-2295 2297 0
2298 -2297 -2297 0
-2298 2297 0
-2298 2297 0
2299 -2297 -2296 0
-2299 2297 0
-2299 2296 0
2300 -2296 -2296 -2301 0
-2300 2296 0
-2300 2296 0
-2300 2301 0
-2302 2303 2295 2298 2299 2300 0
2302 -2303 0
2302 -2295 0
2302 -2298 0
2302 -2299 0
2302 -2300 0
2304 -2296 -2305 0
-2304 2296 0
-2304 2305 0
2306 -2297 -2305 0
-2306 2297 0
-2306 2305 0
2307 -2297 -2308 0
-2307 2297 0
-2307 2308 0
2309 -2296 -2308 -2301 0
-2309 2296 0
-2309 2308 0
-2309 2301 0
-449 2310 2304 2306 2307 2309 0
449 -2310 0
449 -2304 0
449 -2306 0
449 -2307 0
449 -2309 0
2311 -2296 -2312 0
-2311 2296 0
-2311 2312 0
2313 -2297 -2314 0
-2313 2297 0
-2313 2314 0
2315 -2297 -2312 0
-2315 2297 0
-2315 2312 0
2316 -2296 -2314 -2301 0
-2316 2296 0
-2316 2314 0
-2316 2301 0
-447 2317 2311 2313 2315 2316 0
447 -2317 0
447 -2311 0
447 -2313 0
447 -2315 0
447 -2316 0
2318 -2319 -2312 0
-2318 2319 0
-2318 2312 0
2320 -2321 -2312 0
-2320 2321 0
-2320 2312 0
2322 -2321 -2314 0
-2322 2321 0
-2322 2314 0
2323 -2319 -2314 -2301 0
-2323 2319 0
-2323 2314 0
-2323 2301 0
-450 2324 2318 2320 2322 2323 0
450 -2324 0
450 -2318 0
450 -2320 0
450 -2322 0
450 -2323 0
2325 -2308 -2321 0
-2325 2308 0
-2325 2321 0
2326 -2305 -2319 0
-2326 2305 0
-2326 2319 0
2327 -2305 -2321 0
-2327 2305 0
-2327 2321 0
2328 -2308 -2319 -2301 0
-2328 2308 0
-2328 2319 0
-2328 2301 0
-448 2329 2325 2326 2327 2328 0
448 -2329 0
448 -2325 0
448 -2326 0
448 -2327 0
448 -2328 0
2330 -2308 -2305 0
-2330 2308 0
-2330 2305 0
2331 -2305 -2305 0
-2331 2305 0
-2331 2305 0
2332 -2305 -2308 0
-2332 2305 0
-2332 2308 0
2333 -2308 -2308 -2301 0
-2333 2308 0
-2333 2308 0
-2333 2301 0
-2334 2335 2330 2331 2332 2333 0
2334 -2335 0
2334 -2330 0
2334 -2331 0
2334 -2332 0
2334 -2333 0
2336 -2337 -2337 0
-2336 2337 0
-2336 2337 0
-2338 2339 2336 0
2338 -2339 0
2338 -2336 0
2340 -2337 -2341 0
-2340 2337 0
-2340 2341 0
-804 2342 2340 0
804 -2342 0
804 -2340 0
2343 -2337 -2344 0
-2343 2337 0
-2343 2344 0
-802 2345 2343 0
802 -2345 0
802 -2343 0
2346 -2347 -2344 0
-2346 2347 0
-2346 2344 0
-805 2348 2346 0
805 -2348 0
805 -2346 0
2349 -2341 -2347 0
-2349 2341 0
-2349 2347 0
-803 2350 2349 0
803 -2350 0
803 -2349 0
2351 -2341 -2341 0
-2351 2341 0
-2351 2341 0
-2352 2353 2351 0
2352 -2353 0
2352 -2351 0
2354 -2355 -2356 0
-2354 2355 0
-2354 2356 0
2357 -2356 -2356 0
-2357 2356 0
-2357 2356 0
2358 -2356 -2355 0
-2358 2356 0
-2358 2355 0
2359 -2355 -2355 -2360 0
-2359 2355 0
-2359 2355 0
-2359 2360 0
-2361 2362 2354 2357 2358 2359 0
2361 -2362 0
2361 -2354 0
2361 -2357 0
2361 -2358 0
2361 -2359 0
2363 -2355 -2364 0
-2363 2355 0
-2363 2364 0
2365 -2356 -2364 0
-2365 2356 0
-2365 2364 0
2366 -2356 -2367 0
-2366 2356 0
-2366 2367 0
2368 -2355 -2367 -2360 0
-2368 2355 0
-2368 2367 0
-2368 2360 0
-729 2369 2363 2365 2366 2368 0
729 -2369 0
729 -2363 0
729 -2365 0
729 -2366 0
729 -2368 0
2370 -2355 -2371 0
-2370 2355 0
-2370 2371 0
2372 -2356 -2373 0
-2372 2356 0
-2372 2373 0
2374 -2356 -2371 0
-2374 2356 0
-2374 2371 0
2375 -2355 -2373 -2360 0
-2375 2355 0
-2375 2373 0
-2375 2360 0
-727 2376 2370 2372 2374 2375 0
727 -2376 0
727 -2370 0
727 -2372 0
727 -2374 0
727 -2375 0
2377 -2378 -2371 0
-2377 2378 0
-2377 2371 0
2379 -2380 -2371 0
-2379 2380 0
-2379 2371 0
2381 -2380 -2373 0
-2381 2380 0
-2381 2373 0
2382 -2378 -2373 -2360 0
-2382 2378 0
-2382 2373 0
-2382 2360 0
-730 2383 2377 2379 2381 2382 0
730 -2383 0
730 -2377 0
730 -2379 0
730 -2381 0
730 -2382 0
2384 -2367 -2380 0
-2384 2367 0
-2384 2380 0
2385 -2364 -2378 0
-2385 2364 0
-2385 2378 0
2386 -2364 -2380 0
-2386 2364 0
-2386 2380 0
2387 -2367 -2378 -2360 0
-2387 2367 0
-2387 2378 0
-2387 2360 0
-728 2388 2384 2385 2386 2387 0
728 -2388 0
728 -2384 0
728 -2385 0
728 -2386 0
728 -2387 0
2389 -2367 -2364 0
-2389 2367 0
-2389 2364 0
2390 -2364 -2364 0
-2390 2364 0
-2390 2364 0
2391 -2364 -2367 0
-2391 2364 0
-2391 2367 0
2392 -2367 -2367 -2360 0
-2392 2367 0
-2392 2367 0
-2392 2360 0
-2393 2394 2389 2390 2391 2392 0
2393 -2394 0
2393 -2389 0
2393 -2390 0
2393 -2391 0
2393 -2392 0
2395 -2396 -2396 0
-2395 2396 0
-2395 2396 0
-2397 2398 2395 0
2397 -2398 0
2397 -2395 0
2399 -2396 -2400 0
-2399 2396 0
-2399 2400 0
-899 2401 2399 0
899 -2401 0
899 -2399 0
2402 -2396 -2403 0
-2402 2396 0
-2402 2403 0
-897 2404 2402 0
897 -2404 0
897 -2402 0
2405 -2406 -2403 0
-2405 2406 0
-2405 2403 0
-900 2407 2405 0
900 -2407 0
900 -2405 0
2408 -2400 -2406 0
-2408 2400 0
-2408 2406 0
-898 2409 2408 0
898 -2409 0
898 -2408 0
2410 -2400 -2400 0
-2410 2400 0
-2410 2400 0
-2411 2412 2410 0
2411 -2412 0
2411 -2410 0
2413 -2414 -2415 0
-2413 2414 0
-2413 2415 0
2416 -2415 -2415 0
-2416 2415 0
-2416 2415 0
2417 -2415 -2414 0
-2417 2415 0
-2417 2414 0
2418 -2414 -2414 -2419 0
-2418 2414 0
-2418 2414 0
-2418 2419 0
-2420 2421 2413 2416 2417 2418 0
2420 -2421 0
2420 -2413 0
2420 -2416 0
2420 -2417 0
2420 -2418 0
2422 -2414 -2423 0
-2422 2414 0
-2422 2423 0
2424 -2415 -2423 0
-2424 2415 0
-2424 2423 0
2425 -2415 -2426 0
-2425 2415 0
-2425 2426 0
2427 -2414 -2426 -2419 0
-2427 2414 0
-2427 2426 0
-2427 2419 0
-344 2428 2422 2424 2425 2427 0
344 -2428 0
344 -2422 0
344 -2424 0
344 -2425 0
344 -2427 0
2429 -2414 -2430 0
-2429 2414 0
-2429 2430 0
2431 -2415 -2432 0
-2431 2415 0
-2431 2432 0
2433 -2415 -2430 0
-2433 2415 0
-2433 2430 0
2434 -2414 -2432 -2419 0
-2434 2414 0
-2434 2432 0
-2434 2419 0
-342 2435 2429 2431 2433 2434 0
342 -2435 0
342 -2429 0
342 -2431 0
342 -2433 0
342 -2434 0
2436 -2437 -2430 0
-2436 2437 0
-2436 2430 0
2438 -2439 -2430 0
-2438 2439 0
-2438 2430 0
2440 -2439 -2432 0
-2440 2439 0
-2440 2432 0
2441 -2437 -2432 -2419 0
-2441 2437 0
-2441 2432 0
-2441 2419 0
-345 2442 2436 2438 2440 2441 0
345 -2442 0
345 -2436 0
345 -2438 0
345 -2440 0
345 -2441 0
2443 -2426 -2439 0
-2443 2426 0
-2443 2439 0
2444 -2423 -2437 0
-2444 2423 0
-2444 2437 0
2445 -2423 -2439 0
-2445 2423 0
-2445 2439 0
2446 -2426 -2437 -2419 0
-2446 2426 0
-2446 2437 0
-2446 2419 0
-343 2447 2443 2444 2445 2446 0
343 -2447 0
343 -2443 0
343 -2444 0
343 -2445 0
343 -2446 0
2448 -2426 -2423 0
-2448 2426 0
-2448 2423 0
2449 -2423 -2423 0
-2449 2423 0
-2449 2423 0
2450 -2423 -2426 0
-2450 2423 0
-2450 2426 0
2451 -2426 -2426 -2419 0
-2451 2426 0
-2451 2426 0
-2451 2419 0
-2452 2453 2448 2449 2450 2451 0
2452 -2453 0
2452 -2448 0
2452 -2449 0
2452 -2450 0
2452 -2451 0
2454 -2455 -2456 0
-2454 2455 0
-2454 2456 0
2457 -2456 -2456 0
-2457 2456 0
-2457 2456 0
2458 -2456 -2455 0
-2458 2456 0
-2458 2455 0
2459 -2455 -2455 -2460 0
-2459 2455 0
-2459 2455 0
-2459 2460 0
-2461 2462 2454 2457 2458 2459 0
2461 -2462 0
2461 -2454 0
2461 -2457 0
2461 -2458 0
2461 -2459 0
2463 -2455 -2464 0
-2463 2455 0
-2463 2464 0
2465 -2456 -2464 0
-2465 2456 0
-2465 2464 0
2466 -2456 -2467 0
-2466 2456 0
-2466 2467 0
2468 -2455 -2467 -2460 0
-2468 2455 0
-2468 2467 0
-2468 2460 0
-329 2469 2463 2465 2466 2468 0
329 -2469 0
329 -2463 0
329 -2465 0
329 -2466 0
329 -2468 0
2470 -2455 -2471 0
-2470 2455 0
-2470 2471 0
2472 -2456 -2473 0
-2472 2456 0
-2472 2473 0
2474 -2456 -2471 0
-2474 2456 0
-2474 2471 0
2475 -2455 -2473 -2460 0
-2475 2455 0
-2475 2473 0
-2475 2460 0
-327 2476 2470 2472 2474 2475 0
327 -2476 0
327 -2470 0
327 -2472 0
327 -2474 0
327 -2475 0
2477 -2478 -2471 0
-2477 2478 0
-2477 2471 0
2479 -2480 -2471 0
-2479 2480 0
-2479 2471 0
2481 -2480 -2473 0
-2481 2480 0
-2481 2473 0
2482 -2478 -2473 -2460 0
-2482 2478 0
-2482 2473 0
-2482 2460 0
-330 2483 2477 2479 2481 2482 0
330 -2483 0
330 -2477 0
330 -2479 0
330 -2481 0
330 -2482 0
2484 -2467 -2480 0
-2484 2467 0
-2484 2480 0
2485 -2464 -2478 0
-2485 2464 0
-2485 2478 0
2486 -2464 -2480 0
-2486 2464 0
-2486 2480 0
2487 -2467 -2478 -2460 0
-2487 2467 0
-2487 2478 0
-2487 2460 0
-328 2488 2484 2485 2486 2487 0
328 -2488 0
328 -2484 0
328 -2485 0
328 -2486 0
328 -2487 0
2489 -2467 -2464 0
-2489 2467 0
-2489 2464 0
2490 -2464 -2464 0
-2490 2464 0
-2490 2464 0
2491 -2464 -2467 0
-2491 2464 0
-2491 2467 0
2492 -2467 -2467 -2460 0
-2492 2467 0
-2492 2467 0
-2492 2460 0
-2493 2494 2489 2490 2491 2492 0
2493 -2494 0
2493 -2489 0
2493 -2490 0
2493 -2491 0
2493 -2492 0
2495 -2321 -2297 0
-2495 2321 0
-2495 2297 0
2298 -2297 -2297 0
-2298 2297 0
-2298 2297 0
2496 -2297 -2321 0
-2496 2297 0
-2496 2321 0
2497 -2321 -2321 -2303 0
-2497 2321 0
-2497 2321 0
-2497 2303 0
-2498 2301 2495 2298 2496 2497 0
2498 -2301 0
2498 -2495 0
2498 -2298 0
2498 -2496 0
2498 -2497 0
2499 -2321 -2310 0
-2499 2321 0
-2499 2310 0
2500 -2297 -2310 0
-2500 2297 0
-2500 2310 0
2501 -2297 -2329 0
-2501 2297 0
-2501 2329 0
2502 -2321 -2329 -2303 0
-2502 2321 0
-2502 2329 0
-2502 2303 0
-569 2305 2499 2500 2501 2502 0
569 -2305 0
569 -2499 0
569 -2500 0
569 -2501 0
569 -2502 0
2503 -2321 -2317 0
-2503 2321 0
-2503 2317 0
2504 -2297 -2324 0
-2504 2297 0
-2504 2324 0
2505 -2297 -2317 0
-2505 2297 0
-2505 2317 0
2506 -2321 -2324 -2303 0
-2506 2321 0
-2506 2324 0
-2506 2303 0
-567 2312 2503 2504 2505 2506 0
567 -2312 0
567 -2503 0
567 -2504 0
567 -2505 0
567 -2506 0
2507 -2319 -2317 0
-2507 2319 0
-2507 2317 0
2508 -2296 -2317 0
-2508 2296 0
-2508 2317 0
2509 -2296 -2324 0
-2509 2296 0
-2509 2324 0
2510 -2319 -2324 -2303 0
-2510 2319 0
-2510 2324 0
-2510 2303 0
-570 2314 2507 2508 2509 2510 0
570 -2314 0
570 -2507 0
570 -2508 0
570 -2509 0
570 -2510 0
2511 -2329 -2296 0
-2511 2329 0
-2511 2296 0
2512 -2310 -2319 0
-2512 2310 0
-2512 2319 0
2513 -2310 -2296 0
-2513 2310 0
-2513 2296 0
2514 -2329 -2319 -2303 0
-2514 2329 0
-2514 2319 0
-2514 2303 0
-568 2308 2511 2512 2513 2514 0
568 -2308 0
568 -2511 0
568 -2512 0
568 -2513 0
568 -2514 0
2515 -2329 -2310 0
-2515 2329 0
-2515 2310 0
2516 -2310 -2310 0
-2516 2310 0
-2516 2310 0
2517 -2310 -2329 0
-2517 2310 0
-2517 2329 0
2518 -2329 -2329 -2303 0
-2518 2329 0
-2518 2329 0
-2518 2303 0
-2519 2335 2515 2516 2517 2518 0
2519 -2335 0
2519 -2515 0
2519 -2516 0
2519 -2517 0
2519 -2518 0
2520 -2521 -2522 0
-2520 2521 0
-2520 2522 0
2523 -2522 -2522 0
-2523 2522 0
-2523 2522 0
2524 -2522 -2521 0
-2524 2522 0
-2524 2521 0
2525 -2521 -2521 -2526 0
-2525 2521 0
-2525 2521 0
-2525 2526 0
-2527 2528 2520 2523 2524 2525 0
2527 -2528 0
2527 -2520 0
2527 -2523 0
2527 -2524 0
2527 -2525 0
2529 -2521 -2530 0
-2529 2521 0
-2529 2530 0
2531 -2522 -2530 0
-2531 2522 0
-2531 2530 0
2532 -2522 -2533 0
-2532 2522 0
-2532 2533 0
2534 -2521 -2533 -2526 0
-2534 2521 0
-2534 2533 0
-2534 2526 0
-269 2535 2529 2531 2532 2534 0
269 -2535 0
269 -2529 0
269 -2531 0
269 -2532 0
269 -2534 0
2536 -2521 -2537 0
-2536 2521 0
-2536 2537 0
2538 -2522 -2539 0
-2538 2522 0
-2538 2539 0
2540 -2522 -2537 0
-2540 2522 0
-2540 2537 0
2541 -2521 -2539 -2526 0
-2541 2521 0
-2541 2539 0
-2541 2526 0
-267 2542 2536 2538 2540 2541 0
267 -2542 0
267 -2536 0
267 -2538 0
267 -2540 0
267 -2541 0
2543 -2544 -2537 0
-2543 2544 0
-2543 2537 0
2545 -2546 -2537 0
-2545 2546 0
-2545 2537 0
2547 -2546 -2539 0
-2547 2546 0
-2547 2539 0
2548 -2544 -2539 -2526 0
-2548 2544 0
-2548 2539 0
-2548 2526 0
-270 2549 2543 2545 2547 2548 0
270 -2549 0
270 -2543 0
270 -2545 0
270 -2547 0
270 -2548 0
2550 -2533 -2546 0
-2550 2533 0
-2550 2546 0
2551 -2530 -2544 0
-2551 2530 0
-2551 2544 0
2552 -2530 -2546 0
-2552 2530 0
-2552 2546 0
2553 -2533 -2544 -2526 0
-2553 2533 0
-2553 2544 0
-2553 2526 0
-268 2554 2550 2551 2552 2553 0
268 -2554 0
268 -2550 0
268 -2551 0
268 -2552 0
268 -2553 0
2555 -2533 -2530 0
-2555 2533 0
-2555 2530 0
2556 -2530 -2530 0
-2556 2530 0
-2556 2530 0
2557 -2530 -2533 0
-2557 2530 0
-2557 2533 0
2558 -2533 -2533 -2526 0
-2558 2533 0
-2558 2533 0
-2558 2526 0
-2559 2560 2555 2556 2557 2558 0
2559 -2560 0
2559 -2555 0
2559 -2556 0
2559 -2557 0
2559 -2558 0
2561 -2562 -2563 0
-2561 2562 0
-2561 2563 0
2564 -2563 -2563 0
-2564 2563 0
-2564 2563 0
2565 -2563 -2562 0
-2565 2563 0
-2565 2562 0
2566 -2562 -2562 -2567 0
-2566 2562 0
-2566 2562 0
-2566 2567 0
-2568 2569 2561 2564 2565 2566 0
2568 -2569 0
2568 -2561 0
2568 -2564 0
2568 -2565 0
2568 -2566 0
2570 -2562 -2571 0
-2570 2562 0
-2570 2571 0
2572 -2563 -2571 0
-2572 2563 0
-2572 2571 0
2573 -2563 -2574 0
-2573 2563 0
-2573 2574 0
2575 -2562 -2574 -2567 0
-2575 2562 0
-2575 2574 0
-2575 2567 0
-189 2576 2570 2572 2573 2575 0
189 -2576 0
189 -2570 0
189 -2572 0
189 -2573 0
189 -2575 0
2577 -2562 -2578 0
-2577 2562 0
-2577 2578 0
2579 -2563 -2580 0
-2579 2563 0
-2579 2580 0
2581 -2563 -2578 0
-2581 2563 0
-2581 2578 0
2582 -2562 -2580 -2567 0
-2582 2562 0
-2582 2580 0
-2582 2567 0
-187 2583 2577 2579 2581 2582 0
187 -2583 0
187 -2577 0
187 -2579 0
187 -2581 0
187 -2582 0
2584 -2585 -2578 0
-2584 2585 0
-2584 2578 0
2586 -2587 -2578 0
-2586 2587 0
-2586 2578 0
2588 -2587 -2580 0
-2588 2587 0
-2588 2580 0
2589 -2585 -2580 -2567 0
-2589 2585 0
-2589 2580 0
-2589 2567 0
-190 2590 2584 2586 2588 2589 0
190 -2590 0
190 -2584 0
190 -2586 0
190 -2588 0
190 -2589 0
2591 -2574 -2587 0
-2591 2574 0
-2591 2587 0
2592 -2571 -2585 0
-2592 2571 0
-2592 2585 0
2593 -2571 -2587 0
-2593 2571 0
-2593 2587 0
2594 -2574 -2585 -2567 0
-2594 2574 0
-2594 2585 0
-2594 2567 0
-188 2595 2591 2592 2593 2594 0
188 -2595 0
188 -2591 0
188 -2592 0
188 -2593 0
188 -2594 0
2596 -2574 -2571 0
-2596 2574 0
-2596 2571 0
2597 -2571 -2571 0
-2597 2571 0
-2597 2571 0
2598 -2571 -2574 0
-2598 2571 0
-2598 2574 0
2599 -2574 -2574 -2567 0
-2599 2574 0
-2599 2574 0
-2599 2567 0
-2600 2601 2596 2597 2598 2599 0
2600 -2601 0
2600 -2596 0
2600 -2597 0
2600 -2598 0
2600 -2599 0
2602 -2603 -2603 0
-2602 2603 0
-2602 2603 0
-2604 2605 2602 0
2604 -2605 0
2604 -2602 0
2606 -2603 -2607 0
-2606 2603 0
-2606 2607 0
-1059 2608 2606 0
1059 -2608 0
1059 -2606 0
2609 -2603 -2610 0
-2609 2603 0
-2609 2610 0
-1057 2611 2609 0
1057 -2611 0
1057 -2609 0
2612 -2613 -2610 0
-2612 2613 0
-2612 2610 0
-1060 2614 2612 0
1060 -2614 0
1060 -2612 0
2615 -2607 -2613 0
-2615 2607 0
-2615 2613 0
-1058 2616 2615 0
1058 -2616 0
1058 -2615 0
2617 -2607 -2607 0
-2617 2607 0
-2617 2607 0
-2618 2619 2617 0
2618 -2619 0
2618 -2617 0
2620 -1998 -2621 0
-2620 1998 0
-2620 2621 0
2622 -2621 -2621 0
-2622 2621 0
-2622 2621 0
2623 -2621 -1998 0
-2623 2621 0
-2623 1998 0
2624 -1998 -1998 -2625 0
-2624 1998 0
-2624 1998 0
-2624 2625 0
-2626 2000 2620 2622 2623 2624 0
2626 -2000 0
2626 -2620 0
2626 -2622 0
2626 -2623 0
2626 -2624 0
2627 -1998 -2628 0
-2627 1998 0
-2627 2628 0
2629 -2621 -2628 0
-2629 2621 0
-2629 2628 0
2630 -2621 -2002 0
-2630 2621 0
-2630 2002 0
2631 -1998 -2002 -2625 0
-2631 1998 0
-2631 2002 0
-2631 2625 0
-214 2003 2627 2629 2630 2631 0
214 -2003 0
214 -2627 0
214 -2629 0
214 -2630 0
214 -2631 0
2632 -1998 -2633 0
-2632 1998 0
-2632 2633 0
2634 -2621 -2005 0
-2634 2621 0
-2634 2005 0
2635 -2621 -2633 0
-2635 2621 0
-2635 2633 0
2636 -1998 -2005 -2625 0
-2636 1998 0
-2636 2005 0
-2636 2625 0
-212 2006 2632 2634 2635 2636 0
212 -2006 0
212 -2632 0
212 -2634 0
212 -2635 0
212 -2636 0
2637 -2008 -2633 0
-2637 2008 0
-2637 2633 0
2638 -2639 -2633 0
-2638 2639 0
-2638 2633 0
2640 -2639 -2005 0
-2640 2639 0
-2640 2005 0
2641 -2008 -2005 -2625 0
-2641 2008 0
-2641 2005 0
-2641 2625 0
-215 2009 2637 2638 2640 2641 0
215 -2009 0
215 -2637 0
215 -2638 0
215 -2640 0
215 -2641 0
2642 -2002 -2639 0
-2642 2002 0
-2642 2639 0
2643 -2628 -2008 0
-2643 2628 0
-2643 2008 0
2644 -2628 -2639 0
-2644 2628 0
-2644 2639 0
2645 -2002 -2008 -2625 0
-2645 2002 0
-2645 2008 0
-2645 2625 0
-213 2011 2642 2643 2644 2645 0
213 -2011 0
213 -2642 0
213 -2643 0
213 -2644 0
213 -2645 0
2646 -2002 -2628 0
-2646 2002 0
-2646 2628 0
2647 -2628 -2628 0
-2647 2628 0
-2647 2628 0
2648 -2628 -2002 0
-2648 2628 0
-2648 2002 0
2649 -2002 -2002 -2625 0
-2649 2002 0
-2649 2002 0
-2649 2625 0
-2650 2014 2646 2647 2648 2649 0
2650 -2014 0
2650 -2646 0
2650 -2647 0
2650 -2648 0
2650 -2649 0
2651 -2652 -2652 0
-2651 2652 0
-2651 2652 0
-2653 2654 2651 0
2653 -2654 0
2653 -2651 0
2655 -2652 -2656 0
-2655 2652 0
-2655 2656 0
-1194 2657 2655 0
1194 -2657 0
1194 -2655 0
2658 -2652 -2659 0
-2658 2652 0
-2658 2659 0
-1192 2660 2658 0
1192 -2660 0
1192 -2658 0
2661 -2662 -2659 0
-2661 2662 0
-2661 2659 0
-1195 2663 2661 0
1195 -2663 0
1195 -2661 0
2664 -2656 -2662 0
-2664 2656 0
-2664 2662 0
-1193 2665 2664 0
1193 -2665 0
1193 -2664 0
2666 -2656 -2656 0
-2666 2656 0
-2666 2656 0
-2667 2668 2666 0
2667 -2668 0
2667 -2666 0
2669 -1800 -2670 0
-2669 1800 0
-2669 2670 0
2671 -2670 -2670 0
-2671 2670 0
-2671 2670 0
2672 -2670 -1800 0
-2672 2670 0
-2672 1800 0
2673 -1800 -1800 -2674 0
-2673 1800 0
-2673 1800 0
-2673 2674 0
-2675 1802 2669 2671 2672 2673 0
2675 -1802 0
2675 -2669 0
2675 -2671 0
2675 -2672 0
2675 -2673 0
2676 -1800 -2677 0
-2676 1800 0
-2676 2677 0
2678 -2670 -2677 0
-2678 2670 0
-2678 2677 0
2679 -2670 -1804 0
-2679 2670 0
-2679 1804 0
2680 -1800 -1804 -2674 0
-2680 1800 0
-2680 1804 0
-2680 2674 0
-234 1805 2676 2678 2679 2680 0
234 -1805 0
234 -2676 0
234 -2678 0
234 -2679 0
234 -2680 0
2681 -1800 -2682 0
-2681 1800 0
-2681 2682 0
2683 -2670 -1807 0
-2683 2670 0
-2683 1807 0
2684 -2670 -2682 0
-2684 2670 0
-2684 2682 0
2685 -1800 -1807 -2674 0
-2685 1800 0
-2685 1807 0
-2685 2674 0
-232 1808 2681 2683 2684 2685 0
232 -1808 0
232 -2681 0
232 -2683 0
232 -2684 0
232 -2685 0
2686 -1810 -2682 0
-2686 1810 0
-2686 2682 0
2687 -2688 -2682 0
-2687 2688 0
-2687 2682 0
2689 -2688 -1807 0
-2689 2688 0
-2689 1807 0
2690 -1810 -1807 -2674 0
-2690 1810 0
-2690 1807 0
-2690 2674 0
-235 1811 2686 2687 2689 2690 0
235 -1811 0
235 -2686 0
235 -2687 0
235 -2689 0
235 -2690 0
2691 -1804 -2688 0
-2691 1804 0
-2691 2688 0
2692 -2677 -1810 0
-2692 2677 0
-2692 1810 0
2693 -2677 -2688 0
-2693 2677 0
-2693 2688 0
2694 -1804 -1810 -2674 0
-2694 1804 0
-2694 1810 0
-2694 2674 0
-233 1813 2691 2692 2693 2694 0
233 -1813 0
233 -2691 0
233 -2692 0
233 -2693 0
233 -2694 0
2695 -1804 -2677 0
-2695 1804 0
-2695 2677 0
2696 -2677 -2677 0
-2696 2677 0
-2696 2677 0
2697 -2677 -1804 0
-2697 2677 0
-2697 1804 0
2698 -1804 -1804 -2674 0
-2698 1804 0
-2698 1804 0
-2698 2674 0
-2699 1816 2695 2696 2697 2698 0
2699 -1816 0
2699 -2695 0
2699 -2696 0
2699 -2697 0
2699 -2698 0
2700 -2701 -2702 0
-2700 2701 0
-2700 2702 0
2703 -2702 -2702 0
-2703 2702 0
-2703 2702 0
2704 -2702 -2701 0
-2704 2702 0
-2704 2701 0
2705 -2701 -2701 -2706 0
-2705 2701 0
-2705 2701 0
-2705 2706 0
-2707 2708 2700 2703 2704 2705 0
2707 -2708 0
2707 -2700 0
2707 -2703 0
2707 -2704 0
2707 -2705 0
2709 -2701 -2710 0
-2709 2701 0
-2709 2710 0
2711 -2702 -2710 0
-2711 2702 0
-2711 2710 0
2712 -2702 -2713 0
-2712 2702 0
-2712 2713 0
2714 -2701 -2713 -2706 0
-2714 2701 0
-2714 2713 0
-2714 2706 0
-1084 2715 2709 2711 2712 2714 0
1084 -2715 0
1084 -2709 0
1084 -2711 0
1084 -2712 0
1084 -2714 0
2716 -2701 -2717 0
-2716 2701 0
-2716 2717 0
2718 -2702 -2719 0
-2718 2702 0
-2718 2719 0
2720 -2702 -2717 0
-2720 2702 0
-2720 2717 0
2721 -2701 -2719 -2706 0
-2721 2701 0
-2721 2719 0
-2721 2706 0
-1082 2722 2716 2718 2720 2721 0
1082 -2722 0
1082 -2716 0
1082 -2718 0
1082 -2720 0
1082 -2721 0
2723 -2724 -2717 0
-2723 2724 0
-2723 2717 0
2725 -2726 -2717 0
-2725 2726 0
-2725 2717 0
2727 -2726 -2719 0
-2727 2726 0
-2727 2719 0
2728 -2724 -2719 -2706 0
-2728 2724 0
-2728 2719 0
-2728 2706 0
-1085 2729 2723 2725 2727 2728 0
1085 -2729 0
1085 -2723 0
1085 -2725 0
1085 -2727 0
1085 -2728 0
2730 -2713 -2726 0
-2730 2713 0
-2730 2726 0
2731 -2710 -2724 0
-2731 2710 0
-2731 2724 0
2732 -2710 -2726 0
-2732 2710 0
-2732 2726 0
2733 -2713 -2724 -2706 0
-2733 2713 0
-2733 2724 0
-2733 2706 0
-1083 2734 2730 2731 2732 2733 0
1083 -2734 0
1083 -2730 0
1083 -2731 0
1083 -2732 0
1083 -2733 0
2735 -2713 -2710 0
-2735 2713 0
-2735 2710 0
2736 -2710 -2710 0
-2736 2710 0
-2736 2710 0
2737 -2710 -2713 0
-2737 2710 0
-2737 2713 0
2738 -2713 -2713 -2706 0
-2738 2713 0
-2738 2713 0
-2738 2706 0
-2739 2740 2735 2736 2737 2738 0
2739 -2740 0
2739 -2735 0
2739 -2736 0
2739 -2737 0
2739 -2738 0
2741 -1836 -1836 0
-2741 1836 0
-2741 1836 0
-2742 1843 2741 0
2742 -1843 0
2742 -2741 0
2743 -1836 -1848 0
-2743 1836 0
-2743 1848 0
-694 1850 2743 0
694 -1850 0
694 -2743 0
2744 -1836 -1854 0
-2744 1836 0
-2744 1854 0
-692 1857 2744 0
692 -1857 0
692 -2744 0
2745 -1859 -1854 0
-2745 1859 0
-2745 1854 0
-695 1864 2745 0
695 -1864 0
695 -2745 0
2746 -1848 -1859 0
-2746 1848 0
-2746 1859 0
-693 1869 2746 0
693 -1869 0
693 -2746 0
2747 -1848 -1848 0
-2747 1848 0
-2747 1848 0
-2748 1875 2747 0
2748 -1875 0
2748 -2747 0
2749 -2070 -2070 0
-2749 2070 0
-2749 2070 0
-2750 2056 2749 0
2750 -2056 0
2750 -2749 0
2751 -2070 -1957 0
-2751 2070 0
-2751 1957 0
-1149 2059 2751 0
1149 -2059 0
1149 -2751 0
2752 -2070 -1955 0
-2752 2070 0
-2752 1955 0
-1147 2064 2752 0
1147 -2064 0
1147 -2752 0
2753 -1954 -1955 0
-2753 1954 0
-2753 1955 0
-1150 1951 2753 0
1150 -1951 0
1150 -2753 0
2754 -1957 -1954 0
-2754 1957 0
-2754 1954 0
-1148 1948 2754 0
1148 -1948 0
1148 -2754 0
2755 -1957 -1957 0
-2755 1957 0
-2755 1957 0
-2756 1960 2755 0
2756 -1960 0
2756 -2755 0
2757 -2758 -2759 0
-2757 2758 0
-2757 2759 0
2760 -2759 -2759 0
-2760 2759 0
-2760 2759 0
2761 -2759 -2758 0
-2761 2759 0
-2761 2758 0
2762 -2758 -2758 -2763 0
-2762 2758 0
-2762 2758 0
-2762 2763 0
-2764 2765 2757 2760 2761 2762 0
2764 -2765 0
2764 -2757 0
2764 -2760 0
2764 -2761 0
2764 -2762 0
2766 -2758 -2767 0
-2766 2758 0
-2766 2767 0
2768 -2759 -2767 0
-2768 2759 0
-2768 2767 0
2769 -2759 -2770 0
-2769 2759 0
-2769 2770 0
2771 -2758 -2770 -2763 0
-2771 2758 0
-2771 2770 0
-2771 2763 0
-1024 2772 2766 2768 2769 2771 0
1024 -2772 0
1024 -2766 0
1024 -2768 0
1024 -2769 0
1024 -2771 0
2773 -2758 -2774 0
-2773 2758 0
-2773 2774 0
2775 -2759 -2776 0
-2775 2759 0
-2775 2776 0
2777 -2759 -2774 0
-2777 2759 0
-2777 2774 0
2778 -2758 -2776 -2763 0
-2778 2758 0
-2778 2776 0
-2778 2763 0
-1022 2779 2773 2775 2777 2778 0
1022 -2779 0
1022 -2773 0
1022 -2775 0
1022 -2777 0
1022 -2778 0
2780 -2781 -2774 0
-2780 2781 0
-2780 2774 0
2782 -2783 -2774 0
-2782 2783 0
-2782 2774 0
2784 -2783 -2776 0
-2784 2783 0
-2784 2776 0
2785 -2781 -2776 -2763 0
-2785 2781 0
-2785 2776 0
-2785 2763 0
-1025 2786 2780 2782 2784 2785 0
1025 -2786 0
1025 -2780 0
1025 -2782 0
1025 -2784 0
1025 -2785 0
2787 -2770 -2783 0
-2787 2770 0
-2787 2783 0
2788 -2767 -2781 0
-2788 2767 0
-2788 2781 0
2789 -2767 -2783 0
-2789 2767 0
-2789 2783 0
2790 -2770 -2781 -2763 0
-2790 2770 0
-2790 2781 0
-2790 2763 0
-1023 2791 2787 2788 2789 2790 0
1023 -2791 0
1023 -2787 0
1023 -2788 0
1023 -2789 0
1023 -2790 0
2792 -2770 -2767 0
-2792 2770 0
-2792 2767 0
2793 -2767 -2767 0
-2793 2767 0
-2793 2767 0
2794 -2767 -2770 0
-2794 2767 0
-2794 2770 0
2795 -2770 -2770 -2763 0
-2795 2770 0
-2795 2770 0
-2795 2763 0
-2796 2797 2792 2793 2794 2795 0
2796 -2797 0
2796 -2792 0
2796 -2793 0
2796 -2794 0
2796 -2795 0
2798 -2639 -2639 0
-2798 2639 0
-2798 2639 0
-2799 2625 2798 0
2799 -2625 0
2799 -2798 0
2800 -2639 -2011 0
-2800 2639 0
-2800 2011 0
-454 2628 2800 0
454 -2628 0
454 -2800 0
2801 -2639 -2009 0
-2801 2639 0
-2801 2009 0
-452 2633 2801 0
452 -2633 0
452 -2801 0
2802 -2008 -2009 0
-2802 2008 0
-2802 2009 0
-455 2005 2802 0
455 -2005 0
455 -2802 0
2803 -2011 -2008 0
-2803 2011 0
-2803 2008 0
-453 2002 2803 0
453 -2002 0
453 -2803 0
2804 -2011 -2011 0
-2804 2011 0
-2804 2011 0
-2805 2014 2804 0
2805 -2014 0
2805 -2804 0
2806 -2603 -2807 0
-2806 2603 0
-2806 2807 0
2808 -2807 -2807 0
-2808 2807 0
-2808 2807 0
2809 -2807 -2603 0
-2809 2807 0
-2809 2603 0
2810 -2603 -2603 -2811 0
-2810 2603 0
-2810 2603 0
-2810 2811 0
-2812 2605 2806 2808 2809 2810 0
2812 -2605 0
2812 -2806 0
2812 -2808 0
2812 -2809 0
2812 -2810 0
2813 -2603 -2814 0
-2813 2603 0
-2813 2814 0
2815 -2807 -2814 0
-2815 2807 0
-2815 2814 0
2816 -2807 -2607 0
-2816 2807 0
-2816 2607 0
2817 -2603 -2607 -2811 0
-2817 2603 0
-2817 2607 0
-2817 2811 0
-734 2608 2813 2815 2816 2817 0
734 -2608 0
734 -2813 0
734 -2815 0
734 -2816 0
734 -2817 0
2818 -2603 -2819 0
-2818 2603 0
-2818 2819 0
2820 -2807 -2610 0
-2820 2807 0
-2820 2610 0
2821 -2807 -2819 0
-2821 2807 0
-2821 2819 0
2822 -2603 -2610 -2811 0
-2822 2603 0
-2822 2610 0
-2822 2811 0
-732 2611 2818 2820 2821 2822 0
732 -2611 0
732 -2818 0
732 -2820 0
732 -2821 0
732 -2822 0
2823 -2613 -2819 0
-2823 2613 0
-2823 2819 0
2824 -2825 -2819 0
-2824 2825 0
-2824 2819 0
2826 -2825 -2610 0
-2826 2825 0
-2826 2610 0
2827 -2613 -2610 -2811 0
-2827 2613 0
-2827 2610 0
-2827 2811 0
-735 2614 2823 2824 2826 2827 0
735 -2614 0
735 -2823 0
735 -2824 0
735 -2826 0
735 -2827 0
2828 -2607 -2825 0
-2828 2607 0
-2828 2825 0
2829 -2814 -2613 0
-2829 2814 0
-2829 2613 0
2830 -2814 -2825 0
-2830 2814 0
-2830 2825 0
2831 -2607 -2613 -2811 0
-2831 2607 0
-2831 2613 0
-2831 2811 0
-733 2616 2828 2829 2830 2831 0
733 -2616 0
733 -2828 0
733 -2829 0
733 -2830 0
733 -2831 0
2832 -2607 -2814 0
-2832 2607 0
-2832 2814 0
2833 -2814 -2814 0
-2833 2814 0
-2833 2814 0
2834 -2814 -2607 0
-2834 2814 0
-2834 2607 0
2835 -2607 -2607 -2811 0
-2835 2607 0
-2835 2607 0
-2835 2811 0
-2836 2619 2832 2833 2834 2835 0
2836 -2619 0
2836 -2832 0
2836 -2833 0
2836 -2834 0
2836 -2835 0
2837 -2838 -2839 0
-2837 2838 0
-2837 2839 0
2840 -2839 -2839 0
-2840 2839 0
-2840 2839 0
2841 -2839 -2838 0
-2841 2839 0
-2841 2838 0
2842 -2838 -2838 -2843 0
-2842 2838 0
-2842 2838 0
-2842 2843 0
-2844 2845 2837 2840 2841 2842 0
2844 -2845 0
2844 -2837 0
2844 -2840 0
2844 -2841 0
2844 -2842 0
2846 -2838 -2847 0
-2846 2838 0
-2846 2847 0
2848 -2839 -2847 0
-2848 2839 0
-2848 2847 0
2849 -2839 -2850 0
-2849 2839 0
-2849 2850 0
2851 -2838 -2850 -2843 0
-2851 2838 0
-2851 2850 0
-2851 2843 0
-1124 2852 2846 2848 2849 2851 0
1124 -2852 0
1124 -2846 0
1124 -2848 0
1124 -2849 0
1124 -2851 0
2853 -2838 -2854 0
-2853 2838 0
-2853 2854 0
2855 -2839 -2856 0
-2855 2839 0
-2855 2856 0
2857 -2839 -2854 0
-2857 2839 0
-2857 2854 0
2858 -2838 -2856 -2843 0
-2858 2838 0
-2858 2856 0
-2858 2843 0
-1122 2859 2853 2855 2857 2858 0
1122 -2859 0
1122 -2853 0
1122 -2855 0
1122 -2857 0
1122 -2858 0
2860 -2861 -2854 0
-2860 2861 0
-2860 2854 0
2862 -2863 -2854 0
-2862 2863 0
-2862 2854 0
2864 -2863 -2856 0
-2864 2863 0
-2864 2856 0
2865 -2861 -2856 -2843 0
-2865 2861 0
-2865 2856 0
-2865 2843 0
-1125 2866 2860 2862 2864 2865 0
1125 -2866 0
1125 -2860 0
1125 -2862 0
1125 -2864 0
1125 -2865 0
2867 -2850 -2863 0
-2867 2850 0
-2867 2863 0
2868 -2847 -2861 0
-2868 2847 0
-2868 2861 0
2869 -2847 -2863 0
-2869 2847 0
-2869 2863 0
2870 -2850 -2861 -2843 0
-2870 2850 0
-2870 2861 0
-2870 2843 0
-1123 2871 2867 2868 2869 2870 0
1123 -2871 0
1123 -2867 0
1123 -2868 0
1123 -2869 0
1123 -2870 0
2872 -2850 -2847 0
-2872 2850 0
-2872 2847 0
2873 -2847 -2847 0
-2873 2847 0
-2873 2847 0
2874 -2847 -2850 0
-2874 2847 0
-2874 2850 0
2875 -2850 -2850 -2843 0
-2875 2850 0
-2875 2850 0
-2875 2843 0
-2876 2877 2872 2873 2874 2875 0
2876 -2877 0
2876 -2872 0
2876 -2873 0
2876 -2874 0
2876 -2875 0
2878 -1289 -1289 0
-2878 1289 0
-2878 1289 0
-2879 1269 2878 0
2879 -1269 0
2879 -2878 0
2880 -1289 -1297 0
-2880 1289 0
-2880 1297 0
-589 1273 2880 0
589 -1273 0
589 -2880 0
2881 -1289 -1292 0
-2881 1289 0
-2881 1292 0
-587 1280 2881 0
587 -1280 0
587 -2881 0
2882 -1287 -1292 0
-2882 1287 0
-2882 1292 0
-590 1282 2882 0
590 -1282 0
590 -2882 0
2883 -1297 -1287 0
-2883 1297 0
-2883 1287 0
-588 1276 2883 0
588 -1276 0
588 -2883 0
2884 -1297 -1297 0
-2884 1297 0
-2884 1297 0
-2885 1303 2884 0
2885 -1303 0
2885 -2884 0
2886 -1364 -2887 0
-2886 1364 0
-2886 2887 0
2888 -2887 -2887 0
-2888 2887 0
-2888 2887 0
2889 -2887 -1364 0
-2889 2887 0
-2889 1364 0
2890 -1364 -1364 -2891 0
-2890 1364 0
-2890 1364 0
-2890 2891 0
-2892 1366 2886 2888 2889 2890 0
2892 -1366 0
2892 -2886 0
2892 -2888 0
2892 -2889 0
2892 -2890 0
2893 -1364 -2894 0
-2893 1364 0
-2893 2894 0
2895 -2887 -2894 0
-2895 2887 0
-2895 2894 0
2896 -2887 -1368 0
-2896 2887 0
-2896 1368 0
2897 -1364 -1368 -2891 0
-2897 1364 0
-2897 1368 0
-2897 2891 0
-249 1369 2893 2895 2896 2897 0
249 -1369 0
249 -2893 0
249 -2895 0
249 -2896 0
249 -2897 0
2898 -1364 -2899 0
-2898 1364 0
-2898 2899 0
2900 -2887 -1371 0
-2900 2887 0
-2900 1371 0
2901 -2887 -2899 0
-2901 2887 0
-2901 2899 0
2902 -1364 -1371 -2891 0
-2902 1364 0
-2902 1371 0
-2902 2891 0
-247 1372 2898 2900 2901 2902 0
247 -1372 0
247 -2898 0
247 -2900 0
247 -2901 0
247 -2902 0
2903 -1374 -2899 0
-2903 1374 0
-2903 2899 0
2904 -2905 -2899 0
-2904 2905 0
-2904 2899 0
2906 -2905 -1371 0
-2906 2905 0
-2906 1371 0
2907 -1374 -1371 -2891 0
-2907 1374 0
-2907 1371 0
-2907 2891 0
-250 1375 2903 2904 2906 2907 0
250 -1375 0
250 -2903 0
250 -2904 0
250 -2906 0
250 -2907 0
2908 -1368 -2905 0
-2908 1368 0
-2908 2905 0
2909 -2894 -1374 0
-2909 2894 0
-2909 1374 0
2910 -2894 -2905 0
-2910 2894 0
-2910 2905 0
2911 -1368 -1374 -2891 0
-2911 1368 0
-2911 1374 0
-2911 2891 0
-248 1377 2908 2909 2910 2911 0
248 -1377 0
248 -2908 0
248 -2909 0
248 -2910 0
248 -2911 0
2912 -1368 -2894 0
-2912 1368 0
-2912 2894 0
2913 -2894 -2894 0
-2913 2894 0
-2913 2894 0
2914 -2894 -1368 0
-2914 2894 0
-2914 1368 0
2915 -1368 -1368 -2891 0
-2915 1368 0
-2915 1368 0
-2915 2891 0
-2916 1380 2912 2913 2914 2915 0
2916 -1380 0
2916 -2912 0
2916 -2913 0
2916 -2914 0
2916 -2915 0
2917 -2918 -2919 0
-2917 2918 0
-2917 2919 0
2920 -2919 -2919 0
-2920 2919 0
-2920 2919 0
2921 -2919 -2918 0
-2921 2919 0
-2921 2918 0
2922 -2918 -2918 -2923 0
-2922 2918 0
-2922 2918 0
-2922 2923 0
-2924 2925 2917 2920 2921 2922 0
2924 -2925 0
2924 -2917 0
2924 -2920 0
2924 -2921 0
2924 -2922 0
2926 -2918 -2927 0
-2926 2918 0
-2926 2927 0
2928 -2919 -2927 0
-2928 2919 0
-2928 2927 0
2929 -2919 -2930 0
-2929 2919 0
-2929 2930 0
2931 -2918 -2930 -2923 0
-2931 2918 0
-2931 2930 0
-2931 2923 0
-539 2932 2926 2928 2929 2931 0
539 -2932 0
539 -2926 0
539 -2928 0
539 -2929 0
539 -2931 0
2933 -2918 -2934 0
-2933 2918 0
-2933 2934 0
2935 -2919 -2936 0
-2935 2919 0
-2935 2936 0
2937 -2919 -2934 0
-2937 2919 0
-2937 2934 0
2938 -2918 -2936 -2923 0
-2938 2918 0
-2938 2936 0
-2938 2923 0
-537 2939 2933 2935 2937 2938 0
537 -2939 0
537 -2933 0
537 -2935 0
537 -2937 0
537 -2938 0
2940 -2941 -2934 0
-2940 2941 0
-2940 2934 0
2942 -2943 -2934 0
-2942 2943 0
-2942 2934 0
2944 -2943 -2936 0
-2944 2943 0
-2944 2936 0
2945 -2941 -2936 -2923 0
-2945 2941 0
-2945 2936 0
-2945 2923 0
-540 2946 2940 2942 2944 2945 0
540 -2946 0
540 -2940 0
540 -2942 0
540 -2944 0
540 -2945 0
2947 -2930 -2943 0
-2947 2930 0
-2947 2943 0
2948 -2927 -2941 0
-2948 2927 0
-2948 2941 0
2949 -2927 -2943 0
-2949 2927 0
-2949 2943 0
2950 -2930 -2941 -2923 0
-2950 2930 0
-2950 2941 0
-2950 2923 0
-538 2951 2947 2948 2949 2950 0
538 -2951 0
538 -2947 0
538 -2948 0
538 -2949 0
538 -2950 0
2952 -2930 -2927 0
-2952 2930 0
-2952 2927 0
2953 -2927 -2927 0
-2953 2927 0
-2953 2927 0
2954 -2927 -2930 0
-2954 2927 0
-2954 2930 0
2955 -2930 -2930 -2923 0
-2955 2930 0
-2955 2930 0
-2955 2923 0
-2956 2957 2952 2953 2954 2955 0
2956 -2957 0
2956 -2952 0
2956 -2953 0
2956 -2954 0
2956 -2955 0
2958 -1425 -1401 0
-2958 1425 0
-2958 1401 0
1402 -1401 -1401 0
-1402 1401 0
-1402 1401 0
2959 -1401 -1425 0
-2959 1401 0
-2959 1425 0
2960 -1425 -1425 -1407 0
-2960 1425 0
-2960 1425 0
-2960 1407 0
-2961 1405 2958 1402 2959 2960 0
2961 -1405 0
2961 -2958 0
2961 -1402 0
2961 -2959 0
2961 -2960 0
2962 -1425 -1414 0
-2962 1425 0
-2962 1414 0
2963 -1401 -1414 0
-2963 1401 0
-2963 1414 0
2964 -1401 -1433 0
-2964 1401 0
-2964 1433 0
2965 -1425 -1433 -1407 0
-2965 1425 0
-2965 1433 0
-2965 1407 0
-554 1409 2962 2963 2964 2965 0
554 -1409 0
554 -2962 0
554 -2963 0
554 -2964 0
554 -2965 0
2966 -1425 -1421 0
-2966 1425 0
-2966 1421 0
2967 -1401 -1428 0
-2967 1401 0
-2967 1428 0
2968 -1401 -1421 0
-2968 1401 0
-2968 1421 0
2969 -1425 -1428 -1407 0
-2969 1425 0
-2969 1428 0
-2969 1407 0
-552 1416 2966 2967 2968 2969 0
552 -1416 0
552 -2966 0
552 -2967 0
552 -2968 0
552 -2969 0
2970 -1423 -1421 0
-2970 1423 0
-2970 1421 0
2971 -1400 -1421 0
-2971 1400 0
-2971 1421 0
2972 -1400 -1428 0
-2972 1400 0
-2972 1428 0
2973 -1423 -1428 -1407 0
-2973 1423 0
-2973 1428 0
-2973 1407 0
-555 1418 2970 2971 2972 2973 0
555 -1418 0
555 -2970 0
555 -2971 0
555 -2972 0
555 -2973 0
2974 -1433 -1400 0
-2974 1433 0
-2974 1400 0
2975 -1414 -1423 0
-2975 1414 0
-2975 1423 0
2976 -1414 -1400 0
-2976 1414 0
-2976 1400 0
2977 -1433 -1423 -1407 0
-2977 1433 0
-2977 1423 0
-2977 1407 0
-553 1412 2974 2975 2976 2977 0
553 -1412 0
553 -2974 0
553 -2975 0
553 -2976 0
553 -2977 0
2978 -1433 -1414 0
-2978 1433 0
-2978 1414 0
2979 -1414 -1414 0
-2979 1414 0
-2979 1414 0
2980 -1414 -1433 0
-2980 1414 0
-2980 1433 0
2981 -1433 -1433 -1407 0
-2981 1433 0
-2981 1433 0
-2981 1407 0
-2982 1439 2978 2979 2980 2981 0
2982 -1439 0
2982 -2978 0
2982 -2979 0
2982 -2980 0
2982 -2981 0
2983 -1441 -2266 0
-2983 1441 0
-2983 2266 0
2267 -2266 -2266 0
-2267 2266 0
-2267 2266 0
2984 -2266 -1441 0
-2984 2266 0
-2984 1441 0
2985 -1441 -1441 -2271 0
-2985 1441 0
-2985 1441 0
-2985 2271 0
-2986 1443 2983 2267 2984 2985 0
2986 -1443 0
2986 -2983 0
2986 -2267 0
2986 -2984 0
2986 -2985 0
2987 -1441 -2276 0
-2987 1441 0
-2987 2276 0
2988 -2266 -2276 0
-2988 2266 0
-2988 2276 0
2989 -2266 -1445 0
-2989 2266 0
-2989 1445 0
2990 -1441 -1445 -2271 0
-2990 1441 0
-2990 1445 0
-2990 2271 0
-34 1446 2987 2988 2989 2990 0
34 -1446 0
34 -2987 0
34 -2988 0
34 -2989 0
34 -2990 0
2991 -1441 -2281 0
-2991 1441 0
-2991 2281 0
2992 -2266 -1448 0
-2992 2266 0
-2992 1448 0
2993 -2266 -2281 0
-2993 2266 0
-2993 2281 0
2994 -1441 -1448 -2271 0
-2994 1441 0
-2994 1448 0
-2994 2271 0
-32 1449 2991 2992 2993 2994 0
32 -1449 0
32 -2991 0
32 -2992 0
32 -2993 0
32 -2994 0
2995 -1451 -2281 0
-2995 1451 0
-2995 2281 0
2996 -2265 -2281 0
-2996 2265 0
-2996 2281 0
2997 -2265 -1448 0
-2997 2265 0
-2997 1448 0
2998 -1451 -1448 -2271 0
-2998 1451 0
-2998 1448 0
-2998 2271 0
-35 1452 2995 2996 2997 2998 0
35 -1452 0
35 -2995 0
35 -2996 0
35 -2997 0
35 -2998 0
2999 -1445 -2265 0
-2999 1445 0
-2999 2265 0
3000 -2276 -1451 0
-3000 2276 0
-3000 1451 0
3001 -2276 -2265 0
-3001 2276 0
-3001 2265 0
3002 -1445 -1451 -2271 0
-3002 1445 0
-3002 1451 0
-3002 2271 0
-33 1454 2999 3000 3001 3002 0
33 -1454 0
33 -2999 0
33 -3000 0
33 -3001 0
33 -3002 0
3003 -1445 -2276 0
-3003 1445 0
-3003 2276 0
3004 -2276 -2276 0
-3004 2276 0
-3004 2276 0
3005 -2276 -1445 0
-3005 2276 0
-3005 1445 0
3006 -1445 -1445 -2271 0
-3006 1445 0
-3006 1445 0
-3006 2271 0
-3007 1457 3003 3004 3005 3006 0
3007 -1457 0
3007 -3003 0
3007 -3004 0
3007 -3005 0
3007 -3006 0
3008 -3009 -3010 0
-3008 3009 0
-3008 3010 0
3011 -3010 -3010 0
-3011 3010 0
-3011 3010 0
3012 -3010 -3009 0
-3012 3010 0
-3012 3009 0
3013 -3009 -3009 -3014 0
-3013 3009 0
-3013 3009 0
-3013 3014 0
-3015 3016 3008 3011 3012 3013 0
3015 -3016 0
3015 -3008 0
3015 -3011 0
3015 -3012 0
3015 -3013 0
3017 -3009 -3018 0
-3017 3009 0
-3017 3018 0
3019 -3010 -3018 0
-3019 3010 0
-3019 3018 0
3020 -3010 -3021 0
-3020 3010 0
-3020 3021 0
3022 -3009 -3021 -3014 0
-3022 3009 0
-3022 3021 0
-3022 3014 0
-809 3023 3017 3019 3020 3022 0
809 -3023 0
809 -3017 0
809 -3019 0
809 -3020 0
809 -3022 0
3024 -3009 -3025 0
-3024 3009 0
-3024 3025 0
3026 -3010 -3027 0
-3026 3010 0
-3026 3027 0
3028 -3010 -3025 0
-3028 3010 0
-3028 3025 0
3029 -3009 -3027 -3014 0
-3029 3009 0
-3029 3027 0
-3029 3014 0
-807 3030 3024 3026 3028 3029 0
807 -3030 0
807 -3024 0
807 -3026 0
807 -3028 0
807 -3029 0
3031 -3032 -3025 0
-3031 3032 0
-3031 3025 0
3033 -3034 -3025 0
-3033 3034 0
-3033 3025 0
3035 -3034 -3027 0
-3035 3034 0
-3035 3027 0
3036 -3032 -3027 -3014 0
-3036 3032 0
-3036 3027 0
-3036 3014 0
-810 3037 3031 3033 3035 3036 0
810 -3037 0
810 -3031 0
810 -3033 0
810 -3035 0
810 -3036 0
3038 -3021 -3034 0
-3038 3021 0
-3038 3034 0
3039 -3018 -3032 0
-3039 3018 0
-3039 3032 0
3040 -3018 -3034 0
-3040 3018 0
-3040 3034 0
3041 -3021 -3032 -3014 0
-3041 3021 0
-3041 3032 0
-3041 3014 0
-808 3042 3038 3039 3040 3041 0
808 -3042 0
808 -3038 0
808 -3039 0
808 -3040 0
808 -3041 0
3043 -3021 -3018 0
-3043 3021 0
-3043 3018 0
3044 -3018 -3018 0
-3044 3018 0
-3044 3018 0
3045 -3018 -3021 0
-3045 3018 0
-3045 3021 0
3046 -3021 -3021 -3014 0
-3046 3021 0
-3046 3021 0
-3046 3014 0
-3047 3048 3043 3044 3045 3046 0
3047 -3048 0
3047 -3043 0
3047 -3044 0
3047 -3045 0
3047 -3046 0
3049 -1248 -1224 0
-3049 1248 0
-3049 1224 0
1225 -1224 -1224 0
-1225 1224 0
-1225 1224 0
3050 -1224 -1248 0
-3050 1224 0
-3050 1248 0
3051 -1248 -1248 -1230 0
-3051 1248 0
-3051 1248 0
-3051 1230 0
-3052 1228 3049 1225 3050 3051 0
3052 -1228 0
3052 -3049 0
3052 -1225 0
3052 -3050 0
3052 -3051 0
3053 -1248 -1237 0
-3053 1248 0
-3053 1237 0
3054 -1224 -1237 0
-3054 1224 0
-3054 1237 0
3055 -1224 -1256 0
-3055 1224 0
-3055 1256 0
3056 -1248 -1256 -1230 0
-3056 1248 0
-3056 1256 0
-3056 1230 0
-464 1232 3053 3054 3055 3056 0
464 -1232 0
464 -3053 0
464 -3054 0
464 -3055 0
464 -3056 0
3057 -1248 -1244 0
-3057 1248 0
-3057 1244 0
3058 -1224 -1251 0
-3058 1224 0
-3058 1251 0
3059 -1224 -1244 0
-3059 1224 0
-3059 1244 0
3060 -1248 -1251 -1230 0
-3060 1248 0
-3060 1251 0
-3060 1230 0
-462 1239 3057 3058 3059 3060 0
462 -1239 0
462 -3057 0
462 -3058 0
462 -3059 0
462 -3060 0
3061 -1246 -1244 0
-3061 1246 0
-3061 1244 0
3062 -1223 -1244 0
-3062 1223 0
-3062 1244 0
3063 -1223 -1251 0
-3063 1223 0
-3063 1251 0
3064 -1246 -1251 -1230 0
-3064 1246 0
-3064 1251 0
-3064 1230 0
-465 1241 3061 3062 3063 3064 0
465 -1241 0
465 -3061 0
465 -3062 0
465 -3063 0
465 -3064 0
3065 -1256 -1223 0
-3065 1256 0
-3065 1223 0
3066 -1237 -1246 0
-3066 1237 0
-3066 1246 0
3067 -1237 -1223 0
-3067 1237 0
-3067 1223 0
3068 -1256 -1246 -1230 0
-3068 1256 0
-3068 1246 0
-3068 1230 0
-463 1235 3065 3066 3067 3068 0
463 -1235 0
463 -3065 0
463 -3066 0
463 -3067 0
463 -3068 0
3069 -1256 -1237 0
-3069 1256 0
-3069 1237 0
3070 -1237 -1237 0
-3070 1237 0
-3070 1237 0
3071 -1237 -1256 0
-3071 1237 0
-3071 1256 0
3072 -1256 -1256 -1230 0
-3072 1256 0
-3072 1256 0
-3072 1230 0
-3073 1262 3069 3070 3071 3072 0
3073 -1262 0
3073 -3069 0
3073 -3070 0
3073 -3071 0
3073 -3072 0
3074 -3075 -3075 0
-3074 3075 0
-3074 3075 0
-3076 3077 3074 0
3076 -3077 0
3076 -3074 0
3078 -3075 -3079 0
-3078 3075 0
-3078 3079 0
-799 3080 3078 0
799 -3080 0
799 -3078 0
3081 -3075 -3082 0
-3081 3075 0
-3081 3082 0
-797 3083 3081 0
797 -3083 0
797 -3081 0
3084 -3085 -3082 0
-3084 3085 0
-3084 3082 0
-800 3086 3084 0
800 -3086 0
800 -3084 0
3087 -3079 -3085 0
-3087 3079 0
-3087 3085 0
-798 3088 3087 0
798 -3088 0
798 -3087 0
3089 -3079 -3079 0
-3089 3079 0
-3089 3079 0
-3090 3091 3089 0
3090 -3091 0
3090 -3089 0
3092 -3093 -3093 0
-3092 3093 0
-3092 3093 0
-3094 3095 3092 0
3094 -3095 0
3094 -3092 0
3096 -3093 -3097 0
-3096 3093 0
-3096 3097 0
-1069 3098 3096 0
1069 -3098 0
1069 -3096 0
3099 -3093 -3100 0
-3099 3093 0
-3099 3100 0
-1067 3101 3099 0
1067 -3101 0
1067 -3099 0
3102 -3103 -3100 0
-3102 3103 0
-3102 3100 0
-1070 3104 3102 0
1070 -3104 0
1070 -3102 0
3105 -3097 -3103 0
-3105 3097 0
-3105 3103 0
-1068 3106 3105 0
1068 -3106 0
1068 -3105 0
3107 -3097 -3097 0
-3107 3097 0
-3107 3097 0
-3108 3109 3107 0
3108 -3109 0
3108 -3107 0
3110 -2414 -2414 0
-3110 2414 0
-3110 2414 0
-3111 2421 3110 0
3111 -2421 0
3111 -3110 0
3112 -2414 -2426 0
-3112 2414 0
-3112 2426 0
-769 2428 3112 0
769 -2428 0
769 -3112 0
3113 -2414 -2432 0
-3113 2414 0
-3113 2432 0
-767 2435 3113 0
767 -2435 0
767 -3113 0
3114 -2437 -2432 0
-3114 2437 0
-3114 2432 0
-770 2442 3114 0
770 -2442 0
770 -3114 0
3115 -2426 -2437 0
-3115 2426 0
-3115 2437 0
-768 2447 3115 0
768 -2447 0
768 -3115 0
3116 -2426 -2426 0
-3116 2426 0
-3116 2426 0
-3117 2453 3116 0
3117 -2453 0
3117 -3116 0
3118 -3119 -3119 0
-3118 3119 0
-3118 3119 0
-3120 3121 3118 0
3120 -3121 0
3120 -3118 0
3122 -3119 -3123 0
-3122 3119 0
-3122 3123 0
-1074 3124 3122 0
1074 -3124 0
1074 -3122 0
3125 -3119 -3126 0
-3125 3119 0
-3125 3126 0
-1072 3127 3125 0
1072 -3127 0
1072 -3125 0
3128 -3129 -3126 0
-3128 3129 0
-3128 3126 0
-1075 3130 3128 0
1075 -3130 0
1075 -3128 0
3131 -3123 -3129 0
-3131 3123 0
-3131 3129 0
-1073 3132 3131 0
1073 -3132 0
1073 -3131 0
3133 -3123 -3123 0
-3133 3123 0
-3133 3123 0
-3134 3135 3133 0
3134 -3135 0
3134 -3133 0
3136 -1525 -1525 0
-3136 1525 0
-3136 1525 0
-3137 1505 3136 0
3137 -1505 0
3137 -3136 0
3138 -1525 -1533 0
-3138 1525 0
-3138 1533 0
-974 1509 3138 0
974 -1509 0
974 -3138 0
3139 -1525 -1528 0
-3139 1525 0
-3139 1528 0
-972 1516 3139 0
972 -1516 0
972 -3139 0
3140 -1523 -1528 0
-3140 1523 0
-3140 1528 0
-975 1518 3140 0
975 -1518 0
975 -3140 0
3141 -1533 -1523 0
-3141 1533 0
-3141 1523 0
-973 1512 3141 0
973 -1512 0
973 -3141 0
3142 -1533 -1533 0
-3142 1533 0
-3142 1533 0
-3143 1539 3142 0
3143 -1539 0
3143 -3142 0
3144 -3145 -3146 0
-3144 3145 0
-3144 3146 0
3147 -3146 -3146 0
-3147 3146 0
-3147 3146 0
3148 -3146 -3145 0
-3148 3146 0
-3148 3145 0
3149 -3145 -3145 -3150 0
-3149 3145 0
-3149 3145 0
-3149 3150 0
-3151 3152 3144 3147 3148 3149 0
3151 -3152 0
3151 -3144 0
3151 -3147 0
3151 -3148 0
3151 -3149 0
3153 -3145 -3154 0
-3153 3145 0
-3153 3154 0
3155 -3146 -3154 0
-3155 3146 0
-3155 3154 0
3156 -3146 -3157 0
-3156 3146 0
-3156 3157 0
3158 -3145 -3157 -3150 0
-3158 3145 0
-3158 3157 0
-3158 3150 0
-459 3159 3153 3155 3156 3158 0
459 -3159 0
459 -3153 0
459 -3155 0
459 -3156 0
459 -3158 0
3160 -3145 -3161 0
-3160 3145 0
-3160 3161 0
3162 -3146 -3163 0
-3162 3146 0
-3162 3163 0
3164 -3146 -3161 0
-3164 3146 0
-3164 3161 0
3165 -3145 -3163 -3150 0
-3165 3145 0
-3165 3163 0
-3165 3150 0
-457 3166 3160 3162 3164 3165 0
457 -3166 0
457 -3160 0
457 -3162 0
457 -3164 0
457 -3165 0
3167 -3168 -3161 0
-3167 3168 0
-3167 3161 0
3169 -3170 -3161 0
-3169 3170 0
-3169 3161 0
3171 -3170 -3163 0
-3171 3170 0
-3171 3163 0
3172 -3168 -3163 -3150 0
-3172 3168 0
-3172 3163 0
-3172 3150 0
-460 3173 3167 3169 3171 3172 0
460 -3173 0
460 -3167 0
460 -3169 0
460 -3171 0
460 -3172 0
3174 -3157 -3170 0
-3174 3157 0
-3174 3170 0
3175 -3154 -3168 0
-3175 3154 0
-3175 3168 0
3176 -3154 -3170 0
-3176 3154 0
-3176 3170 0
3177 -3157 -3168 -3150 0
-3177 3157 0
-3177 3168 0
-3177 3150 0
-458 3178 3174 3175 3176 3177 0
458 -3178 0
458 -3174 0
458 -3175 0
458 -3176 0
458 -3177 0
3179 -3157 -3154 0
-3179 3157 0
-3179 3154 0
3180 -3154 -3154 0
-3180 3154 0
-3180 3154 0
3181 -3154 -3157 0
-3181 3154 0
-3181 3157 0
3182 -3157 -3157 -3150 0
-3182 3157 0
-3182 3157 0
-3182 3150 0
-3183 3184 3179 3180 3181 3182 0
3183 -3184 0
3183 -3179 0
3183 -3180 0
3183 -3181 0
3183 -3182 0
3185 -3186 -3187 0
-3185 3186 0
-3185 3187 0
3188 -3187 -3187 0
-3188 3187 0
-3188 3187 0
3189 -3187 -3186 0
-3189 3187 0
-3189 3186 0
3190 -3186 -3186 -3191 0
-3190 3186 0
-3190 3186 0
-3190 3191 0
-3192 3193 3185 3188 3189 3190 0
3192 -3193 0
3192 -3185 0
3192 -3188 0
3192 -3189 0
3192 -3190 0
3194 -3186 -3195 0
-3194 3186 0
-3194 3195 0
3196 -3187 -3195 0
-3196 3187 0
-3196 3195 0
3197 -3187 -3198 0
-3197 3187 0
-3197 3198 0
3199 -3186 -3198 -3191 0
-3199 3186 0
-3199 3198 0
-3199 3191 0
-644 3200 3194 3196 3197 3199 0
644 -3200 0
644 -3194 0
644 -3196 0
644 -3197 0
644 -3199 0
3201 -3186 -3202 0
-3201 3186 0
-3201 3202 0
3203 -3187 -3204 0
-3203 3187 0
-3203 3204 0
3205 -3187 -3202 0
-3205 3187 0
-3205 3202 0
3206 -3186 -3204 -3191 0
-3206 3186 0
-3206 3204 0
-3206 3191 0
-642 3207 3201 3203 3205 3206 0
642 -3207 0
642 -3201 0
642 -3203 0
642 -3205 0
642 -3206 0
3208 -3209 -3202 0
-3208 3209 0
-3208 3202 0
3210 -3211 -3202 0
-3210 3211 0
-3210 3202 0
3212 -3211 -3204 0
-3212 3211 0
-3212 3204 0
3213 -3209 -3204 -3191 0
-3213 3209 0
-3213 3204 0
-3213 3191 0
-645 3214 3208 3210 3212 3213 0
645 -3214 0
645 -3208 0
645 -3210 0
645 -3212 0
645 -3213 0
3215 -3198 -3211 0
-3215 3198 0
-3215 3211 0
3216 -3195 -3209 0
-3216 3195 0
-3216 3209 0
3217 -3195 -3211 0
-3217 3195 0
-3217 3211 0
3218 -3198 -3209 -3191 0
-3218 3198 0
-3218 3209 0
-3218 3191 0
-643 3219 3215 3216 3217 3218 0
643 -3219 0
643 -3215 0
643 -3216 0
643 -3217 0
643 -3218 0
3220 -3198 -3195 0
-3220 3198 0
-3220 3195 0
3221 -3195 -3195 0
-3221 3195 0
-3221 3195 0
3222 -3195 -3198 0
-3222 3195 0
-3222 3198 0
3223 -3198 -3198 -3191 0
-3223 3198 0
-3223 3198 0
-3223 3191 0
-3224 3225 3220 3221 3222 3223 0
3224 -3225 0
3224 -3220 0
3224 -3221 0
3224 -3222 0
3224 -3223 0
3226 -2587 -2587 0
-3226 2587 0
-3226 2587 0
-3227 2567 3226 0
3227 -2567 0
3227 -3226 0
3228 -2587 -2595 0
-3228 2587 0
-3228 2595 0
-414 2571 3228 0
414 -2571 0
414 -3228 0
3229 -2587 -2590 0
-3229 2587 0
-3229 2590 0
-412 2578 3229 0
412 -2578 0
412 -3229 0
3230 -2585 -2590 0
-3230 2585 0
-3230 2590 0
-415 2580 3230 0
415 -2580 0
415 -3230 0
3231 -2595 -2585 0
-3231 2595 0
-3231 2585 0
-413 2574 3231 0
413 -2574 0
413 -3231 0
3232 -2595 -2595 0
-3232 2595 0
-3232 2595 0
-3233 2601 3232 0
3233 -2601 0
3233 -3232 0
3234 -3235 -3235 0
-3234 3235 0
-3234 3235 0
-3236 3237 3234 0
3236 -3237 0
3236 -3234 0
3238 -3235 -3239 0
-3238 3235 0
-3238 3239 0
-594 3240 3238 0
594 -3240 0
594 -3238 0
3241 -3235 -3242 0
-3241 3235 0
-3241 3242 0
-592 3243 3241 0
592 -3243 0
592 -3241 0
3244 -3245 -3242 0
-3244 3245 0
-3244 3242 0
-595 3246 3244 0
595 -3246 0
595 -3244 0
3247 -3239 -3245 0
-3247 3239 0
-3247 3245 0
-593 3248 3247 0
593 -3248 0
593 -3247 0
3249 -3239 -3239 0
-3249 3239 0
-3249 3239 0
-3250 3251 3249 0
3250 -3251 0
3250 -3249 0
3252 -3253 -3253 0
-3252 3253 0
-3252 3253 0
-3254 3255 3252 0
3254 -3255 0
3254 -3252 0
3256 -3253 -3257 0
-3256 3253 0
-3256 3257 0
-514 3258 3256 0
514 -3258 0
514 -3256 0
3259 -3253 -3260 0
-3259 3253 0
-3259 3260 0
-512 3261 3259 0
512 -3261 0
512 -3259 0
3262 -3263 -3260 0
-3262 3263 0
-3262 3260 0
-515 3264 3262 0
515 -3264 0
515 -3262 0
3265 -3257 -3263 0
-3265 3257 0
-3265 3263 0
-513 3266 3265 0
513 -3266 0
513 -3265 0
3267 -3257 -3257 0
-3267 3257 0
-3267 3257 0
-3268 3269 3267 0
3268 -3269 0
3268 -3267 0
3270 -3271 -3271 0
-3270 3271 0
-3270 3271 0
-3272 3273 3270 0
3272 -3273 0
3272 -3270 0
3274 -3271 -3248 0
-3274 3271 0
-3274 3248 0
-474 3275 3274 0
474 -3275 0
474 -3274 0
3276 -3271 -3246 0
-3276 3271 0
-3276 3246 0
-472 3277 3276 0
472 -3277 0
472 -3276 0
3278 -3245 -3246 0
-3278 3245 0
-3278 3246 0
-475 3242 3278 0
475 -3242 0
475 -3278 0
3279 -3248 -3245 0
-3279 3248 0
-3279 3245 0
-473 3239 3279 0
473 -3239 0
473 -3279 0
3280 -3248 -3248 0
-3280 3248 0
-3280 3248 0
-3281 3251 3280 0
3281 -3251 0
3281 -3280 0
3282 -3283 -3284 0
-3282 3283 0
-3282 3284 0
3285 -3284 -3284 0
-3285 3284 0
-3285 3284 0
3286 -3284 -3283 0
-3286 3284 0
-3286 3283 0
3287 -3283 -3283 -3288 0
-3287 3283 0
-3287 3283 0
-3287 3288 0
-3289 3290 3282 3285 3286 3287 0
3289 -3290 0
3289 -3282 0
3289 -3285 0
3289 -3286 0
3289 -3287 0
3291 -3283 -3292 0
-3291 3283 0
-3291 3292 0
3293 -3284 -3292 0
-3293 3284 0
-3293 3292 0
3294 -3284 -3295 0
-3294 3284 0
-3294 3295 0
3296 -3283 -3295 -3288 0
-3296 3283 0
-3296 3295 0
-3296 3288 0
-1064 3297 3291 3293 3294 3296 0
1064 -3297 0
1064 -3291 0
1064 -3293 0
1064 -3294 0
1064 -3296 0
3298 -3283 -3299 0
-3298 3283 0
-3298 3299 0
3300 -3284 -3301 0
-3300 3284 0
-3300 3301 0
3302 -3284 -3299 0
-3302 3284 0
-3302 3299 0
3303 -3283 -3301 -3288 0
-3303 3283 0
-3303 3301 0
-3303 3288 0
-1062 3304 3298 3300 3302 3303 0
1062 -3304 0
1062 -3298 0
1062 -3300 0
1062 -3302 0
1062 -3303 0
3305 -3306 -3299 0
-3305 3306 0
-3305 3299 0
3307 -3308 -3299 0
-3307 3308 0
-3307 3299 0
3309 -3308 -3301 0
-3309 3308 0
-3309 3301 0
3310 -3306 -3301 -3288 0
-3310 3306 0
-3310 3301 0
-3310 3288 0
-1065 3311 3305 3307 3309 3310 0
1065 -3311 0
1065 -3305 0
1065 -3307 0
1065 -3309 0
1065 -3310 0
3312 -3295 -3308 0
-3312 3295 0
-3312 3308 0
3313 -3292 -3306 0
-3313 3292 0
-3313 3306 0
3314 -3292 -3308 0
-3314 3292 0
-3314 3308 0
3315 -3295 -3306 -3288 0
-3315 3295 0
-3315 3306 0
-3315 3288 0
-1063 3316 3312 3313 3314 3315 0
1063 -3316 0
1063 -3312 0
1063 -3313 0
1063 -3314 0
1063 -3315 0
3317 -3295 -3292 0
-3317 3295 0
-3317 3292 0
3318 -3292 -3292 0
-3318 3292 0
-3318 3292 0
3319 -3292 -3295 0
-3319 3292 0
-3319 3295 0
3320 -3295 -3295 -3288 0
-3320 3295 0
-3320 3295 0
-3320 3288 0
-3321 3322 3317 3318 3319 3320 0
3321 -3322 0
3321 -3317 0
3321 -3318 0
3321 -3319 0
3321 -3320 0
3323 -3324 -3325 0
-3323 3324 0
-3323 3325 0
3326 -3325 -3325 0
-3326 3325 0
-3326 3325 0
3327 -3325 -3324 0
-3327 3325 0
-3327 3324 0
3328 -3324 -3324 -3329 0
-3328 3324 0
-3328 3324 0
-3328 3329 0
-3330 3331 3323 3326 3327 3328 0
3330 -3331 0
3330 -3323 0
3330 -3326 0
3330 -3327 0
3330 -3328 0
3332 -3324 -3333 0
-3332 3324 0
-3332 3333 0
3334 -3325 -3333 0
-3334 3325 0
-3334 3333 0
3335 -3325 -3336 0
-3335 3325 0
-3335 3336 0
3337 -3324 -3336 -3329 0
-3337 3324 0
-3337 3336 0
-3337 3329 0
-944 3338 3332 3334 3335 3337 0
944 -3338 0
944 -3332 0
944 -3334 0
944 -3335 0
944 -3337 0
3339 -3324 -3340 0
-3339 3324 0
-3339 3340 0
3341 -3325 -3342 0
-3341 3325 0
-3341 3342 0
3343 -3325 -3340 0
-3343 3325 0
-3343 3340 0
3344 -3324 -3342 -3329 0
-3344 3324 0
-3344 3342 0
-3344 3329 0
-942 3345 3339 3341 3343 3344 0
942 -3345 0
942 -3339 0
942 -3341 0
942 -3343 0
942 -3344 0
3346 -3347 -3340 0
-3346 3347 0
-3346 3340 0
3348 -3349 -3340 0
-3348 3349 0
-3348 3340 0
3350 -3349 -3342 0
-3350 3349 0
-3350 3342 0
3351 -3347 -3342 -3329 0
-3351 3347 0
-3351 3342 0
-3351 3329 0
-945 3352 3346 3348 3350 3351 0
945 -3352 0
945 -3346 0
945 -3348 0
945 -3350 0
945 -3351 0
3353 -3336 -3349 0
-3353 3336 0
-3353 3349 0
3354 -3333 -3347 0
-3354 3333 0
-3354 3347 0
3355 -3333 -3349 0
-3355 3333 0
-3355 3349 0
3356 -3336 -3347 -3329 0
-3356 3336 0
-3356 3347 0
-3356 3329 0
-943 3357 3353 3354 3355 3356 0
943 -3357 0
943 -3353 0
943 -3354 0
943 -3355 0
943 -3356 0
3358 -3336 -3333 0
-3358 3336 0
-3358 3333 0
3359 -3333 -3333 0
-3359 3333 0
-3359 3333 0
3360 -3333 -3336 0
-3360 3333 0
-3360 3336 0
3361 -3336 -3336 -3329 0
-3361 3336 0
-3361 3336 0
-3361 3329 0
-3362 3363 3358 3359 3360 3361 0
3362 -3363 0
3362 -3358 0
3362 -3359 0
3362 -3360 0
3362 -3361 0
3364 -2758 -2758 0
-3364 2758 0
-3364 2758 0
-3365 2765 3364 0
3365 -2765 0
3365 -3364 0
3366 -2758 -2770 0
-3366 2758 0
-3366 2770 0
-1174 2772 3366 0
1174 -2772 0
1174 -3366 0
3367 -2758 -2776 0
-3367 2758 0
-3367 2776 0
-1172 2779 3367 0
1172 -2779 0
1172 -3367 0
3368 -2781 -2776 0
-3368 2781 0
-3368 2776 0
-1175 2786 3368 0
1175 -2786 0
1175 -3368 0
3369 -2770 -2781 0
-3369 2770 0
-3369 2781 0
-1173 2791 3369 0
1173 -2791 0
1173 -3369 0
3370 -2770 -2770 0
-3370 2770 0
-3370 2770 0
-3371 2797 3370 0
3371 -2797 0
3371 -3370 0
3372 -3235 -3373 0
-3372 3235 0
-3372 3373 0
3374 -3373 -3373 0
-3374 3373 0
-3374 3373 0
3375 -3373 -3235 0
-3375 3373 0
-3375 3235 0
3376 -3235 -3235 -3273 0
-3376 3235 0
-3376 3235 0
-3376 3273 0
-3377 3237 3372 3374 3375 3376 0
3377 -3237 0
3377 -3372 0
3377 -3374 0
3377 -3375 0
3377 -3376 0
3378 -3235 -3275 0
-3378 3235 0
-3378 3275 0
3379 -3373 -3275 0
-3379 3373 0
-3379 3275 0
3380 -3373 -3239 0
-3380 3373 0
-3380 3239 0
3381 -3235 -3239 -3273 0
-3381 3235 0
-3381 3239 0
-3381 3273 0
-229 3240 3378 3379 3380 3381 0
229 -3240 0
229 -3378 0
229 -3379 0
229 -3380 0
229 -3381 0
3382 -3235 -3277 0
-3382 3235 0
-3382 3277 0
3383 -3373 -3242 0
-3383 3373 0
-3383 3242 0
3384 -3373 -3277 0
-3384 3373 0
-3384 3277 0
3385 -3235 -3242 -3273 0
-3385 3235 0
-3385 3242 0
-3385 3273 0
-227 3243 3382 3383 3384 3385 0
227 -3243 0
227 -3382 0
227 -3383 0
227 -3384 0
227 -3385 0
3386 -3245 -3277 0
-3386 3245 0
-3386 3277 0
3387 -3271 -3277 0
-3387 3271 0
-3387 3277 0
3388 -3271 -3242 0
-3388 3271 0
-3388 3242 0
3389 -3245 -3242 -3273 0
-3389 3245 0
-3389 3242 0
-3389 3273 0
-230 3246 3386 3387 3388 3389 0
230 -3246 0
230 -3386 0
230 -3387 0
230 -3388 0
230 -3389 0
3390 -3239 -3271 0
-3390 3239 0
-3390 3271 0
3391 -3275 -3245 0
-3391 3275 0
-3391 3245 0
3392 -3275 -3271 0
-3392 3275 0
-3392 3271 0
3393 -3239 -3245 -3273 0
-3393 3239 0
-3393 3245 0
-3393 3273 0
-228 3248 3390 3391 3392 3393 0
228 -3248 0
228 -3390 0
228 -3391 0
228 -3392 0
228 -3393 0
3394 -3239 -3275 0
-3394 3239 0
-3394 3275 0
3395 -3275 -3275 0
-3395 3275 0
-3395 3275 0
3396 -3275 -3239 0
-3396 3275 0
-3396 3239 0
3397 -3239 -3239 -3273 0
-3397 3239 0
-3397 3239 0
-3397 3273 0
-3398 3251 3394 3395 3396 3397 0
3398 -3251 0
3398 -3394 0
3398 -3395 0
3398 -3396 0
3398 -3397 0
3399 -2296 -2296 0
-3399 2296 0
-3399 2296 0
-3400 2303 3399 0
3400 -2303 0
3400 -3399 0
3401 -2296 -2308 0
-3401 2296 0
-3401 2308 0
-869 2310 3401 0
869 -2310 0
869 -3401 0
3402 -2296 -2314 0
-3402 2296 0
-3402 2314 0
-867 2317 3402 0
867 -2317 0
867 -3402 0
3403 -2319 -2314 0
-3403 2319 0
-3403 2314 0
-870 2324 3403 0
870 -2324 0
870 -3403 0
3404 -2308 -2319 0
-3404 2308 0
-3404 2319 0
-868 2329 3404 0
868 -2329 0
868 -3404 0
3405 -2308 -2308 0
-3405 2308 0
-3405 2308 0
-3406 2335 3405 0
3406 -2335 0
3406 -3405 0
3407 -3211 -3187 0
-3407 3211 0
-3407 3187 0
3188 -3187 -3187 0
-3188 3187 0
-3188 3187 0
3408 -3187 -3211 0
-3408 3187 0
-3408 3211 0
3409 -3211 -3211 -3193 0
-3409 3211 0
-3409 3211 0
-3409 3193 0
-3410 3191 3407 3188 3408 3409 0
3410 -3191 0
3410 -3407 0
3410 -3188 0
3410 -3408 0
3410 -3409 0
3411 -3211 -3200 0
-3411 3211 0
-3411 3200 0
3412 -3187 -3200 0
-3412 3187 0
-3412 3200 0
3413 -3187 -3219 0
-3413 3187 0
-3413 3219 0
3414 -3211 -3219 -3193 0
-3414 3211 0
-3414 3219 0
-3414 3193 0
-524 3195 3411 3412 3413 3414 0
524 -3195 0
524 -3411 0
524 -3412 0
524 -3413 0
524 -3414 0
3415 -3211 -3207 0
-3415 3211 0
-3415 3207 0
3416 -3187 -3214 0
-3416 3187 0
-3416 3214 0
3417 -3187 -3207 0
-3417 3187 0
-3417 3207 0
3418 -3211 -3214 -3193 0
-3418 3211 0
-3418 3214 0
-3418 3193 0
-522 3202 3415 3416 3417 3418 0
522 -3202 0
522 -3415 0
522 -3416 0
522 -3417 0
522 -3418 0
3419 -3209 -3207 0
-3419 3209 0
-3419 3207 0
3420 -3186 -3207 0
-3420 3186 0
-3420 3207 0
3421 -3186 -3214 0
-3421 3186 0
-3421 3214 0
3422 -3209 -3214 -3193 0
-3422 3209 0
-3422 3214 0
-3422 3193 0
-525 3204 3419 3420 3421 3422 0
525 -3204 0
525 -3419 0
525 -3420 0
525 -3421 0
525 -3422 0
3423 -3219 -3186 0
-3423 3219 0
-3423 3186 0
3424 -3200 -3209 0
-3424 3200 0
-3424 3209 0
3425 -3200 -3186 0
-3425 3200 0
-3425 3186 0
3426 -3219 -3209 -3193 0
-3426 3219 0
-3426 3209 0
-3426 3193 0
-523 3198 3423 3424 3425 3426 0
523 -3198 0
523 -3423 0
523 -3424 0
523 -3425 0
523 -3426 0
3427 -3219 -3200 0
-3427 3219 0
-3427 3200 0
3428 -3200 -3200 0
-3428 3200 0
-3428 3200 0
3429 -3200 -3219 0
-3429 3200 0
-3429 3219 0
3430 -3219 -3219 -3193 0
-3430 3219 0
-3430 3219 0
-3430 3193 0
-3431 3225 3427 3428 3429 3430 0
3431 -3225 0
3431 -3427 0
3431 -3428 0
3431 -3429 0
3431 -3430 0
3432 -3271 -3373 0
-3432 3271 0
-3432 3373 0
3374 -3373 -3373 0
-3374 3373 0
-3374 3373 0
3433 -3373 -3271 0
-3433 3373 0
-3433 3271 0
3434 -3271 -3271 -3237 0
-3434 3271 0
-3434 3271 0
-3434 3237 0
-3435 3273 3432 3374 3433 3434 0
3435 -3273 0
3435 -3432 0
3435 -3374 0
3435 -3433 0
3435 -3434 0
3436 -3271 -3240 0
-3436 3271 0
-3436 3240 0
3437 -3373 -3240 0
-3437 3373 0
-3437 3240 0
3438 -3373 -3248 0
-3438 3373 0
-3438 3248 0
3439 -3271 -3248 -3237 0
-3439 3271 0
-3439 3248 0
-3439 3237 0
-149 3275 3436 3437 3438 3439 0
149 -3275 0
149 -3436 0
149 -3437 0
149 -3438 0
149 -3439 0
3440 -3271 -3243 0
-3440 3271 0
-3440 3243 0
3441 -3373 -3246 0
-3441 3373 0
-3441 3246 0
3442 -3373 -3243 0
-3442 3373 0
-3442 3243 0
3443 -3271 -3246 -3237 0
-3443 3271 0
-3443 3246 0
-3443 3237 0
-147 3277 3440 3441 3442 3443 0
147 -3277 0
147 -3440 0
147 -3441 0
147 -3442 0
147 -3443 0
3444 -3245 -3243 0
-3444 3245 0
-3444 3243 0
3445 -3235 -3243 0
-3445 3235 0
-3445 3243 0
3446 -3235 -3246 0
-3446 3235 0
-3446 3246 0
3447 -3245 -3246 -3237 0
-3447 3245 0
-3447 3246 0
-3447 3237 0
-150 3242 3444 3445 3446 3447 0
150 -3242 0
150 -3444 0
150 -3445 0
150 -3446 0
150 -3447 0
3448 -3248 -3235 0
-3448 3248 0
-3448 3235 0
3449 -3240 -3245 0
-3449 3240 0
-3449 3245 0
3450 -3240 -3235 0
-3450 3240 0
-3450 3235 0
3451 -3248 -3245 -3237 0
-3451 3248 0
-3451 3245 0
-3451 3237 0
-148 3239 3448 3449 3450 3451 0
148 -3239 0
148 -3448 0
148 -3449 0
148 -3450 0
148 -3451 0
3452 -3248 -3240 0
-3452 3248 0
-3452 3240 0
3453 -3240 -3240 0
-3453 3240 0
-3453 3240 0
3454 -3240 -3248 0
-3454 3240 0
-3454 3248 0
3455 -3248 -3248 -3237 0
-3455 3248 0
-3455 3248 0
-3455 3237 0
-3456 3251 3452 3453 3454 3455 0
3456 -3251 0
3456 -3452 0
3456 -3453 0
3456 -3454 0
3456 -3455 0
3457 -3458 -3459 0
-3457 3458 0
-3457 3459 0
3460 -3459 -3459 0
-3460 3459 0
-3460 3459 0
3461 -3459 -3458 0
-3461 3459 0
-3461 3458 0
3462 -3458 -3458 -3463 0
-3462 3458 0
-3462 3458 0
-3462 3463 0
-3464 3465 3457 3460 3461 3462 0
3464 -3465 0
3464 -3457 0
3464 -3460 0
3464 -3461 0
3464 -3462 0
3466 -3458 -3467 0
-3466 3458 0
-3466 3467 0
3468 -3459 -3467 0
-3468 3459 0
-3468 3467 0
3469 -3459 -3470 0
-3469 3459 0
-3469 3470 0
3471 -3458 -3470 -3463 0
-3471 3458 0
-3471 3470 0
-3471 3463 0
-289 3472 3466 3468 3469 3471 0
289 -3472 0
289 -3466 0
289 -3468 0
289 -3469 0
289 -3471 0
3473 -3458 -3474 0
-3473 3458 0
-3473 3474 0
3475 -3459 -3476 0
-3475 3459 0
-3475 3476 0
3477 -3459 -3474 0
-3477 3459 0
-3477 3474 0
3478 -3458 -3476 -3463 0
-3478 3458 0
-3478 3476 0
-3478 3463 0
-287 3479 3473 3475 3477 3478 0
287 -3479 0
287 -3473 0
287 -3475 0
287 -3477 0
287 -3478 0
3480 -3481 -3474 0
-3480 3481 0
-3480 3474 0
3482 -3483 -3474 0
-3482 3483 0
-3482 3474 0
3484 -3483 -3476 0
-3484 3483 0
-3484 3476 0
3485 -3481 -3476 -3463 0
-3485 3481 0
-3485 3476 0
-3485 3463 0
-290 3486 3480 3482 3484 3485 0
290 -3486 0
290 -3480 0
290 -3482 0
290 -3484 0
290 -3485 0
3487 -3470 -3483 0
-3487 3470 0
-3487 3483 0
3488 -3467 -3481 0
-3488 3467 0
-3488 3481 0
3489 -3467 -3483 0
-3489 3467 0
-3489 3483 0
3490 -3470 -3481 -3463 0
-3490 3470 0
-3490 3481 0
-3490 3463 0
-288 3491 3487 3488 3489 3490 0
288 -3491 0
288 -3487 0
288 -3488 0
288 -3489 0
288 -3490 0
3492 -3470 -3467 0
-3492 3470 0
-3492 3467 0
3493 -3467 -3467 0
-3493 3467 0
-3493 3467 0
3494 -3467 -3470 0
-3494 3467 0
-3494 3470 0
3495 -3470 -3470 -3463 0
-3495 3470 0
-3495 3470 0
-3495 3463 0
-3496 3497 3492 3493 3494 3495 0
3496 -3497 0
3496 -3492 0
3496 -3493 0
3496 -3494 0
3496 -3495 0
3498 -1895 -3499 0
-3498 1895 0
-3498 3499 0
3500 -3499 -3499 0
-3500 3499 0
-3500 3499 0
3501 -3499 -1895 0
-3501 3499 0
-3501 1895 0
3502 -1895 -1895 -3503 0
-3502 1895 0
-3502 1895 0
-3502 3503 0
-3504 1897 3498 3500 3501 3502 0
3504 -1897 0
3504 -3498 0
3504 -3500 0
3504 -3501 0
3504 -3502 0
3505 -1895 -3506 0
-3505 1895 0
-3505 3506 0
3507 -3499 -3506 0
-3507 3499 0
-3507 3506 0
3508 -3499 -1899 0
-3508 3499 0
-3508 1899 0
3509 -1895 -1899 -3503 0
-3509 1895 0
-3509 1899 0
-3509 3503 0
-4 1900 3505 3507 3508 3509 0
4 -1900 0
4 -3505 0
4 -3507 0
4 -3508 0
4 -3509 0
3510 -1895 -3511 0
-3510 1895 0
-3510 3511 0
3512 -3499 -1902 0
-3512 3499 0
-3512 1902 0
3513 -3499 -3511 0
-3513 3499 0
-3513 3511 0
3514 -1895 -1902 -3503 0
-3514 1895 0
-3514 1902 0
-3514 3503 0
-2 1903 3510 3512 3513 3514 0
2 -1903 0
2 -3510 0
2 -3512 0
2 -3513 0
2 -3514 0
3515 -1905 -3511 0
-3515 1905 0
-3515 3511 0
3516 -3517 -3511 0
-3516 3517 0
-3516 3511 0
3518 -3517 -1902 0
-3518 3517 0
-3518 1902 0
3519 -1905 -1902 -3503 0
-3519 1905 0
-3519 1902 0
-3519 3503 0
-5 1906 3515 3516 3518 3519 0
5 -1906 0
5 -3515 0
5 -3516 0
5 -3518 0
5 -3519 0
3520 -1899 -3517 0
-3520 1899 0
-3520 3517 0
3521 -3506 -1905 0
-3521 3506 0
-3521 1905 0
3522 -3506 -3517 0
-3522 3506 0
-3522 3517 0
3523 -1899 -1905 -3503 0
-3523 1899 0
-3523 1905 0
-3523 3503 0
-3 1908 3520 3521 3522 3523 0
3 -1908 0
3 -3520 0
3 -3521 0
3 -3522 0
3 -3523 0
3524 -1899 -3506 0
-3524 1899 0
-3524 3506 0
3525 -3506 -3506 0
-3525 3506 0
-3525 3506 0
3526 -3506 -1899 0
-3526 3506 0
-3526 1899 0
3527 -1899 -1899 -3503 0
-3527 1899 0
-3527 1899 0
-3527 3503 0
-3528 1911 3524 3525 3526 3527 0
3528 -1911 0
3528 -3524 0
3528 -3525 0
3528 -3526 0
3528 -3527 0
3529 -2321 -2321 0
-3529 2321 0
-3529 2321 0
-3530 2301 3529 0
3530 -2301 0
3530 -3529 0
3531 -2321 -2329 0
-3531 2321 0
-3531 2329 0
-949 2305 3531 0
949 -2305 0
949 -3531 0
3532 -2321 -2324 0
-3532 2321 0
-3532 2324 0
-947 2312 3532 0
947 -2312 0
947 -3532 0
3533 -2319 -2324 0
-3533 2319 0
-3533 2324 0
-950 2314 3533 0
950 -2314 0
950 -3533 0
3534 -2329 -2319 0
-3534 2329 0
-3534 2319 0
-948 2308 3534 0
948 -2308 0
948 -3534 0
3535 -2329 -2329 0
-3535 2329 0
-3535 2329 0
-3536 2335 3535 0
3536 -2335 0
3536 -3535 0
3537 -2396 -3538 0
-3537 2396 0
-3537 3538 0
3539 -3538 -3538 0
-3539 3538 0
-3539 3538 0
3540 -3538 -2396 0
-3540 3538 0
-3540 2396 0
3541 -2396 -2396 -3542 0
-3541 2396 0
-3541 2396 0
-3541 3542 0
-3543 2398 3537 3539 3540 3541 0
3543 -2398 0
3543 -3537 0
3543 -3539 0
3543 -3540 0
3543 -3541 0
3544 -2396 -3545 0
-3544 2396 0
-3544 3545 0
3546 -3538 -3545 0
-3546 3538 0
-3546 3545 0
3547 -3538 -2400 0
-3547 3538 0
-3547 2400 0
3548 -2396 -2400 -3542 0
-3548 2396 0
-3548 2400 0
-3548 3542 0
-494 2401 3544 3546 3547 3548 0
494 -2401 0
494 -3544 0
494 -3546 0
494 -3547 0
494 -3548 0
3549 -2396 -3550 0
-3549 2396 0
-3549 3550 0
3551 -3538 -2403 0
-3551 3538 0
-3551 2403 0
3552 -3538 -3550 0
-3552 3538 0
-3552 3550 0
3553 -2396 -2403 -3542 0
-3553 2396 0
-3553 2403 0
-3553 3542 0
-492 2404 3549 3551 3552 3553 0
492 -2404 0
492 -3549 0
492 -3551 0
492 -3552 0
492 -3553 0
3554 -2406 -3550 0
-3554 2406 0
-3554 3550 0
3555 -3556 -3550 0
-3555 3556 0
-3555 3550 0
3557 -3556 -2403 0
-3557 3556 0
-3557 2403 0
3558 -2406 -2403 -3542 0
-3558 2406 0
-3558 2403 0
-3558 3542 0
-495 2407 3554 3555 3557 3558 0
495 -2407 0
495 -3554 0
495 -3555 0
495 -3557 0
495 -3558 0
3559 -2400 -3556 0
-3559 2400 0
-3559 3556 0
3560 -3545 -2406 0
-3560 3545 0
-3560 2406 0
3561 -3545 -3556 0
-3561 3545 0
-3561 3556 0
3562 -2400 -2406 -3542 0
-3562 2400 0
-3562 2406 0
-3562 3542 0
-493 2409 3559 3560 3561 3562 0
493 -2409 0
493 -3559 0
493 -3560 0
493 -3561 0
493 -3562 0
3563 -2400 -3545 0
-3563 2400 0
-3563 3545 0
3564 -3545 -3545 0
-3564 3545 0
-3564 3545 0
3565 -3545 -2400 0
-3565 3545 0
-3565 2400 0
3566 -2400 -2400 -3542 0
-3566 2400 0
-3566 2400 0
-3566 3542 0
-3567 2412 3563 3564 3565 3566 0
3567 -2412 0
3567 -3563 0
3567 -3564 0
3567 -3565 0
3567 -3566 0
3568 -3569 -3570 0
-3568 3569 0
-3568 3570 0
3571 -3570 -3570 0
-3571 3570 0
-3571 3570 0
3572 -3570 -3569 0
-3572 3570 0
-3572 3569 0
3573 -3569 -3569 -3574 0
-3573 3569 0
-3573 3569 0
-3573 3574 0
-3575 3576 3568 3571 3572 3573 0
3575 -3576 0
3575 -3568 0
3575 -3571 0
3575 -3572 0
3575 -3573 0
3577 -3569 -3578 0
-3577 3569 0
-3577 3578 0
3579 -3570 -3578 0
-3579 3570 0
-3579 3578 0
3580 -3570 -3581 0
-3580 3570 0
-3580 3581 0
3582 -3569 -3581 -3574 0
-3582 3569 0
-3582 3581 0
-3582 3574 0
-399 3583 3577 3579 3580 3582 0
399 -3583 0
399 -3577 0
399 -3579 0
399 -3580 0
399 -3582 0
3584 -3569 -3585 0
-3584 3569 0
-3584 3585 0
3586 -3570 -3587 0
-3586 3570 0
-3586 3587 0
3588 -3570 -3585 0
-3588 3570 0
-3588 3585 0
3589 -3569 -3587 -3574 0
-3589 3569 0
-3589 3587 0
-3589 3574 0
-397 3590 3584 3586 3588 3589 0
397 -3590 0
397 -3584 0
397 -3586 0
397 -3588 0
397 -3589 0
3591 -3592 -3585 0
-3591 3592 0
-3591 3585 0
3593 -3594 -3585 0
-3593 3594 0
-3593 3585 0
3595 -3594 -3587 0
-3595 3594 0
-3595 3587 0
3596 -3592 -3587 -3574 0
-3596 3592 0
-3596 3587 0
-3596 3574 0
-400 3597 3591 3593 3595 3596 0
400 -3597 0
400 -3591 0
400 -3593 0
400 -3595 0
400 -3596 0
3598 -3581 -3594 0
-3598 3581 0
-3598 3594 0
3599 -3578 -3592 0
-3599 3578 0
-3599 3592 0
3600 -3578 -3594 0
-3600 3578 0
-3600 3594 0
3601 -3581 -3592 -3574 0
-3601 3581 0
-3601 3592 0
-3601 3574 0
-398 3602 3598 3599 3600 3601 0
398 -3602 0
398 -3598 0
398 -3599 0
398 -3600 0
398 -3601 0
3603 -3581 -3578 0
-3603 3581 0
-3603 3578 0
3604 -3578 -3578 0
-3604 3578 0
-3604 3578 0
3605 -3578 -3581 0
-3605 3578 0
-3605 3581 0
3606 -3581 -3581 -3574 0
-3606 3581 0
-3606 3581 0
-3606 3574 0
-3607 3608 3603 3604 3605 3606 0
3607 -3608 0
3607 -3603 0
3607 -3604 0
3607 -3605 0
3607 -3606 0
3609 -3610 -3610 0
-3609 3610 0
-3609 3610 0
-3611 3612 3609 0
3611 -3612 0
3611 -3609 0
3613 -3610 -3614 0
-3613 3610 0
-3613 3614 0
-1039 3615 3613 0
1039 -3615 0
1039 -3613 0
3616 -3610 -3617 0
-3616 3610 0
-3616 3617 0
-1037 3618 3616 0
1037 -3618 0
1037 -3616 0
3619 -3620 -3617 0
-3619 3620 0
-3619 3617 0
-1040 3621 3619 0
1040 -3621 0
1040 -3619 0
3622 -3614 -3620 0
-3622 3614 0
-3622 3620 0
-1038 3623 3622 0
1038 -3623 0
1038 -3622 0
3624 -3614 -3614 0
-3624 3614 0
-3624 3614 0
-3625 3626 3624 0
3625 -3626 0
3625 -3624 0
3627 -1305 -3628 0
-3627 1305 0
-3627 3628 0
3629 -3628 -3628 0
-3629 3628 0
-3629 3628 0
3630 -3628 -1305 0
-3630 3628 0
-3630 1305 0
3631 -1305 -1305 -3632 0
-3631 1305 0
-3631 1305 0
-3631 3632 0
-3633 1307 3627 3629 3630 3631 0
3633 -1307 0
3633 -3627 0
3633 -3629 0
3633 -3630 0
3633 -3631 0
3634 -1305 -3635 0
-3634 1305 0
-3634 3635 0
3636 -3628 -3635 0
-3636 3628 0
-3636 3635 0
3637 -3628 -1309 0
-3637 3628 0
-3637 1309 0
3638 -1305 -1309 -3632 0
-3638 1305 0
-3638 1309 0
-3638 3632 0
-114 1310 3634 3636 3637 3638 0
114 -1310 0
114 -3634 0
114 -3636 0
114 -3637 0
114 -3638 0
3639 -1305 -3640 0
-3639 1305 0
-3639 3640 0
3641 -3628 -1312 0
-3641 3628 0
-3641 1312 0
3642 -3628 -3640 0
-3642 3628 0
-3642 3640 0
3643 -1305 -1312 -3632 0
-3643 1305 0
-3643 1312 0
-3643 3632 0
-112 1313 3639 3641 3642 3643 0
112 -1313 0
112 -3639 0
112 -3641 0
112 -3642 0
112 -3643 0
3644 -1315 -3640 0
-3644 1315 0
-3644 3640 0
3645 -3646 -3640 0
-3645 3646 0
-3645 3640 0
3647 -3646 -1312 0
-3647 3646 0
-3647 1312 0
3648 -1315 -1312 -3632 0
-3648 1315 0
-3648 1312 0
-3648 3632 0
-115 1316 3644 3645 3647 3648 0
115 -1316 0
115 -3644 0
115 -3645 0
115 -3647 0
115 -3648 0
3649 -1309 -3646 0
-3649 1309 0
-3649 3646 0
3650 -3635 -1315 0
-3650 3635 0
-3650 1315 0
3651 -3635 -3646 0
-3651 3635 0
-3651 3646 0
3652 -1309 -1315 -3632 0
-3652 1309 0
-3652 1315 0
-3652 3632 0
-113 1318 3649 3650 3651 3652 0
113 -1318 0
113 -3649 0
113 -3650 0
113 -3651 0
113 -3652 0
3653 -1309 -3635 0
-3653 1309 0
-3653 3635 0
3654 -3635 -3635 0
-3654 3635 0
-3654 3635 0
3655 -3635 -1309 0
-3655 3635 0
-3655 1309 0
3656 -1309 -1309 -3632 0
-3656 1309 0
-3656 1309 0
-3656 3632 0
-3657 1321 3653 3654 3655 3656 0
3657 -1321 0
3657 -3653 0
3657 -3654 0
3657 -3655 0
3657 -3656 0
3658 -3659 -3659 0
-3658 3659 0
-3658 3659 0
-3660 3661 3658 0
3660 -3661 0
3660 -3658 0
3662 -3659 -3663 0
-3662 3659 0
-3662 3663 0
-774 3664 3662 0
774 -3664 0
774 -3662 0
3665 -3659 -3666 0
-3665 3659 0
-3665 3666 0
-772 3667 3665 0
772 -3667 0
772 -3665 0
3668 -3669 -3666 0
-3668 3669 0
-3668 3666 0
-775 3670 3668 0
775 -3670 0
775 -3668 0
3671 -3663 -3669 0
-3671 3663 0
-3671 3669 0
-773 3672 3671 0
773 -3672 0
773 -3671 0
3673 -3663 -3663 0
-3673 3663 0
-3673 3663 0
-3674 3675 3673 0
3674 -3675 0
3674 -3673 0
3676 -3677 -3677 0
-3676 3677 0
-3676 3677 0
-3678 3679 3676 0
3678 -3679 0
3678 -3676 0
3680 -3677 -3681 0
-3680 3677 0
-3680 3681 0
-619 3682 3680 0
619 -3682 0
619 -3680 0
3683 -3677 -3684 0
-3683 3677 0
-3683 3684 0
-617 3685 3683 0
617 -3685 0
617 -3683 0
3686 -3687 -3684 0
-3686 3687 0
-3686 3684 0
-620 3688 3686 0
620 -3688 0
620 -3686 0
3689 -3681 -3687 0
-3689 3681 0
-3689 3687 0
-618 3690 3689 0
618 -3690 0
618 -3689 0
3691 -3681 -3681 0
-3691 3681 0
-3691 3681 0
-3692 3693 3691 0
3692 -3693 0
3692 -3691 0
3694 -3646 -3628 0
-3694 3646 0
-3694 3628 0
3629 -3628 -3628 0
-3629 3628 0
-3629 3628 0
3695 -3628 -3646 0
-3695 3628 0
-3695 3646 0
3696 -3646 -3646 -1307 0
-3696 3646 0
-3696 3646 0
-3696 1307 0
-3697 3632 3694 3629 3695 3696 0
3697 -3632 0
3697 -3694 0
3697 -3629 0
3697 -3695 0
3697 -3696 0
3698 -3646 -1310 0
-3698 3646 0
-3698 1310 0
3699 -3628 -1310 0
-3699 3628 0
-3699 1310 0
3700 -3628 -1318 0
-3700 3628 0
-3700 1318 0
3701 -3646 -1318 -1307 0
-3701 3646 0
-3701 1318 0
-3701 1307 0
-194 3635 3698 3699 3700 3701 0
194 -3635 0
194 -3698 0
194 -3699 0
194 -3700 0
194 -3701 0
3702 -3646 -1313 0
-3702 3646 0
-3702 1313 0
3703 -3628 -1316 0
-3703 3628 0
-3703 1316 0
3704 -3628 -1313 0
-3704 3628 0
-3704 1313 0
3705 -3646 -1316 -1307 0
-3705 3646 0
-3705 1316 0
-3705 1307 0
-192 3640 3702 3703 3704 3705 0
192 -3640 0
192 -3702 0
192 -3703 0
192 -3704 0
192 -3705 0
3706 -1315 -1313 0
-3706 1315 0
-3706 1313 0
3707 -1305 -1313 0
-3707 1305 0
-3707 1313 0
3708 -1305 -1316 0
-3708 1305 0
-3708 1316 0
3709 -1315 -1316 -1307 0
-3709 1315 0
-3709 1316 0
-3709 1307 0
-195 1312 3706 3707 3708 3709 0
195 -1312 0
195 -3706 0
195 -3707 0
195 -3708 0
195 -3709 0
3710 -1318 -1305 0
-3710 1318 0
-3710 1305 0
3711 -1310 -1315 0
-3711 1310 0
-3711 1315 0
3712 -1310 -1305 0
-3712 1310 0
-3712 1305 0
3713 -1318 -1315 -1307 0
-3713 1318 0
-3713 1315 0
-3713 1307 0
-193 1309 3710 3711 3712 3713 0
193 -1309 0
193 -3710 0
193 -3711 0
193 -3712 0
193 -3713 0
3714 -1318 -1310 0
-3714 1318 0
-3714 1310 0
3715 -1310 -1310 0
-3715 1310 0
-3715 1310 0
3716 -1310 -1318 0
-3716 1310 0
-3716 1318 0
3717 -1318 -1318 -1307 0
-3717 1318 0
-3717 1318 0
-3717 1307 0
-3718 1321 3714 3715 3716 3717 0
3718 -1321 0
3718 -3714 0
3718 -3715 0
3718 -3716 0
3718 -3717 0
3719 -3720 -3721 0
-3719 3720 0
-3719 3721 0
3722 -3721 -3721 0
-3722 3721 0
-3722 3721 0
3723 -3721 -3720 0
-3723 3721 0
-3723 3720 0
3724 -3720 -3720 -3725 0
-3724 3720 0
-3724 3720 0
-3724 3725 0
-3726 3727 3719 3722 3723 3724 0
3726 -3727 0
3726 -3719 0
3726 -3722 0
3726 -3723 0
3726 -3724 0
3728 -3720 -3729 0
-3728 3720 0
-3728 3729 0
3730 -3721 -3729 0
-3730 3721 0
-3730 3729 0
3731 -3721 -3732 0
-3731 3721 0
-3731 3732 0
3733 -3720 -3732 -3725 0
-3733 3720 0
-3733 3732 0
-3733 3725 0
-764 3734 3728 3730 3731 3733 0
764 -3734 0
764 -3728 0
764 -3730 0
764 -3731 0
764 -3733 0
3735 -3720 -3736 0
-3735 3720 0
-3735 3736 0
3737 -3721 -3738 0
-3737 3721 0
-3737 3738 0
3739 -3721 -3736 0
-3739 3721 0
-3739 3736 0
3740 -3720 -3738 -3725 0
-3740 3720 0
-3740 3738 0
-3740 3725 0
-762 3741 3735 3737 3739 3740 0
762 -3741 0
762 -3735 0
762 -3737 0
762 -3739 0
762 -3740 0
3742 -3743 -3736 0
-3742 3743 0
-3742 3736 0
3744 -3745 -3736 0
-3744 3745 0
-3744 3736 0
3746 -3745 -3738 0
-3746 3745 0
-3746 3738 0
3747 -3743 -3738 -3725 0
-3747 3743 0
-3747 3738 0
-3747 3725 0
-765 3748 3742 3744 3746 3747 0
765 -3748 0
765 -3742 0
765 -3744 0
765 -3746 0
765 -3747 0
3749 -3732 -3745 0
-3749 3732 0
-3749 3745 0
3750 -3729 -3743 0
-3750 3729 0
-3750 3743 0
3751 -3729 -3745 0
-3751 3729 0
-3751 3745 0
3752 -3732 -3743 -3725 0
-3752 3732 0
-3752 3743 0
-3752 3725 0
-763 3753 3749 3750 3751 3752 0
763 -3753 0
763 -3749 0
763 -3750 0
763 -3751 0
763 -3752 0
3754 -3732 -3729 0
-3754 3732 0
-3754 3729 0
3755 -3729 -3729 0
-3755 3729 0
-3755 3729 0
3756 -3729 -3732 0
-3756 3729 0
-3756 3732 0
3757 -3732 -3732 -3725 0
-3757 3732 0
-3757 3732 0
-3757 3725 0
-3758 3759 3754 3755 3756 3757 0
3758 -3759 0
3758 -3754 0
3758 -3755 0
3758 -3756 0
3758 -3757 0
3760 -1248 -1248 0
-3760 1248 0
-3760 1248 0
-3761 1228 3760 0
3761 -1228 0
3761 -3760 0
3762 -1248 -1256 0
-3762 1248 0
-3762 1256 0
-879 1232 3762 0
879 -1232 0
879 -3762 0
3763 -1248 -1251 0
-3763 1248 0
-3763 1251 0
-877 1239 3763 0
877 -1239 0
877 -3763 0
3764 -1246 -1251 0
-3764 1246 0
-3764 1251 0
-880 1241 3764 0
880 -1241 0
880 -3764 0
3765 -1256 -1246 0
-3765 1256 0
-3765 1246 0
-878 1235 3765 0
878 -1235 0
878 -3765 0
3766 -1256 -1256 0
-3766 1256 0
-3766 1256 0
-3767 1262 3766 0
3767 -1262 0
3767 -3766 0
3768 -3769 -3769 0
-3768 3769 0
-3768 3769 0
-3770 3771 3768 0
3770 -3771 0
3770 -3768 0
3772 -3769 -1390 0
-3772 3769 0
-3772 1390 0
-379 3773 3772 0
379 -3773 0
379 -3772 0
3774 -3769 -1393 0
-3774 3769 0
-3774 1393 0
-377 3775 3774 0
377 -3775 0
377 -3774 0
3776 -1389 -1393 0
-3776 1389 0
-3776 1393 0
-380 1392 3776 0
380 -1392 0
380 -3776 0
3777 -1390 -1389 0
-3777 1390 0
-3777 1389 0
-378 1382 3777 0
378 -1382 0
378 -3777 0
3778 -1390 -1390 0
-3778 1390 0
-3778 1390 0
-3779 1384 3778 0
3779 -1384 0
3779 -3778 0
3780 -3556 -3538 0
-3780 3556 0
-3780 3538 0
3539 -3538 -3538 0
-3539 3538 0
-3539 3538 0
3781 -3538 -3556 0
-3781 3538 0
-3781 3556 0
3782 -3556 -3556 -2398 0
-3782 3556 0
-3782 3556 0
-3782 2398 0
-3783 3542 3780 3539 3781 3782 0
3783 -3542 0
3783 -3780 0
3783 -3539 0
3783 -3781 0
3783 -3782 0
3784 -3556 -2401 0
-3784 3556 0
-3784 2401 0
3785 -3538 -2401 0
-3785 3538 0
-3785 2401 0
3786 -3538 -2409 0
-3786 3538 0
-3786 2409 0
3787 -3556 -2409 -2398 0
-3787 3556 0
-3787 2409 0
-3787 2398 0
-614 3545 3784 3785 3786 3787 0
614 -3545 0
614 -3784 0
614 -3785 0
614 -3786 0
614 -3787 0
3788 -3556 -2404 0
-3788 3556 0
-3788 2404 0
3789 -3538 -2407 0
-3789 3538 0
-3789 2407 0
3790 -3538 -2404 0
-3790 3538 0
-3790 2404 0
3791 -3556 -2407 -2398 0
-3791 3556 0
-3791 2407 0
-3791 2398 0
-612 3550 3788 3789 3790 3791 0
612 -3550 0
612 -3788 0
612 -3789 0
612 -3790 0
612 -3791 0
3792 -2406 -2404 0
-3792 2406 0
-3792 2404 0
3793 -2396 -2404 0
-3793 2396 0
-3793 2404 0
3794 -2396 -2407 0
-3794 2396 0
-3794 2407 0
3795 -2406 -2407 -2398 0
-3795 2406 0
-3795 2407 0
-3795 2398 0
-615 2403 3792 3793 3794 3795 0
615 -2403 0
615 -3792 0
615 -3793 0
615 -3794 0
615 -3795 0
3796 -2409 -2396 0
-3796 2409 0
-3796 2396 0
3797 -2401 -2406 0
-3797 2401 0
-3797 2406 0
3798 -2401 -2396 0
-3798 2401 0
-3798 2396 0
3799 -2409 -2406 -2398 0
-3799 2409 0
-3799 2406 0
-3799 2398 0
-613 2400 3796 3797 3798 3799 0
613 -2400 0
613 -3796 0
613 -3797 0
613 -3798 0
613 -3799 0
3800 -2409 -2401 0
-3800 2409 0
-3800 2401 0
3801 -2401 -2401 0
-3801 2401 0
-3801 2401 0
3802 -2401 -2409 0
-3802 2401 0
-3802 2409 0
3803 -2409 -2409 -2398 0
-3803 2409 0
-3803 2409 0
-3803 2398 0
-3804 2412 3800 3801 3802 3803 0
3804 -2412 0
3804 -3800 0
3804 -3801 0
3804 -3802 0
3804 -3803 0
3805 -1313 -1313 0
-3805 1313 0
-3805 1313 0
-3806 1307 3805 0
3806 -1307 0
3806 -3805 0
3807 -1313 -3640 0
-3807 1313 0
-3807 3640 0
-394 3628 3807 0
394 -3628 0
394 -3807 0
3808 -1313 -1312 0
-3808 1313 0
-3808 1312 0
-392 1305 3808 0
392 -1305 0
392 -3808 0
3809 -1316 -1312 0
-3809 1316 0
-3809 1312 0
-395 1315 3809 0
395 -1315 0
395 -3809 0
3810 -3640 -1316 0
-3810 3640 0
-3810 1316 0
-393 3646 3810 0
393 -3646 0
393 -3810 0
3811 -3640 -3640 0
-3811 3640 0
-3811 3640 0
-3812 3632 3811 0
3812 -3632 0
3812 -3811 0
3813 -3814 -3814 0
-3813 3814 0
-3813 3814 0
-3815 3816 3813 0
3815 -3816 0
3815 -3813 0
3817 -3814 -3818 0
-3817 3814 0
-3817 3818 0
-559 3819 3817 0
559 -3819 0
559 -3817 0
3820 -3814 -3821 0
-3820 3814 0
-3820 3821 0
-557 3822 3820 0
557 -3822 0
557 -3820 0
3823 -3824 -3821 0
-3823 3824 0
-3823 3821 0
-560 3825 3823 0
560 -3825 0
560 -3823 0
3826 -3818 -3824 0
-3826 3818 0
-3826 3824 0
-558 3827 3826 0
558 -3827 0
558 -3826 0
3828 -3818 -3818 0
-3828 3818 0
-3828 3818 0
-3829 3830 3828 0
3829 -3830 0
3829 -3828 0
3831 -3832 -3832 0
-3831 3832 0
-3831 3832 0
-3833 3834 3831 0
3833 -3834 0
3833 -3831 0
3835 -3832 -3836 0
-3835 3832 0
-3835 3836 0
-319 3837 3835 0
319 -3837 0
319 -3835 0
3838 -3832 -3839 0
-3838 3832 0
-3838 3839 0
-317 3840 3838 0
317 -3840 0
317 -3838 0
3841 -3842 -3839 0
-3841 3842 0
-3841 3839 0
-320 3843 3841 0
320 -3843 0
320 -3841 0
3844 -3836 -3842 0
-3844 3836 0
-3844 3842 0
-318 3845 3844 0
318 -3845 0
318 -3844 0
3846 -3836 -3836 0
-3846 3836 0
-3846 3836 0
-3847 3848 3846 0
3847 -3848 0
3847 -3846 0
3849 -3602 -3583 0
-3849 3602 0
-3849 3583 0
3850 -3583 -3583 0
-3850 3583 0
-3850 3583 0
3851 -3583 -3602 0
-3851 3583 0
-3851 3602 0
3852 -3602 -3602 -3576 0
-3852 3602 0
-3852 3602 0
-3852 3576 0
-3853 3608 3849 3850 3851 3852 0
3853 -3608 0
3853 -3849 0
3853 -3850 0
3853 -3851 0
3853 -3852 0
3854 -3602 -3570 0
-3854 3602 0
-3854 3570 0
3855 -3583 -3570 0
-3855 3583 0
-3855 3570 0
3856 -3583 -3594 0
-3856 3583 0
-3856 3594 0
3857 -3602 -3594 -3576 0
-3857 3602 0
-3857 3594 0
-3857 3576 0
-549 3578 3854 3855 3856 3857 0
549 -3578 0
549 -3854 0
549 -3855 0
549 -3856 0
549 -3857 0
3858 -3602 -3569 0
-3858 3602 0
-3858 3569 0
3859 -3583 -3592 0
-3859 3583 0
-3859 3592 0
3860 -3583 -3569 0
-3860 3583 0
-3860 3569 0
3861 -3602 -3592 -3576 0
-3861 3602 0
-3861 3592 0
-3861 3576 0
-547 3581 3858 3859 3860 3861 0
547 -3581 0
547 -3858 0
547 -3859 0
547 -3860 0
547 -3861 0
3862 -3597 -3569 0
-3862 3597 0
-3862 3569 0
3863 -3590 -3569 0
-3863 3590 0
-3863 3569 0
3864 -3590 -3592 0
-3864 3590 0
-3864 3592 0
3865 -3597 -3592 -3576 0
-3865 3597 0
-3865 3592 0
-3865 3576 0
-550 3587 3862 3863 3864 3865 0
550 -3587 0
550 -3862 0
550 -3863 0
550 -3864 0
550 -3865 0
3866 -3594 -3590 0
-3866 3594 0
-3866 3590 0
3867 -3570 -3597 0
-3867 3570 0
-3867 3597 0
3868 -3570 -3590 0
-3868 3570 0
-3868 3590 0
3869 -3594 -3597 -3576 0
-3869 3594 0
-3869 3597 0
-3869 3576 0
-548 3585 3866 3867 3868 3869 0
548 -3585 0
548 -3866 0
548 -3867 0
548 -3868 0
548 -3869 0
3870 -3594 -3570 0
-3870 3594 0
-3870 3570 0
3571 -3570 -3570 0
-3571 3570 0
-3571 3570 0
3871 -3570 -3594 0
-3871 3570 0
-3871 3594 0
3872 -3594 -3594 -3576 0
-3872 3594 0
-3872 3594 0
-3872 3576 0
-3873 3574 3870 3571 3871 3872 0
3873 -3574 0
3873 -3870 0
3873 -3571 0
3873 -3871 0
3873 -3872 0
3874 -2943 -2919 0
-3874 2943 0
-3874 2919 0
2920 -2919 -2919 0
-2920 2919 0
-2920 2919 0
3875 -2919 -2943 0
-3875 2919 0
-3875 2943 0
3876 -2943 -2943 -2925 0
-3876 2943 0
-3876 2943 0
-3876 2925 0
-3877 2923 3874 2920 3875 3876 0
3877 -2923 0
3877 -3874 0
3877 -2920 0
3877 -3875 0
3877 -3876 0
3878 -2943 -2932 0
-3878 2943 0
-3878 2932 0
3879 -2919 -2932 0
-3879 2919 0
-3879 2932 0
3880 -2919 -2951 0
-3880 2919 0
-3880 2951 0
3881 -2943 -2951 -2925 0
-3881 2943 0
-3881 2951 0
-3881 2925 0
-419 2927 3878 3879 3880 3881 0
419 -2927 0
419 -3878 0
419 -3879 0
419 -3880 0
419 -3881 0
3882 -2943 -2939 0
-3882 2943 0
-3882 2939 0
3883 -2919 -2946 0
-3883 2919 0
-3883 2946 0
3884 -2919 -2939 0
-3884 2919 0
-3884 2939 0
3885 -2943 -2946 -2925 0
-3885 2943 0
-3885 2946 0
-3885 2925 0
-417 2934 3882 3883 3884 3885 0
417 -2934 0
417 -3882 0
417 -3883 0
417 -3884 0
417 -3885 0
3886 -2941 -2939 0
-3886 2941 0
-3886 2939 0
3887 -2918 -2939 0
-3887 2918 0
-3887 2939 0
3888 -2918 -2946 0
-3888 2918 0
-3888 2946 0
3889 -2941 -2946 -2925 0
-3889 2941 0
-3889 2946 0
-3889 2925 0
-420 2936 3886 3887 3888 3889 0
420 -2936 0
420 -3886 0
420 -3887 0
420 -3888 0
420 -3889 0
3890 -2951 -2918 0
-3890 2951 0
-3890 2918 0
3891 -2932 -2941 0
-3891 2932 0
-3891 2941 0
3892 -2932 -2918 0
-3892 2932 0
-3892 2918 0
3893 -2951 -2941 -2925 0
-3893 2951 0
-3893 2941 0
-3893 2925 0
-418 2930 3890 3891 3892 3893 0
418 -2930 0
418 -3890 0
418 -3891 0
418 -3892 0
418 -3893 0
3894 -2951 -2932 0
-3894 2951 0
-3894 2932 0
3895 -2932 -2932 0
-3895 2932 0
-3895 2932 0
3896 -2932 -2951 0
-3896 2932 0
-3896 2951 0
3897 -2951 -2951 -2925 0
-3897 2951 0
-3897 2951 0
-3897 2925 0
-3898 2957 3894 3895 3896 3897 0
3898 -2957 0
3898 -3894 0
3898 -3895 0
3898 -3896 0
3898 -3897 0
3899 -1903 -1900 0
-3899 1903 0
-3899 1900 0
3900 -1900 -1900 0
-3900 1900 0
-3900 1900 0
3901 -1900 -1903 0
-3901 1900 0
-3901 1903 0
3902 -1903 -1903 -1911 0
-3902 1903 0
-3902 1903 0
-3902 1911 0
-3903 1897 3899 3900 3901 3902 0
3903 -1897 0
3903 -3899 0
3903 -3900 0
3903 -3901 0
3903 -3902 0
3904 -1903 -3506 0
-3904 1903 0
-3904 3506 0
3905 -1900 -3506 0
-3905 1900 0
-3905 3506 0
3906 -1900 -3511 0
-3906 1900 0
-3906 3511 0
3907 -1903 -3511 -1911 0
-3907 1903 0
-3907 3511 0
-3907 1911 0
-9 3499 3904 3905 3906 3907 0
9 -3499 0
9 -3904 0
9 -3905 0
9 -3906 0
9 -3907 0
3908 -1903 -1899 0
-3908 1903 0
-3908 1899 0
3909 -1900 -1902 0
-3909 1900 0
-3909 1902 0
3910 -1900 -1899 0
-3910 1900 0
-3910 1899 0
3911 -1903 -1902 -1911 0
-3911 1903 0
-3911 1902 0
-3911 1911 0
-7 1895 3908 3909 3910 3911 0
7 -1895 0
7 -3908 0
7 -3909 0
7 -3910 0
7 -3911 0
3912 -1906 -1899 0
-3912 1906 0
-3912 1899 0
3913 -1908 -1899 0
-3913 1908 0
-3913 1899 0
3914 -1908 -1902 0
-3914 1908 0
-3914 1902 0
3915 -1906 -1902 -1911 0
-3915 1906 0
-3915 1902 0
-3915 1911 0
-10 1905 3912 3913 3914 3915 0
10 -1905 0
10 -3912 0
10 -3913 0
10 -3914 0
10 -3915 0
3916 -3511 -1908 0
-3916 3511 0
-3916 1908 0
3917 -3506 -1906 0
-3917 3506 0
-3917 1906 0
3918 -3506 -1908 0
-3918 3506 0
-3918 1908 0
3919 -3511 -1906 -1911 0
-3919 3511 0
-3919 1906 0
-3919 1911 0
-8 3517 3916 3917 3918 3919 0
8 -3517 0
8 -3916 0
8 -3917 0
8 -3918 0
8 -3919 0
3920 -3511 -3506 0
-3920 3511 0
-3920 3506 0
3525 -3506 -3506 0
-3525 3506 0
-3525 3506 0
3921 -3506 -3511 0
-3921 3506 0
-3921 3511 0
3922 -3511 -3511 -1911 0
-3922 3511 0
-3922 3511 0
-3922 1911 0
-3923 3503 3920 3525 3921 3922 0
3923 -3503 0
3923 -3920 0
3923 -3525 0
3923 -3921 0
3923 -3922 0
3924 -1541 -3925 0
-3924 1541 0
-3924 3925 0
3926 -3925 -3925 0
-3926 3925 0
-3926 3925 0
3927 -3925 -1541 0
-3927 3925 0
-3927 1541 0
3928 -1541 -1541 -3929 0
-3928 1541 0
-3928 1541 0
-3928 3929 0
-3930 1543 3924 3926 3927 3928 0
3930 -1543 0
3930 -3924 0
3930 -3926 0
3930 -3927 0
3930 -3928 0
3931 -1541 -3932 0
-3931 1541 0
-3931 3932 0
3933 -3925 -3932 0
-3933 3925 0
-3933 3932 0
3934 -3925 -1545 0
-3934 3925 0
-3934 1545 0
3935 -1541 -1545 -3929 0
-3935 1541 0
-3935 1545 0
-3935 3929 0
-984 1546 3931 3933 3934 3935 0
984 -1546 0
984 -3931 0
984 -3933 0
984 -3934 0
984 -3935 0
3936 -1541 -3937 0
-3936 1541 0
-3936 3937 0
3938 -3925 -1548 0
-3938 3925 0
-3938 1548 0
3939 -3925 -3937 0
-3939 3925 0
-3939 3937 0
3940 -1541 -1548 -3929 0
-3940 1541 0
-3940 1548 0
-3940 3929 0
-982 1549 3936 3938 3939 3940 0
982 -1549 0
982 -3936 0
982 -3938 0
982 -3939 0
982 -3940 0
3941 -1551 -3937 0
-3941 1551 0
-3941 3937 0
3942 -3943 -3937 0
-3942 3943 0
-3942 3937 0
3944 -3943 -1548 0
-3944 3943 0
-3944 1548 0
3945 -1551 -1548 -3929 0
-3945 1551 0
-3945 1548 0
-3945 3929 0
-985 1552 3941 3942 3944 3945 0
985 -1552 0
985 -3941 0
985 -3942 0
985 -3944 0
985 -3945 0
3946 -1545 -3943 0
-3946 1545 0
-3946 3943 0
3947 -3932 -1551 0
-3947 3932 0
-3947 1551 0
3948 -3932 -3943 0
-3948 3932 0
-3948 3943 0
3949 -1545 -1551 -3929 0
-3949 1545 0
-3949 1551 0
-3949 3929 0
-983 1554 3946 3947 3948 3949 0
983 -1554 0
983 -3946 0
983 -3947 0
983 -3948 0
983 -3949 0
3950 -1545 -3932 0
-3950 1545 0
-3950 3932 0
3951 -3932 -3932 0
-3951 3932 0
-3951 3932 0
3952 -3932 -1545 0
-3952 3932 0
-3952 1545 0
3953 -1545 -1545 -3929 0
-3953 1545 0
-3953 1545 0
-3953 3929 0
-3954 1557 3950 3951 3952 3953 0
3954 -1557 0
3954 -3950 0
3954 -3951 0
3954 -3952 0
3954 -3953 0
3955 -1931 -1931 0
-3955 1931 0
-3955 1931 0
-3956 1917 3955 0
3956 -1917 0
3956 -3955 0
3957 -1931 -1890 0
-3957 1931 0
-3957 1890 0
-1139 1920 3957 0
1139 -1920 0
1139 -3957 0
3958 -1931 -1888 0
-3958 1931 0
-3958 1888 0
-1137 1925 3958 0
1137 -1925 0
1137 -3958 0
3959 -1887 -1888 0
-3959 1887 0
-3959 1888 0
-1140 1884 3959 0
1140 -1884 0
1140 -3959 0
3960 -1890 -1887 0
-3960 1890 0
-3960 1887 0
-1138 1881 3960 0
1138 -1881 0
1138 -3960 0
3961 -1890 -1890 0
-3961 1890 0
-3961 1890 0
-3962 1893 3961 0
3962 -1893 0
3962 -3961 0
3963 -3340 -3340 0
-3963 3340 0
-3963 3340 0
-3964 3329 3963 0
3964 -3329 0
3964 -3963 0
3965 -3340 -3345 0
-3965 3340 0
-3965 3345 0
-1129 3325 3965 0
1129 -3325 0
1129 -3965 0
3966 -3340 -3352 0
-3966 3340 0
-3966 3352 0
-1127 3349 3966 0
1127 -3349 0
1127 -3966 0
3967 -3342 -3352 0
-3967 3342 0
-3967 3352 0
-1130 3347 3967 0
1130 -3347 0
1130 -3967 0
3968 -3345 -3342 0
-3968 3345 0
-3968 3342 0
-1128 3324 3968 0
1128 -3324 0
1128 -3968 0
3969 -3345 -3345 0
-3969 3345 0
-3969 3345 0
-3970 3331 3969 0
3970 -3331 0
3970 -3969 0
3971 -1759 -1759 0
-3971 1759 0
-3971 1759 0
-3972 1766 3971 0
3972 -1766 0
3972 -3971 0
3973 -1759 -1771 0
-3973 1759 0
-3973 1771 0
-239 1773 3973 0
239 -1773 0
239 -3973 0
3974 -1759 -1777 0
-3974 1759 0
-3974 1777 0
-237 1780 3974 0
237 -1780 0
237 -3974 0
3975 -1782 -1777 0
-3975 1782 0
-3975 1777 0
-240 1787 3975 0
240 -1787 0
240 -3975 0
3976 -1771 -1782 0
-3976 1771 0
-3976 1782 0
-238 1792 3976 0
238 -1792 0
238 -3976 0
3977 -1771 -1771 0
-3977 1771 0
-3977 1771 0
-3978 1798 3977 0
3978 -1798 0
3978 -3977 0
3979 -3980 -3980 0
-3979 3980 0
-3979 3980 0
-3981 3982 3979 0
3981 -3982 0
3981 -3979 0
3983 -3980 -3984 0
-3983 3980 0
-3983 3984 0
-1019 3985 3983 0
1019 -3985 0
1019 -3983 0
3986 -3980 -3987 0
-3986 3980 0
-3986 3987 0
-1017 3988 3986 0
1017 -3988 0
1017 -3986 0
3989 -3990 -3987 0
-3989 3990 0
-3989 3987 0
-1020 3991 3989 0
1020 -3991 0
1020 -3989 0
3992 -3984 -3990 0
-3992 3984 0
-3992 3990 0
-1018 3993 3992 0
1018 -3993 0
1018 -3992 0
3994 -3984 -3984 0
-3994 3984 0
-3994 3984 0
-3995 3996 3994 0
3995 -3996 0
3995 -3994 0
3997 -2934 -2927 0
-3997 2934 0
-3997 2927 0
2953 -2927 -2927 0
-2953 2927 0
-2953 2927 0
3998 -2927 -2934 0
-3998 2927 0
-3998 2934 0
3999 -2934 -2934 -2957 0
-3999 2934 0
-3999 2934 0
-3999 2957 0
-4000 2923 3997 2953 3998 3999 0
4000 -2923 0
4000 -3997 0
4000 -2953 0
4000 -3998 0
4000 -3999 0
4001 -2934 -2932 0
-4001 2934 0
-4001 2932 0
4002 -2927 -2932 0
-4002 2927 0
-4002 2932 0
4003 -2927 -2939 0
-4003 2927 0
-4003 2939 0
4004 -2934 -2939 -2957 0
-4004 2934 0
-4004 2939 0
-4004 2957 0
-389 2919 4001 4002 4003 4004 0
389 -2919 0
389 -4001 0
389 -4002 0
389 -4003 0
389 -4004 0
4005 -2934 -2951 0
-4005 2934 0
-4005 2951 0
4006 -2927 -2946 0
-4006 2927 0
-4006 2946 0
4007 -2927 -2951 0
-4007 2927 0
-4007 2951 0
4008 -2934 -2946 -2957 0
-4008 2934 0
-4008 2946 0
-4008 2957 0
-387 2943 4005 4006 4007 4008 0
387 -2943 0
387 -4005 0
387 -4006 0
387 -4007 0
387 -4008 0
4009 -2936 -2951 0
-4009 2936 0
-4009 2951 0
4010 -2930 -2951 0
-4010 2930 0
-4010 2951 0
4011 -2930 -2946 0
-4011 2930 0
-4011 2946 0
4012 -2936 -2946 -2957 0
-4012 2936 0
-4012 2946 0
-4012 2957 0
-390 2941 4009 4010 4011 4012 0
390 -2941 0
390 -4009 0
390 -4010 0
390 -4011 0
390 -4012 0
4013 -2939 -2930 0
-4013 2939 0
-4013 2930 0
4014 -2932 -2936 0
-4014 2932 0
-4014 2936 0
4015 -2932 -2930 0
-4015 2932 0
-4015 2930 0
4016 -2939 -2936 -2957 0
-4016 2939 0
-4016 2936 0
-4016 2957 0
-388 2918 4013 4014 4015 4016 0
388 -2918 0
388 -4013 0
388 -4014 0
388 -4015 0
388 -4016 0
4017 -2939 -2932 0
-4017 2939 0
-4017 2932 0
3895 -2932 -2932 0
-3895 2932 0
-3895 2932 0
4018 -2932 -2939 0
-4018 2932 0
-4018 2939 0
4019 -2939 -2939 -2957 0
-4019 2939 0
-4019 2939 0
-4019 2957 0
-4020 2925 4017 3895 4018 4019 0
4020 -2925 0
4020 -4017 0
4020 -3895 0
4020 -4018 0
4020 -4019 0
4021 -4022 -4022 0
-4021 4022 0
-4021 4022 0
-4023 4024 4021 0
4023 -4024 0
4023 -4021 0
4025 -4022 -4026 0
-4025 4022 0
-4025 4026 0
-724 4027 4025 0
724 -4027 0
724 -4025 0
4028 -4022 -4029 0
-4028 4022 0
-4028 4029 0
-722 4030 4028 0
722 -4030 0
722 -4028 0
4031 -4032 -4029 0
-4031 4032 0
-4031 4029 0
-725 4033 4031 0
725 -4033 0
725 -4031 0
4034 -4026 -4032 0
-4034 4026 0
-4034 4032 0
-723 4035 4034 0
723 -4035 0
723 -4034 0
4036 -4026 -4026 0
-4036 4026 0
-4036 4026 0
-4037 4038 4036 0
4037 -4038 0
4037 -4036 0
4039 -2176 -2176 0
-4039 2176 0
-4039 2176 0
-4040 2183 4039 0
4040 -2183 0
4040 -4039 0
4041 -2176 -2188 0
-4041 2176 0
-4041 2188 0
-339 2190 4041 0
339 -2190 0
339 -4041 0
4042 -2176 -2194 0
-4042 2176 0
-4042 2194 0
-337 2197 4042 0
337 -2197 0
337 -4042 0
4043 -2199 -2194 0
-4043 2199 0
-4043 2194 0
-340 2204 4043 0
340 -2204 0
340 -4043 0
4044 -2188 -2199 0
-4044 2188 0
-4044 2199 0
-338 2209 4044 0
338 -2209 0
338 -4044 0
4045 -2188 -2188 0
-4045 2188 0
-4045 2188 0
-4046 2215 4045 0
4046 -2215 0
4046 -4045 0
4047 -3211 -3211 0
-4047 3211 0
-4047 3211 0
-4048 3191 4047 0
4048 -3191 0
4048 -4047 0
4049 -3211 -3219 0
-4049 3211 0
-4049 3219 0
-919 3195 4049 0
919 -3195 0
919 -4049 0
4050 -3211 -3214 0
-4050 3211 0
-4050 3214 0
-917 3202 4050 0
917 -3202 0
917 -4050 0
4051 -3209 -3214 0
-4051 3209 0
-4051 3214 0
-920 3204 4051 0
920 -3204 0
920 -4051 0
4052 -3219 -3209 0
-4052 3219 0
-4052 3209 0
-918 3198 4052 0
918 -3198 0
918 -4052 0
4053 -3219 -3219 0
-4053 3219 0
-4053 3219 0
-4054 3225 4053 0
4054 -3225 0
4054 -4053 0
4055 -2905 -2905 0
-4055 2905 0
-4055 2905 0
-4056 2891 4055 0
4056 -2891 0
4056 -4055 0
4057 -2905 -1377 0
-4057 2905 0
-4057 1377 0
-504 2894 4057 0
504 -2894 0
504 -4057 0
4058 -2905 -1375 0
-4058 2905 0
-4058 1375 0
-502 2899 4058 0
502 -2899 0
502 -4058 0
4059 -1374 -1375 0
-4059 1374 0
-4059 1375 0
-505 1371 4059 0
505 -1371 0
505 -4059 0
4060 -1377 -1374 0
-4060 1377 0
-4060 1374 0
-503 1368 4060 0
503 -1368 0
503 -4060 0
4061 -1377 -1377 0
-4061 1377 0
-4061 1377 0
-4062 1380 4061 0
4062 -1380 0
4062 -4061 0
4063 -2838 -2838 0
-4063 2838 0
-4063 2838 0
-4064 2845 4063 0
4064 -2845 0
4064 -4063 0
4065 -2838 -2850 0
-4065 2838 0
-4065 2850 0
-1199 2852 4065 0
1199 -2852 0
1199 -4065 0
4066 -2838 -2856 0
-4066 2838 0
-4066 2856 0
-1197 2859 4066 0
1197 -2859 0
1197 -4066 0
4067 -2861 -2856 0
-4067 2861 0
-4067 2856 0
-1200 2866 4067 0
1200 -2866 0
1200 -4067 0
4068 -2850 -2861 0
-4068 2850 0
-4068 2861 0
-1198 2871 4068 0
1198 -2871 0
1198 -4068 0
4069 -2850 -2850 0
-4069 2850 0
-4069 2850 0
-4070 2877 4069 0
4070 -2877 0
4070 -4069 0
4071 -4072 -4072 0
-4071 4072 0
-4071 4072 0
-4073 4074 4071 0
4073 -4074 0
4073 -4071 0
4075 -4072 -4076 0
-4075 4072 0
-4075 4076 0
-359 4077 4075 0
359 -4077 0
359 -4075 0
4078 -4072 -4079 0
-4078 4072 0
-4078 4079 0
-357 4080 4078 0
357 -4080 0
357 -4078 0
4081 -4082 -4079 0
-4081 4082 0
-4081 4079 0
-360 4083 4081 0
360 -4083 0
360 -4081 0
4084 -4076 -4082 0
-4084 4076 0
-4084 4082 0
-358 4085 4084 0
358 -4085 0
358 -4084 0
4086 -4076 -4076 0
-4086 4076 0
-4086 4076 0
-4087 4088 4086 0
4087 -4088 0
4087 -4086 0
4089 -3186 -3186 0
-4089 3186 0
-4089 3186 0
-4090 3193 4089 0
4090 -3193 0
4090 -4089 0
4091 -3186 -3198 0
-4091 3186 0
-4091 3198 0
-999 3200 4091 0
999 -3200 0
999 -4091 0
4092 -3186 -3204 0
-4092 3186 0
-4092 3204 0
-997 3207 4092 0
997 -3207 0
997 -4092 0
4093 -3209 -3204 0
-4093 3209 0
-4093 3204 0
-1000 3214 4093 0
1000 -3214 0
1000 -4093 0
4094 -3198 -3209 0
-4094 3198 0
-4094 3209 0
-998 3219 4094 0
998 -3219 0
998 -4094 0
4095 -3198 -3198 0
-4095 3198 0
-4095 3198 0
-4096 3225 4095 0
4096 -3225 0
4096 -4095 0
4097 -3943 -3943 0
-4097 3943 0
-4097 3943 0
-4098 3929 4097 0
4098 -3929 0
4098 -4097 0
4099 -3943 -1554 0
-4099 3943 0
-4099 1554 0
-1144 3932 4099 0
1144 -3932 0
1144 -4099 0
4100 -3943 -1552 0
-4100 3943 0
-4100 1552 0
-1142 3937 4100 0
1142 -3937 0
1142 -4100 0
4101 -1551 -1552 0
-4101 1551 0
-4101 1552 0
-1145 1548 4101 0
1145 -1548 0
1145 -4101 0
4102 -1554 -1551 0
-4102 1554 0
-4102 1551 0
-1143 1545 4102 0
1143 -1545 0
1143 -4102 0
4103 -1554 -1554 0
-4103 1554 0
-4103 1554 0
-4104 1557 4103 0
4104 -1557 0
4104 -4103 0
4105 -4106 -4106 0
-4105 4106 0
-4105 4106 0
-4107 4108 4105 0
4107 -4108 0
4107 -4105 0
4109 -4106 -2104 0
-4109 4106 0
-4109 2104 0
-914 4110 4109 0
914 -4110 0
914 -4109 0
4111 -4106 -2102 0
-4111 4106 0
-4111 2102 0
-912 4112 4111 0
912 -4112 0
912 -4111 0
4113 -2101 -2102 0
-4113 2101 0
-4113 2102 0
-915 2098 4113 0
915 -2098 0
915 -4113 0
4114 -2104 -2101 0
-4114 2104 0
-4114 2101 0
-913 2095 4114 0
913 -2095 0
913 -4114 0
4115 -2104 -2104 0
-4115 2104 0
-4115 2104 0
-4116 2107 4115 0
4116 -2107 0
4116 -4115 0
4117 -2235 -4118 0
-4117 2235 0
-4117 4118 0
4119 -4118 -4118 0
-4119 4118 0
-4119 4118 0
4120 -4118 -2235 0
-4120 4118 0
-4120 2235 0
4121 -2235 -2235 -4122 0
-4121 2235 0
-4121 2235 0
-4121 4122 0
-4123 2237 4117 4119 4120 4121 0
4123 -2237 0
4123 -4117 0
4123 -4119 0
4123 -4120 0
4123 -4121 0
4124 -2235 -4125 0
-4124 2235 0
-4124 4125 0
4126 -4118 -4125 0
-4126 4118 0
-4126 4125 0
4127 -4118 -2239 0
-4127 4118 0
-4127 2239 0
4128 -2235 -2239 -4122 0
-4128 2235 0
-4128 2239 0
-4128 4122 0
-669 2240 4124 4126 4127 4128 0
669 -2240 0
669 -4124 0
669 -4126 0
669 -4127 0
669 -4128 0
4129 -2235 -4130 0
-4129 2235 0
-4129 4130 0
4131 -4118 -2242 0
-4131 4118 0
-4131 2242 0
4132 -4118 -4130 0
-4132 4118 0
-4132 4130 0
4133 -2235 -2242 -4122 0
-4133 2235 0
-4133 2242 0
-4133 4122 0
-667 2243 4129 4131 4132 4133 0
667 -2243 0
667 -4129 0
667 -4131 0
667 -4132 0
667 -4133 0
4134 -2245 -4130 0
-4134 2245 0
-4134 4130 0
4135 -4136 -4130 0
-4135 4136 0
-4135 4130 0
4137 -4136 -2242 0
-4137 4136 0
-4137 2242 0
4138 -2245 -2242 -4122 0
-4138 2245 0
-4138 2242 0
-4138 4122 0
-670 2246 4134 4135 4137 4138 0
670 -2246 0
670 -4134 0
670 -4135 0
670 -4137 0
670 -4138 0
4139 -2239 -4136 0
-4139 2239 0
-4139 4136 0
4140 -4125 -2245 0
-4140 4125 0
-4140 2245 0
4141 -4125 -4136 0
-4141 4125 0
-4141 4136 0
4142 -2239 -2245 -4122 0
-4142 2239 0
-4142 2245 0
-4142 4122 0
-668 2248 4139 4140 4141 4142 0
668 -2248 0
668 -4139 0
668 -4140 0
668 -4141 0
668 -4142 0
4143 -2239 -4125 0
-4143 2239 0
-4143 4125 0
4144 -4125 -4125 0
-4144 4125 0
-4144 4125 0
4145 -4125 -2239 0
-4145 4125 0
-4145 2239 0
4146 -2239 -2239 -4122 0
-4146 2239 0
-4146 2239 0
-4146 4122 0
-4147 2251 4143 4144 4145 4146 0
4147 -2251 0
4147 -4143 0
4147 -4144 0
4147 -4145 0
4147 -4146 0
4148 -4149 -4150 0
-4148 4149 0
-4148 4150 0
4151 -4150 -4150 0
-4151 4150 0
-4151 4150 0
4152 -4150 -4149 0
-4152 4150 0
-4152 4149 0
4153 -4149 -4149 -3816 0
-4153 4149 0
-4153 4149 0
-4153 3816 0
-4154 4155 4148 4151 4152 4153 0
4154 -4155 0
4154 -4148 0
4154 -4151 0
4154 -4152 0
4154 -4153 0
4156 -4149 -3819 0
-4156 4149 0
-4156 3819 0
4157 -4150 -3819 0
-4157 4150 0
-4157 3819 0
4158 -4150 -3827 0
-4158 4150 0
-4158 3827 0
4159 -4149 -3827 -3816 0
-4159 4149 0
-4159 3827 0
-4159 3816 0
-124 4160 4156 4157 4158 4159 0
124 -4160 0
124 -4156 0
124 -4157 0
124 -4158 0
124 -4159 0
4161 -4149 -3822 0
-4161 4149 0
-4161 3822 0
4162 -4150 -3825 0
-4162 4150 0
-4162 3825 0
4163 -4150 -3822 0
-4163 4150 0
-4163 3822 0
4164 -4149 -3825 -3816 0
-4164 4149 0
-4164 3825 0
-4164 3816 0
-122 4165 4161 4162 4163 4164 0
122 -4165 0
122 -4161 0
122 -4162 0
122 -4163 0
122 -4164 0
4166 -3824 -3822 0
-4166 3824 0
-4166 3822 0
4167 -3814 -3822 0
-4167 3814 0
-4167 3822 0
4168 -3814 -3825 0
-4168 3814 0
-4168 3825 0
4169 -3824 -3825 -3816 0
-4169 3824 0
-4169 3825 0
-4169 3816 0
-125 3821 4166 4167 4168 4169 0
125 -3821 0
125 -4166 0
125 -4167 0
125 -4168 0
125 -4169 0
4170 -3827 -3814 0
-4170 3827 0
-4170 3814 0
4171 -3819 -3824 0
-4171 3819 0
-4171 3824 0
4172 -3819 -3814 0
-4172 3819 0
-4172 3814 0
4173 -3827 -3824 -3816 0
-4173 3827 0
-4173 3824 0
-4173 3816 0
-123 3818 4170 4171 4172 4173 0
123 -3818 0
123 -4170 0
123 -4171 0
123 -4172 0
123 -4173 0
4174 -3827 -3819 0
-4174 3827 0
-4174 3819 0
4175 -3819 -3819 0
-4175 3819 0
-4175 3819 0
4176 -3819 -3827 0
-4176 3819 0
-4176 3827 0
4177 -3827 -3827 -3816 0
-4177 3827 0
-4177 3827 0
-4177 3816 0
-4178 3830 4174 4175 4176 4177 0
4178 -3830 0
4178 -4174 0
4178 -4175 0
4178 -4176 0
4178 -4177 0
4179 -3677 -4180 0
-4179 3677 0
-4179 4180 0
4181 -4180 -4180 0
-4181 4180 0
-4181 4180 0
4182 -4180 -3677 0
-4182 4180 0
-4182 3677 0
4183 -3677 -3677 -4184 0
-4183 3677 0
-4183 3677 0
-4183 4184 0
-4185 3679 4179 4181 4182 4183 0
4185 -3679 0
4185 -4179 0
4185 -4181 0
4185 -4182 0
4185 -4183 0
4186 -3677 -4187 0
-4186 3677 0
-4186 4187 0
4188 -4180 -4187 0
-4188 4180 0
-4188 4187 0
4189 -4180 -3681 0
-4189 4180 0
-4189 3681 0
4190 -3677 -3681 -4184 0
-4190 3677 0
-4190 3681 0
-4190 4184 0
-244 3682 4186 4188 4189 4190 0
244 -3682 0
244 -4186 0
244 -4188 0
244 -4189 0
244 -4190 0
4191 -3677 -4192 0
-4191 3677 0
-4191 4192 0
4193 -4180 -3684 0
-4193 4180 0
-4193 3684 0
4194 -4180 -4192 0
-4194 4180 0
-4194 4192 0
4195 -3677 -3684 -4184 0
-4195 3677 0
-4195 3684 0
-4195 4184 0
-242 3685 4191 4193 4194 4195 0
242 -3685 0
242 -4191 0
242 -4193 0
242 -4194 0
242 -4195 0
4196 -3687 -4192 0
-4196 3687 0
-4196 4192 0
4197 -4198 -4192 0
-4197 4198 0
-4197 4192 0
4199 -4198 -3684 0
-4199 4198 0
-4199 3684 0
4200 -3687 -3684 -4184 0
-4200 3687 0
-4200 3684 0
-4200 4184 0
-245 3688 4196 4197 4199 4200 0
245 -3688 0
245 -4196 0
245 -4197 0
245 -4199 0
245 -4200 0
4201 -3681 -4198 0
-4201 3681 0
-4201 4198 0
4202 -4187 -3687 0
-4202 4187 0
-4202 3687 0
4203 -4187 -4198 0
-4203 4187 0
-4203 4198 0
4204 -3681 -3687 -4184 0
-4204 3681 0
-4204 3687 0
-4204 4184 0
-243 3690 4201 4202 4203 4204 0
243 -3690 0
243 -4201 0
243 -4202 0
243 -4203 0
243 -4204 0
4205 -3681 -4187 0
-4205 3681 0
-4205 4187 0
4206 -4187 -4187 0
-4206 4187 0
-4206 4187 0
4207 -4187 -3681 0
-4207 4187 0
-4207 3681 0
4208 -3681 -3681 -4184 0
-4208 3681 0
-4208 3681 0
-4208 4184 0
-4209 3693 4205 4206 4207 4208 0
4209 -3693 0
4209 -4205 0
4209 -4206 0
4209 -4207 0
4209 -4208 0
4210 -4211 -4212 0
-4210 4211 0
-4210 4212 0
4213 -4212 -4212 0
-4213 4212 0
-4213 4212 0
4214 -4212 -4211 0
-4214 4212 0
-4214 4211 0
4215 -4211 -4211 -4216 0
-4215 4211 0
-4215 4211 0
-4215 4216 0
-4217 4218 4210 4213 4214 4215 0
4217 -4218 0
4217 -4210 0
4217 -4213 0
4217 -4214 0
4217 -4215 0
4219 -4211 -4220 0
-4219 4211 0
-4219 4220 0
4221 -4212 -4220 0
-4221 4212 0
-4221 4220 0
4222 -4212 -4223 0
-4222 4212 0
-4222 4223 0
4224 -4211 -4223 -4216 0
-4224 4211 0
-4224 4223 0
-4224 4216 0
-824 4225 4219 4221 4222 4224 0
824 -4225 0
824 -4219 0
824 -4221 0
824 -4222 0
824 -4224 0
4226 -4211 -4227 0
-4226 4211 0
-4226 4227 0
4228 -4212 -4229 0
-4228 4212 0
-4228 4229 0
4230 -4212 -4227 0
-4230 4212 0
-4230 4227 0
4231 -4211 -4229 -4216 0
-4231 4211 0
-4231 4229 0
-4231 4216 0
-822 4232 4226 4228 4230 4231 0
822 -4232 0
822 -4226 0
822 -4228 0
822 -4230 0
822 -4231 0
4233 -4234 -4227 0
-4233 4234 0
-4233 4227 0
4235 -4236 -4227 0
-4235 4236 0
-4235 4227 0
4237 -4236 -4229 0
-4237 4236 0
-4237 4229 0
4238 -4234 -4229 -4216 0
-4238 4234 0
-4238 4229 0
-4238 4216 0
-825 4239 4233 4235 4237 4238 0
825 -4239 0
825 -4233 0
825 -4235 0
825 -4237 0
825 -4238 0
4240 -4223 -4236 0
-4240 4223 0
-4240 4236 0
4241 -4220 -4234 0
-4241 4220 0
-4241 4234 0
4242 -4220 -4236 0
-4242 4220 0
-4242 4236 0
4243 -4223 -4234 -4216 0
-4243 4223 0
-4243 4234 0
-4243 4216 0
-823 4244 4240 4241 4242 4243 0
823 -4244 0
823 -4240 0
823 -4241 0
823 -4242 0
823 -4243 0
4245 -4223 -4220 0
-4245 4223 0
-4245 4220 0
4246 -4220 -4220 0
-4246 4220 0
-4246 4220 0
4247 -4220 -4223 0
-4247 4220 0
-4247 4223 0
4248 -4223 -4223 -4216 0
-4248 4223 0
-4248 4223 0
-4248 4216 0
-4249 4250 4245 4246 4247 4248 0
4249 -4250 0
4249 -4245 0
4249 -4246 0
4249 -4247 0
4249 -4248 0
4251 -2217 -4252 0
-4251 2217 0
-4251 4252 0
4253 -4252 -4252 0
-4253 4252 0
-4253 4252 0
4254 -4252 -2217 0
-4254 4252 0
-4254 2217 0
4255 -2217 -2217 -4256 0
-4255 2217 0
-4255 2217 0
-4255 4256 0
-4257 2219 4251 4253 4254 4255 0
4257 -2219 0
4257 -4251 0
4257 -4253 0
4257 -4254 0
4257 -4255 0
4258 -2217 -4259 0
-4258 2217 0
-4258 4259 0
4260 -4252 -4259 0
-4260 4252 0
-4260 4259 0
4261 -4252 -2221 0
-4261 4252 0
-4261 2221 0
4262 -2217 -2221 -4256 0
-4262 2217 0
-4262 2221 0
-4262 4256 0
-374 2222 4258 4260 4261 4262 0
374 -2222 0
374 -4258 0
374 -4260 0
374 -4261 0
374 -4262 0
4263 -2217 -4264 0
-4263 2217 0
-4263 4264 0
4265 -4252 -2224 0
-4265 4252 0
-4265 2224 0
4266 -4252 -4264 0
-4266 4252 0
-4266 4264 0
4267 -2217 -2224 -4256 0
-4267 2217 0
-4267 2224 0
-4267 4256 0
-372 2225 4263 4265 4266 4267 0
372 -2225 0
372 -4263 0
372 -4265 0
372 -4266 0
372 -4267 0
4268 -2227 -4264 0
-4268 2227 0
-4268 4264 0
4269 -4270 -4264 0
-4269 4270 0
-4269 4264 0
4271 -4270 -2224 0
-4271 4270 0
-4271 2224 0
4272 -2227 -2224 -4256 0
-4272 2227 0
-4272 2224 0
-4272 4256 0
-375 2228 4268 4269 4271 4272 0
375 -2228 0
375 -4268 0
375 -4269 0
375 -4271 0
375 -4272 0
4273 -2221 -4270 0
-4273 2221 0
-4273 4270 0
4274 -4259 -2227 0
-4274 4259 0
-4274 2227 0
4275 -4259 -4270 0
-4275 4259 0
-4275 4270 0
4276 -2221 -2227 -4256 0
-4276 2221 0
-4276 2227 0
-4276 4256 0
-373 2230 4273 4274 4275 4276 0
373 -2230 0
373 -4273 0
373 -4274 0
373 -4275 0
373 -4276 0
4277 -2221 -4259 0
-4277 2221 0
-4277 4259 0
4278 -4259 -4259 0
-4278 4259 0
-4278 4259 0
4279 -4259 -2221 0
-4279 4259 0
-4279 2221 0
4280 -2221 -2221 -4256 0
-4280 2221 0
-4280 2221 0
-4280 4256 0
-4281 2233 4277 4278 4279 4280 0
4281 -2233 0
4281 -4277 0
4281 -4278 0
4281 -4279 0
4281 -4280 0
4282 -2355 -2355 0
-4282 2355 0
-4282 2355 0
-4283 2362 4282 0
4283 -2362 0
4283 -4282 0
4284 -2355 -2367 0
-4284 2355 0
-4284 2367 0
-1054 2369 4284 0
1054 -2369 0
1054 -4284 0
4285 -2355 -2373 0
-4285 2355 0
-4285 2373 0
-1052 2376 4285 0
1052 -2376 0
1052 -4285 0
4286 -2378 -2373 0
-4286 2378 0
-4286 2373 0
-1055 2383 4286 0
1055 -2383 0
1055 -4286 0
4287 -2367 -2378 0
-4287 2367 0
-4287 2378 0
-1053 2388 4287 0
1053 -2388 0
1053 -4287 0
4288 -2367 -2367 0
-4288 2367 0
-4288 2367 0
-4289 2394 4288 0
4289 -2394 0
4289 -4288 0
4290 -1459 -1459 0
-4290 1459 0
-4290 1459 0
-4291 1466 4290 0
4291 -1466 0
4291 -4290 0
4292 -1459 -1471 0
-4292 1459 0
-4292 1471 0
-754 1473 4292 0
754 -1473 0
754 -4292 0
4293 -1459 -1477 0
-4293 1459 0
-4293 1477 0
-752 1480 4293 0
752 -1480 0
752 -4293 0
4294 -1482 -1477 0
-4294 1482 0
-4294 1477 0
-755 1487 4294 0
755 -1487 0
755 -4294 0
4295 -1471 -1482 0
-4295 1471 0
-4295 1482 0
-753 1492 4295 0
753 -1492 0
753 -4295 0
4296 -1471 -1471 0
-4296 1471 0
-4296 1471 0
-4297 1498 4296 0
4297 -1498 0
4297 -4296 0
4298 -1618 -1618 0
-4298 1618 0
-4298 1618 0
-4299 1625 4298 0
4299 -1625 0
4299 -4298 0
4300 -1618 -1630 0
-4300 1618 0
-4300 1630 0
-299 1632 4300 0
299 -1632 0
299 -4300 0
4301 -1618 -1636 0
-4301 1618 0
-4301 1636 0
-297 1639 4301 0
297 -1639 0
297 -4301 0
4302 -1641 -1636 0
-4302 1641 0
-4302 1636 0
-300 1646 4302 0
300 -1646 0
300 -4302 0
4303 -1630 -1641 0
-4303 1630 0
-4303 1641 0
-298 1651 4303 0
298 -1651 0
298 -4303 0
4304 -1630 -1630 0
-4304 1630 0
-4304 1630 0
-4305 1657 4304 0
4305 -1657 0
4305 -4304 0
4306 -3659 -4307 0
-4306 3659 0
-4306 4307 0
4308 -4307 -4307 0
-4308 4307 0
-4308 4307 0
4309 -4307 -3659 0
-4309 4307 0
-4309 3659 0
4310 -3659 -3659 -4311 0
-4310 3659 0
-4310 3659 0
-4310 4311 0
-4312 3661 4306 4308 4309 4310 0
4312 -3661 0
4312 -4306 0
4312 -4308 0
4312 -4309 0
4312 -4310 0
4313 -3659 -4314 0
-4313 3659 0
-4313 4314 0
4315 -4307 -4314 0
-4315 4307 0
-4315 4314 0
4316 -4307 -3663 0
-4316 4307 0
-4316 3663 0
4317 -3659 -3663 -4311 0
-4317 3659 0
-4317 3663 0
-4317 4311 0
-349 3664 4313 4315 4316 4317 0
349 -3664 0
349 -4313 0
349 -4315 0
349 -4316 0
349 -4317 0
4318 -3659 -4319 0
-4318 3659 0
-4318 4319 0
4320 -4307 -3666 0
-4320 4307 0
-4320 3666 0
4321 -4307 -4319 0
-4321 4307 0
-4321 4319 0
4322 -3659 -3666 -4311 0
-4322 3659 0
-4322 3666 0
-4322 4311 0
-347 3667 4318 4320 4321 4322 0
347 -3667 0
347 -4318 0
347 -4320 0
347 -4321 0
347 -4322 0
4323 -3669 -4319 0
-4323 3669 0
-4323 4319 0
4324 -4325 -4319 0
-4324 4325 0
-4324 4319 0
4326 -4325 -3666 0
-4326 4325 0
-4326 3666 0
4327 -3669 -3666 -4311 0
-4327 3669 0
-4327 3666 0
-4327 4311 0
-350 3670 4323 4324 4326 4327 0
350 -3670 0
350 -4323 0
350 -4324 0
350 -4326 0
350 -4327 0
4328 -3663 -4325 0
-4328 3663 0
-4328 4325 0
4329 -4314 -3669 0
-4329 4314 0
-4329 3669 0
4330 -4314 -4325 0
-4330 4314 0
-4330 4325 0
4331 -3663 -3669 -4311 0
-4331 3663 0
-4331 3669 0
-4331 4311 0
-348 3672 4328 4329 4330 4331 0
348 -3672 0
348 -4328 0
348 -4329 0
348 -4330 0
348 -4331 0
4332 -3663 -4314 0
-4332 3663 0
-4332 4314 0
4333 -4314 -4314 0
-4333 4314 0
-4333 4314 0
4334 -4314 -3663 0
-4334 4314 0
-4334 3663 0
4335 -3663 -3663 -4311 0
-4335 3663 0
-4335 3663 0
-4335 4311 0
-4336 3675 4332 4333 4334 4335 0
4336 -3675 0
4336 -4332 0
4336 -4333 0
4336 -4334 0
4336 -4335 0
4337 -2562 -2562 0
-4337 2562 0
-4337 2562 0
-4338 2569 4337 0
4338 -2569 0
4338 -4337 0
4339 -2562 -2574 0
-4339 2562 0
-4339 2574 0
-534 2576 4339 0
534 -2576 0
534 -4339 0
4340 -2562 -2580 0
-4340 2562 0
-4340 2580 0
-532 2583 4340 0
532 -2583 0
532 -4340 0
4341 -2585 -2580 0
-4341 2585 0
-4341 2580 0
-535 2590 4341 0
535 -2590 0
535 -4341 0
4342 -2574 -2585 0
-4342 2574 0
-4342 2585 0
-533 2595 4342 0
533 -2595 0
533 -4342 0
4343 -2574 -2574 0
-4343 2574 0
-4343 2574 0
-4344 2601 4343 0
4344 -2601 0
4344 -4343 0
4345 -1903 -1903 0
-4345 1903 0
-4345 1903 0
-4346 1897 4345 0
4346 -1897 0
4346 -4345 0
4347 -1903 -3511 0
-4347 1903 0
-4347 3511 0
-99 3499 4347 0
99 -3499 0
99 -4347 0
4348 -1903 -1902 0
-4348 1903 0
-4348 1902 0
-97 1895 4348 0
97 -1895 0
97 -4348 0
4349 -1906 -1902 0
-4349 1906 0
-4349 1902 0
-100 1905 4349 0
100 -1905 0
100 -4349 0
4350 -3511 -1906 0
-4350 3511 0
-4350 1906 0
-98 3517 4350 0
98 -3517 0
98 -4350 0
4351 -3511 -3511 0
-4351 3511 0
-4351 3511 0
-4352 3503 4351 0
4352 -3503 0
4352 -4351 0
4353 -1784 -1760 0
-4353 1784 0
-4353 1760 0
1761 -1760 -1760 0
-1761 1760 0
-1761 1760 0
4354 -1760 -1784 0
-4354 1760 0
-4354 1784 0
4355 -1784 -1784 -1766 0
-4355 1784 0
-4355 1784 0
-4355 1766 0
-4356 1764 4353 1761 4354 4355 0
4356 -1764 0
4356 -4353 0
4356 -1761 0
4356 -4354 0
4356 -4355 0
4357 -1784 -1773 0
-4357 1784 0
-4357 1773 0
4358 -1760 -1773 0
-4358 1760 0
-4358 1773 0
4359 -1760 -1792 0
-4359 1760 0
-4359 1792 0
4360 -1784 -1792 -1766 0
-4360 1784 0
-4360 1792 0
-4360 1766 0
-24 1768 4357 4358 4359 4360 0
24 -1768 0
24 -4357 0
24 -4358 0
24 -4359 0
24 -4360 0
4361 -1784 -1780 0
-4361 1784 0
-4361 1780 0
4362 -1760 -1787 0
-4362 1760 0
-4362 1787 0
4363 -1760 -1780 0
-4363 1760 0
-4363 1780 0
4364 -1784 -1787 -1766 0
-4364 1784 0
-4364 1787 0
-4364 1766 0
-22 1775 4361 4362 4363 4364 0
22 -1775 0
22 -4361 0
22 -4362 0
22 -4363 0
22 -4364 0
4365 -1782 -1780 0
-4365 1782 0
-4365 1780 0
4366 -1759 -1780 0
-4366 1759 0
-4366 1780 0
4367 -1759 -1787 0
-4367 1759 0
-4367 1787 0
4368 -1782 -1787 -1766 0
-4368 1782 0
-4368 1787 0
-4368 1766 0
-25 1777 4365 4366 4367 4368 0
25 -1777 0
25 -4365 0
25 -4366 0
25 -4367 0
25 -4368 0
4369 -1792 -1759 0
-4369 1792 0
-4369 1759 0
4370 -1773 -1782 0
-4370 1773 0
-4370 1782 0
4371 -1773 -1759 0
-4371 1773 0
-4371 1759 0
4372 -1792 -1782 -1766 0
-4372 1792 0
-4372 1782 0
-4372 1766 0
-23 1771 4369 4370 4371 4372 0
23 -1771 0
23 -4369 0
23 -4370 0
23 -4371 0
23 -4372 0
4373 -1792 -1773 0
-4373 1792 0
-4373 1773 0
4374 -1773 -1773 0
-4374 1773 0
-4374 1773 0
4375 -1773 -1792 0
-4375 1773 0
-4375 1792 0
4376 -1792 -1792 -1766 0
-4376 1792 0
-4376 1792 0
-4376 1766 0
-4377 1798 4373 4374 4375 4376 0
4377 -1798 0
4377 -4373 0
4377 -4374 0
4377 -4375 0
4377 -4376 0
4378 -3775 -3775 0
-4378 3775 0
-4378 3775 0
-4379 3771 4378 0
4379 -3771 0
4379 -4378 0
4380 -3775 -1395 0
-4380 3775 0
-4380 1395 0
-409 4381 4380 0
409 -4381 0
409 -4380 0
4382 -3775 -1393 0
-4382 3775 0
-4382 1393 0
-407 3769 4382 0
407 -3769 0
407 -4382 0
4383 -1392 -1393 0
-4383 1392 0
-4383 1393 0
-410 1389 4383 0
410 -1389 0
410 -4383 0
4384 -1395 -1392 0
-4384 1395 0
-4384 1392 0
-408 1386 4384 0
408 -1386 0
408 -4384 0
4385 -1395 -1395 0
-4385 1395 0
-4385 1395 0
-4386 1398 4385 0
4386 -1398 0
4386 -4385 0
4387 -1980 -4388 0
-4387 1980 0
-4387 4388 0
4389 -4388 -4388 0
-4389 4388 0
-4389 4388 0
4390 -4388 -1980 0
-4390 4388 0
-4390 1980 0
4391 -1980 -1980 -4392 0
-4391 1980 0
-4391 1980 0
-4391 4392 0
-4393 1982 4387 4389 4390 4391 0
4393 -1982 0
4393 -4387 0
4393 -4389 0
4393 -4390 0
4393 -4391 0
4394 -1980 -4395 0
-4394 1980 0
-4394 4395 0
4396 -4388 -4395 0
-4396 4388 0
-4396 4395 0
4397 -4388 -1984 0
-4397 4388 0
-4397 1984 0
4398 -1980 -1984 -4392 0
-4398 1980 0
-4398 1984 0
-4398 4392 0
-54 1985 4394 4396 4397 4398 0
54 -1985 0
54 -4394 0
54 -4396 0
54 -4397 0
54 -4398 0
4399 -1980 -4400 0
-4399 1980 0
-4399 4400 0
4401 -4388 -1987 0
-4401 4388 0
-4401 1987 0
4402 -4388 -4400 0
-4402 4388 0
-4402 4400 0
4403 -1980 -1987 -4392 0
-4403 1980 0
-4403 1987 0
-4403 4392 0
-52 1988 4399 4401 4402 4403 0
52 -1988 0
52 -4399 0
52 -4401 0
52 -4402 0
52 -4403 0
4404 -1990 -4400 0
-4404 1990 0
-4404 4400 0
4405 -4406 -4400 0
-4405 4406 0
-4405 4400 0
4407 -4406 -1987 0
-4407 4406 0
-4407 1987 0
4408 -1990 -1987 -4392 0
-4408 1990 0
-4408 1987 0
-4408 4392 0
-55 1991 4404 4405 4407 4408 0
55 -1991 0
55 -4404 0
55 -4405 0
55 -4407 0
55 -4408 0
4409 -1984 -4406 0
-4409 1984 0
-4409 4406 0
4410 -4395 -1990 0
-4410 4395 0
-4410 1990 0
4411 -4395 -4406 0
-4411 4395 0
-4411 4406 0
4412 -1984 -1990 -4392 0
-4412 1984 0
-4412 1990 0
-4412 4392 0
-53 1993 4409 4410 4411 4412 0
53 -1993 0
53 -4409 0
53 -4410 0
53 -4411 0
53 -4412 0
4413 -1984 -4395 0
-4413 1984 0
-4413 4395 0
4414 -4395 -4395 0
-4414 4395 0
-4414 4395 0
4415 -4395 -1984 0
-4415 4395 0
-4415 1984 0
4416 -1984 -1984 -4392 0
-4416 1984 0
-4416 1984 0
-4416 4392 0
-4417 1996 4413 4414 4415 4416 0
4417 -1996 0
4417 -4413 0
4417 -4414 0
4417 -4415 0
4417 -4416 0
4418 -4072 -4419 0
-4418 4072 0
-4418 4419 0
4420 -4419 -4419 0
-4420 4419 0
-4420 4419 0
4421 -4419 -4072 0
-4421 4419 0
-4421 4072 0
4422 -4072 -4072 -4423 0
-4422 4072 0
-4422 4072 0
-4422 4423 0
-4424 4074 4418 4420 4421 4422 0
4424 -4074 0
4424 -4418 0
4424 -4420 0
4424 -4421 0
4424 -4422 0
4425 -4072 -4426 0
-4425 4072 0
-4425 4426 0
4427 -4419 -4426 0
-4427 4419 0
-4427 4426 0
4428 -4419 -4076 0
-4428 4419 0
-4428 4076 0
4429 -4072 -4076 -4423 0
-4429 4072 0
-4429 4076 0
-4429 4423 0
-74 4077 4425 4427 4428 4429 0
74 -4077 0
74 -4425 0
74 -4427 0
74 -4428 0
74 -4429 0
4430 -4072 -4431 0
-4430 4072 0
-4430 4431 0
4432 -4419 -4079 0
-4432 4419 0
-4432 4079 0
4433 -4419 -4431 0
-4433 4419 0
-4433 4431 0
4434 -4072 -4079 -4423 0
-4434 4072 0
-4434 4079 0
-4434 4423 0
-72 4080 4430 4432 4433 4434 0
72 -4080 0
72 -4430 0
72 -4432 0
72 -4433 0
72 -4434 0
4435 -4082 -4431 0
-4435 4082 0
-4435 4431 0
4436 -4437 -4431 0
-4436 4437 0
-4436 4431 0
4438 -4437 -4079 0
-4438 4437 0
-4438 4079 0
4439 -4082 -4079 -4423 0
-4439 4082 0
-4439 4079 0
-4439 4423 0
-75 4083 4435 4436 4438 4439 0
75 -4083 0
75 -4435 0
75 -4436 0
75 -4438 0
75 -4439 0
4440 -4076 -4437 0
-4440 4076 0
-4440 4437 0
4441 -4426 -4082 0
-4441 4426 0
-4441 4082 0
4442 -4426 -4437 0
-4442 4426 0
-4442 4437 0
4443 -4076 -4082 -4423 0
-4443 4076 0
-4443 4082 0
-4443 4423 0
-73 4085 4440 4441 4442 4443 0
73 -4085 0
73 -4440 0
73 -4441 0
73 -4442 0
73 -4443 0
4444 -4076 -4426 0
-4444 4076 0
-4444 4426 0
4445 -4426 -4426 0
-4445 4426 0
-4445 4426 0
4446 -4426 -4076 0
-4446 4426 0
-4446 4076 0
4447 -4076 -4076 -4423 0
-4447 4076 0
-4447 4076 0
-4447 4423 0
-4448 4088 4444 4445 4446 4447 0
4448 -4088 0
4448 -4444 0
4448 -4445 0
4448 -4446 0
4448 -4447 0
4449 -4106 -4450 0
-4449 4106 0
-4449 4450 0
4451 -4450 -4450 0
-4451 4450 0
-4451 4450 0
4452 -4450 -4106 0
-4452 4450 0
-4452 4106 0
4453 -4106 -4106 -2093 0
-4453 4106 0
-4453 4106 0
-4453 2093 0
-4454 4108 4449 4451 4452 4453 0
4454 -4108 0
4454 -4449 0
4454 -4451 0
4454 -4452 0
4454 -4453 0
4455 -4106 -2096 0
-4455 4106 0
-4455 2096 0
4456 -4450 -2096 0
-4456 4450 0
-4456 2096 0
4457 -4450 -2104 0
-4457 4450 0
-4457 2104 0
4458 -4106 -2104 -2093 0
-4458 4106 0
-4458 2104 0
-4458 2093 0
-519 4110 4455 4456 4457 4458 0
519 -4110 0
519 -4455 0
519 -4456 0
519 -4457 0
519 -4458 0
4459 -4106 -2099 0
-4459 4106 0
-4459 2099 0
4460 -4450 -2102 0
-4460 4450 0
-4460 2102 0
4461 -4450 -2099 0
-4461 4450 0
-4461 2099 0
4462 -4106 -2102 -2093 0
-4462 4106 0
-4462 2102 0
-4462 2093 0
-517 4112 4459 4460 4461 4462 0
517 -4112 0
517 -4459 0
517 -4460 0
517 -4461 0
517 -4462 0
4463 -2101 -2099 0
-4463 2101 0
-4463 2099 0
4464 -2091 -2099 0
-4464 2091 0
-4464 2099 0
4465 -2091 -2102 0
-4465 2091 0
-4465 2102 0
4466 -2101 -2102 -2093 0
-4466 2101 0
-4466 2102 0
-4466 2093 0
-520 2098 4463 4464 4465 4466 0
520 -2098 0
520 -4463 0
520 -4464 0
520 -4465 0
520 -4466 0
4467 -2104 -2091 0
-4467 2104 0
-4467 2091 0
4468 -2096 -2101 0
-4468 2096 0
-4468 2101 0
4469 -2096 -2091 0
-4469 2096 0
-4469 2091 0
4470 -2104 -2101 -2093 0
-4470 2104 0
-4470 2101 0
-4470 2093 0
-518 2095 4467 4468 4469 4470 0
518 -2095 0
518 -4467 0
518 -4468 0
518 -4469 0
518 -4470 0
4471 -2104 -2096 0
-4471 2104 0
-4471 2096 0
4472 -2096 -2096 0
-4472 2096 0
-4472 2096 0
4473 -2096 -2104 0
-4473 2096 0
-4473 2104 0
4474 -2104 -2104 -2093 0
-4474 2104 0
-4474 2104 0
-4474 2093 0
-4475 2107 4471 4472 4473 4474 0
4475 -2107 0
4475 -4471 0
4475 -4472 0
4475 -4473 0
4475 -4474 0
4476 -3569 -3569 0
-4476 3569 0
-4476 3569 0
-4477 3576 4476 0
4477 -3576 0
4477 -4476 0
4478 -3569 -3581 0
-4478 3569 0
-4478 3581 0
-834 3583 4478 0
834 -3583 0
834 -4478 0
4479 -3569 -3587 0
-4479 3569 0
-4479 3587 0
-832 3590 4479 0
832 -3590 0
832 -4479 0
4480 -3592 -3587 0
-4480 3592 0
-4480 3587 0
-835 3597 4480 0
835 -3597 0
835 -4480 0
4481 -3581 -3592 0
-4481 3581 0
-4481 3592 0
-833 3602 4481 0
833 -3602 0
833 -4481 0
4482 -3581 -3581 0
-4482 3581 0
-4482 3581 0
-4483 3608 4482 0
4483 -3608 0
4483 -4482 0
4484 -3775 -3773 0
-4484 3775 0
-4484 3773 0
4485 -3773 -3773 0
-4485 3773 0
-4485 3773 0
4486 -3773 -3775 0
-4486 3773 0
-4486 3775 0
4487 -3775 -3775 -1384 0
-4487 3775 0
-4487 3775 0
-4487 1384 0
-4488 3771 4484 4485 4486 4487 0
4488 -3771 0
4488 -4484 0
4488 -4485 0
4488 -4486 0
4488 -4487 0
4489 -3775 -1387 0
-4489 3775 0
-4489 1387 0
4490 -3773 -1387 0
-4490 3773 0
-4490 1387 0
4491 -3773 -1395 0
-4491 3773 0
-4491 1395 0
4492 -3775 -1395 -1384 0
-4492 3775 0
-4492 1395 0
-4492 1384 0
-104 4381 4489 4490 4491 4492 0
104 -4381 0
104 -4489 0
104 -4490 0
104 -4491 0
104 -4492 0
4493 -3775 -1390 0
-4493 3775 0
-4493 1390 0
4494 -3773 -1393 0
-4494 3773 0
-4494 1393 0
4495 -3773 -1390 0
-4495 3773 0
-4495 1390 0
4496 -3775 -1393 -1384 0
-4496 3775 0
-4496 1393 0
-4496 1384 0
-102 3769 4493 4494 4495 4496 0
102 -3769 0
102 -4493 0
102 -4494 0
102 -4495 0
102 -4496 0
4497 -1392 -1390 0
-4497 1392 0
-4497 1390 0
4498 -1382 -1390 0
-4498 1382 0
-4498 1390 0
4499 -1382 -1393 0
-4499 1382 0
-4499 1393 0
4500 -1392 -1393 -1384 0
-4500 1392 0
-4500 1393 0
-4500 1384 0
-105 1389 4497 4498 4499 4500 0
105 -1389 0
105 -4497 0
105 -4498 0
105 -4499 0
105 -4500 0
4501 -1395 -1382 0
-4501 1395 0
-4501 1382 0
4502 -1387 -1392 0
-4502 1387 0
-4502 1392 0
4503 -1387 -1382 0
-4503 1387 0
-4503 1382 0
4504 -1395 -1392 -1384 0
-4504 1395 0
-4504 1392 0
-4504 1384 0
-103 1386 4501 4502 4503 4504 0
103 -1386 0
103 -4501 0
103 -4502 0
103 -4503 0
103 -4504 0
4505 -1395 -1387 0
-4505 1395 0
-4505 1387 0
4506 -1387 -1387 0
-4506 1387 0
-4506 1387 0
4507 -1387 -1395 0
-4507 1387 0
-4507 1395 0
4508 -1395 -1395 -1384 0
-4508 1395 0
-4508 1395 0
-4508 1384 0
-4509 1398 4505 4506 4507 4508 0
4509 -1398 0
4509 -4505 0
4509 -4506 0
4509 -4507 0
4509 -4508 0
4510 -2652 -4511 0
-4510 2652 0
-4510 4511 0
4512 -4511 -4511 0
-4512 4511 0
-4512 4511 0
4513 -4511 -2652 0
-4513 4511 0
-4513 2652 0
4514 -2652 -2652 -4515 0
-4514 2652 0
-4514 2652 0
-4514 4515 0
-4516 2654 4510 4512 4513 4514 0
4516 -2654 0
4516 -4510 0
4516 -4512 0
4516 -4513 0
4516 -4514 0
4517 -2652 -4518 0
-4517 2652 0
-4517 4518 0
4519 -4511 -4518 0
-4519 4511 0
-4519 4518 0
4520 -4511 -2656 0
-4520 4511 0
-4520 2656 0
4521 -2652 -2656 -4515 0
-4521 2652 0
-4521 2656 0
-4521 4515 0
-1104 2657 4517 4519 4520 4521 0
1104 -2657 0
1104 -4517 0
1104 -4519 0
1104 -4520 0
1104 -4521 0
4522 -2652 -4523 0
-4522 2652 0
-4522 4523 0
4524 -4511 -2659 0
-4524 4511 0
-4524 2659 0
4525 -4511 -4523 0
-4525 4511 0
-4525 4523 0
4526 -2652 -2659 -4515 0
-4526 2652 0
-4526 2659 0
-4526 4515 0
-1102 2660 4522 4524 4525 4526 0
1102 -2660 0
1102 -4522 0
1102 -4524 0
1102 -4525 0
1102 -4526 0
4527 -2662 -4523 0
-4527 2662 0
-4527 4523 0
4528 -4529 -4523 0
-4528 4529 0
-4528 4523 0
4530 -4529 -2659 0
-4530 4529 0
-4530 2659 0
4531 -2662 -2659 -4515 0
-4531 2662 0
-4531 2659 0
-4531 4515 0
-1105 2663 4527 4528 4530 4531 0
1105 -2663 0
1105 -4527 0
1105 -4528 0
1105 -4530 0
1105 -4531 0
4532 -2656 -4529 0
-4532 2656 0
-4532 4529 0
4533 -4518 -2662 0
-4533 4518 0
-4533 2662 0
4534 -4518 -4529 0
-4534 4518 0
-4534 4529 0
4535 -2656 -2662 -4515 0
-4535 2656 0
-4535 2662 0
-4535 4515 0
-1103 2665 4532 4533 4534 4535 0
1103 -2665 0
1103 -4532 0
1103 -4533 0
1103 -4534 0
1103 -4535 0
4536 -2656 -4518 0
-4536 2656 0
-4536 4518 0
4537 -4518 -4518 0
-4537 4518 0
-4537 4518 0
4538 -4518 -2656 0
-4538 4518 0
-4538 2656 0
4539 -2656 -2656 -4515 0
-4539 2656 0
-4539 2656 0
-4539 4515 0
-4540 2668 4536 4537 4538 4539 0
4540 -2668 0
4540 -4536 0
4540 -4537 0
4540 -4538 0
4540 -4539 0
4541 -3556 -3556 0
-4541 3556 0
-4541 3556 0
-4542 3542 4541 0
4542 -3542 0
4542 -4541 0
4543 -3556 -2409 0
-4543 3556 0
-4543 2409 0
-979 3545 4543 0
979 -3545 0
979 -4543 0
4544 -3556 -2407 0
-4544 3556 0
-4544 2407 0
-977 3550 4544 0
977 -3550 0
977 -4544 0
4545 -2406 -2407 0
-4545 2406 0
-4545 2407 0
-980 2403 4545 0
980 -2403 0
980 -4545 0
4546 -2409 -2406 0
-4546 2409 0
-4546 2406 0
-978 2400 4546 0
978 -2400 0
978 -4546 0
4547 -2409 -2409 0
-4547 2409 0
-4547 2409 0
-4548 2412 4547 0
4548 -2412 0
4548 -4547 0
4549 -1659 -1659 0
-4549 1659 0
-4549 1659 0
-4550 1666 4549 0
4550 -1666 0
4550 -4549 0
4551 -1659 -1671 0
-4551 1659 0
-4551 1671 0
-219 1673 4551 0
219 -1673 0
219 -4551 0
4552 -1659 -1677 0
-4552 1659 0
-4552 1677 0
-217 1680 4552 0
217 -1680 0
217 -4552 0
4553 -1682 -1677 0
-4553 1682 0
-4553 1677 0
-220 1687 4553 0
220 -1687 0
220 -4553 0
4554 -1671 -1682 0
-4554 1671 0
-4554 1682 0
-218 1692 4554 0
218 -1692 0
218 -4554 0
4555 -1671 -1671 0
-4555 1671 0
-4555 1671 0
-4556 1698 4555 0
4556 -1698 0
4556 -4555 0
4557 -2034 -4558 0
-4557 2034 0
-4557 4558 0
4559 -4558 -4558 0
-4559 4558 0
-4559 4558 0
4560 -4558 -2034 0
-4560 4558 0
-4560 2034 0
4561 -2034 -2034 -4562 0
-4561 2034 0
-4561 2034 0
-4561 4562 0
-4563 2036 4557 4559 4560 4561 0
4563 -2036 0
4563 -4557 0
4563 -4559 0
4563 -4560 0
4563 -4561 0
4564 -2034 -4565 0
-4564 2034 0
-4564 4565 0
4566 -4558 -4565 0
-4566 4558 0
-4566 4565 0
4567 -4558 -2038 0
-4567 4558 0
-4567 2038 0
4568 -2034 -2038 -4562 0
-4568 2034 0
-4568 2038 0
-4568 4562 0
-479 2039 4564 4566 4567 4568 0
479 -2039 0
479 -4564 0
479 -4566 0
479 -4567 0
479 -4568 0
4569 -2034 -4570 0
-4569 2034 0
-4569 4570 0
4571 -4558 -2041 0
-4571 4558 0
-4571 2041 0
4572 -4558 -4570 0
-4572 4558 0
-4572 4570 0
4573 -2034 -2041 -4562 0
-4573 2034 0
-4573 2041 0
-4573 4562 0
-477 2042 4569 4571 4572 4573 0
477 -2042 0
477 -4569 0
477 -4571 0
477 -4572 0
477 -4573 0
4574 -2044 -4570 0
-4574 2044 0
-4574 4570 0
4575 -4576 -4570 0
-4575 4576 0
-4575 4570 0
4577 -4576 -2041 0
-4577 4576 0
-4577 2041 0
4578 -2044 -2041 -4562 0
-4578 2044 0
-4578 2041 0
-4578 4562 0
-480 2045 4574 4575 4577 4578 0
480 -2045 0
480 -4574 0
480 -4575 0
480 -4577 0
480 -4578 0
4579 -2038 -4576 0
-4579 2038 0
-4579 4576 0
4580 -4565 -2044 0
-4580 4565 0
-4580 2044 0
4581 -4565 -4576 0
-4581 4565 0
-4581 4576 0
4582 -2038 -2044 -4562 0
-4582 2038 0
-4582 2044 0
-4582 4562 0
-478 2047 4579 4580 4581 4582 0
478 -2047 0
478 -4579 0
478 -4580 0
478 -4581 0
478 -4582 0
4583 -2038 -4565 0
-4583 2038 0
-4583 4565 0
4584 -4565 -4565 0
-4584 4565 0
-4584 4565 0
4585 -4565 -2038 0
-4585 4565 0
-4585 2038 0
4586 -2038 -2038 -4562 0
-4586 2038 0
-4586 2038 0
-4586 4562 0
-4587 2050 4583 4584 4585 4586 0
4587 -2050 0
4587 -4583 0
4587 -4584 0
4587 -4585 0
4587 -4586 0
4588 -3170 -3146 0
-4588 3170 0
-4588 3146 0
3147 -3146 -3146 0
-3147 3146 0
-3147 3146 0
4589 -3146 -3170 0
-4589 3146 0
-4589 3170 0
4590 -3170 -3170 -3152 0
-4590 3170 0
-4590 3170 0
-4590 3152 0
-4591 3150 4588 3147 4589 4590 0
4591 -3150 0
4591 -4588 0
4591 -3147 0
4591 -4589 0
4591 -4590 0
4592 -3170 -3159 0
-4592 3170 0
-4592 3159 0
4593 -3146 -3159 0
-4593 3146 0
-4593 3159 0
4594 -3146 -3178 0
-4594 3146 0
-4594 3178 0
4595 -3170 -3178 -3152 0
-4595 3170 0
-4595 3178 0
-4595 3152 0
-579 3154 4592 4593 4594 4595 0
579 -3154 0
579 -4592 0
579 -4593 0
579 -4594 0
579 -4595 0
4596 -3170 -3166 0
-4596 3170 0
-4596 3166 0
4597 -3146 -3173 0
-4597 3146 0
-4597 3173 0
4598 -3146 -3166 0
-4598 3146 0
-4598 3166 0
4599 -3170 -3173 -3152 0
-4599 3170 0
-4599 3173 0
-4599 3152 0
-577 3161 4596 4597 4598 4599 0
577 -3161 0
577 -4596 0
577 -4597 0
577 -4598 0
577 -4599 0
4600 -3168 -3166 0
-4600 3168 0
-4600 3166 0
4601 -3145 -3166 0
-4601 3145 0
-4601 3166 0
4602 -3145 -3173 0
-4602 3145 0
-4602 3173 0
4603 -3168 -3173 -3152 0
-4603 3168 0
-4603 3173 0
-4603 3152 0
-580 3163 4600 4601 4602 4603 0
580 -3163 0
580 -4600 0
580 -4601 0
580 -4602 0
580 -4603 0
4604 -3178 -3145 0
-4604 3178 0
-4604 3145 0
4605 -3159 -3168 0
-4605 3159 0
-4605 3168 0
4606 -3159 -3145 0
-4606 3159 0
-4606 3145 0
4607 -3178 -3168 -3152 0
-4607 3178 0
-4607 3168 0
-4607 3152 0
-578 3157 4604 4605 4606 4607 0
578 -3157 0
578 -4604 0
578 -4605 0
578 -4606 0
578 -4607 0
4608 -3178 -3159 0
-4608 3178 0
-4608 3159 0
4609 -3159 -3159 0
-4609 3159 0
-4609 3159 0
4610 -3159 -3178 0
-4610 3159 0
-4610 3178 0
4611 -3178 -3178 -3152 0
-4611 3178 0
-4611 3178 0
-4611 3152 0
-4612 3184 4608 4609 4610 4611 0
4612 -3184 0
4612 -4608 0
4612 -4609 0
4612 -4610 0
4612 -4611 0
4613 -3769 -4381 0
-4613 3769 0
-4613 4381 0
4614 -4381 -4381 0
-4614 4381 0
-4614 4381 0
4615 -4381 -3769 0
-4615 4381 0
-4615 3769 0
4616 -3769 -3769 -1398 0
-4616 3769 0
-4616 3769 0
-4616 1398 0
-4617 3771 4613 4614 4615 4616 0
4617 -3771 0
4617 -4613 0
4617 -4614 0
4617 -4615 0
4617 -4616 0
4618 -3769 -1387 0
-4618 3769 0
-4618 1387 0
4619 -4381 -1387 0
-4619 4381 0
-4619 1387 0
4620 -4381 -1390 0
-4620 4381 0
-4620 1390 0
4621 -3769 -1390 -1398 0
-4621 3769 0
-4621 1390 0
-4621 1398 0
-84 3773 4618 4619 4620 4621 0
84 -3773 0
84 -4618 0
84 -4619 0
84 -4620 0
84 -4621 0
4622 -3769 -1395 0
-4622 3769 0
-4622 1395 0
4623 -4381 -1393 0
-4623 4381 0
-4623 1393 0
4624 -4381 -1395 0
-4624 4381 0
-4624 1395 0
4625 -3769 -1393 -1398 0
-4625 3769 0
-4625 1393 0
-4625 1398 0
-82 3775 4622 4623 4624 4625 0
82 -3775 0
82 -4622 0
82 -4623 0
82 -4624 0
82 -4625 0
4626 -1389 -1395 0
-4626 1389 0
-4626 1395 0
4627 -1386 -1395 0
-4627 1386 0
-4627 1395 0
4628 -1386 -1393 0
-4628 1386 0
-4628 1393 0
4629 -1389 -1393 -1398 0
-4629 1389 0
-4629 1393 0
-4629 1398 0
-85 1392 4626 4627 4628 4629 0
85 -1392 0
85 -4626 0
85 -4627 0
85 -4628 0
85 -4629 0
4630 -1390 -1386 0
-4630 1390 0
-4630 1386 0
4631 -1387 -1389 0
-4631 1387 0
-4631 1389 0
4632 -1387 -1386 0
-4632 1387 0
-4632 1386 0
4633 -1390 -1389 -1398 0
-4633 1390 0
-4633 1389 0
-4633 1398 0
-83 1382 4630 4631 4632 4633 0
83 -1382 0
83 -4630 0
83 -4631 0
83 -4632 0
83 -4633 0
4634 -1390 -1387 0
-4634 1390 0
-4634 1387 0
4506 -1387 -1387 0
-4506 1387 0
-4506 1387 0
4635 -1387 -1390 0
-4635 1387 0
-4635 1390 0
4636 -1390 -1390 -1398 0
-4636 1390 0
-4636 1390 0
-4636 1398 0
-4637 1384 4634 4506 4635 4636 0
4637 -1384 0
4637 -4634 0
4637 -4506 0
4637 -4635 0
4637 -4636 0
4638 -1684 -1660 0
-4638 1684 0
-4638 1660 0
1661 -1660 -1660 0
-1661 1660 0
-1661 1660 0
4639 -1660 -1684 0
-4639 1660 0
-4639 1684 0
4640 -1684 -1684 -1666 0
-4640 1684 0
-4640 1684 0
-4640 1666 0
-4641 1664 4638 1661 4639 4640 0
4641 -1664 0
4641 -4638 0
4641 -1661 0
4641 -4639 0
4641 -4640 0
4642 -1684 -1673 0
-4642 1684 0
-4642 1673 0
4643 -1660 -1673 0
-4643 1660 0
-4643 1673 0
4644 -1660 -1692 0
-4644 1660 0
-4644 1692 0
4645 -1684 -1692 -1666 0
-4645 1684 0
-4645 1692 0
-4645 1666 0
-19 1668 4642 4643 4644 4645 0
19 -1668 0
19 -4642 0
19 -4643 0
19 -4644 0
19 -4645 0
4646 -1684 -1680 0
-4646 1684 0
-4646 1680 0
4647 -1660 -1687 0
-4647 1660 0
-4647 1687 0
4648 -1660 -1680 0
-4648 1660 0
-4648 1680 0
4649 -1684 -1687 -1666 0
-4649 1684 0
-4649 1687 0
-4649 1666 0
-17 1675 4646 4647 4648 4649 0
17 -1675 0
17 -4646 0
17 -4647 0
17 -4648 0
17 -4649 0
4650 -1682 -1680 0
-4650 1682 0
-4650 1680 0
4651 -1659 -1680 0
-4651 1659 0
-4651 1680 0
4652 -1659 -1687 0
-4652 1659 0
-4652 1687 0
4653 -1682 -1687 -1666 0
-4653 1682 0
-4653 1687 0
-4653 1666 0
-20 1677 4650 4651 4652 4653 0
20 -1677 0
20 -4650 0
20 -4651 0
20 -4652 0
20 -4653 0
4654 -1692 -1659 0
-4654 1692 0
-4654 1659 0
4655 -1673 -1682 0
-4655 1673 0
-4655 1682 0
4656 -1673 -1659 0
-4656 1673 0
-4656 1659 0
4657 -1692 -1682 -1666 0
-4657 1692 0
-4657 1682 0
-4657 1666 0
-18 1671 4654 4655 4656 4657 0
18 -1671 0
18 -4654 0
18 -4655 0
18 -4656 0
18 -4657 0
4658 -1692 -1673 0
-4658 1692 0
-4658 1673 0
4659 -1673 -1673 0
-4659 1673 0
-4659 1673 0
4660 -1673 -1692 0
-4660 1673 0
-4660 1692 0
4661 -1692 -1692 -1666 0
-4661 1692 0
-4661 1692 0
-4661 1666 0
-4662 1698 4658 4659 4660 4661 0
4662 -1698 0
4662 -4658 0
4662 -4659 0
4662 -4660 0
4662 -4661 0
4663 -1289 -1265 0
-4663 1289 0
-4663 1265 0
1266 -1265 -1265 0
-1266 1265 0
-1266 1265 0
4664 -1265 -1289 0
-4664 1265 0
-4664 1289 0
4665 -1289 -1289 -1271 0
-4665 1289 0
-4665 1289 0
-4665 1271 0
-4666 1269 4663 1266 4664 4665 0
4666 -1269 0
4666 -4663 0
4666 -1266 0
4666 -4664 0
4666 -4665 0
4667 -1289 -1278 0
-4667 1289 0
-4667 1278 0
4668 -1265 -1278 0
-4668 1265 0
-4668 1278 0
4669 -1265 -1297 0
-4669 1265 0
-4669 1297 0
4670 -1289 -1297 -1271 0
-4670 1289 0
-4670 1297 0
-4670 1271 0
-224 1273 4667 4668 4669 4670 0
224 -1273 0
224 -4667 0
224 -4668 0
224 -4669 0
224 -4670 0
4671 -1289 -1285 0
-4671 1289 0
-4671 1285 0
4672 -1265 -1292 0
-4672 1265 0
-4672 1292 0
4673 -1265 -1285 0
-4673 1265 0
-4673 1285 0
4674 -1289 -1292 -1271 0
-4674 1289 0
-4674 1292 0
-4674 1271 0
-222 1280 4671 4672 4673 4674 0
222 -1280 0
222 -4671 0
222 -4672 0
222 -4673 0
222 -4674 0
4675 -1287 -1285 0
-4675 1287 0
-4675 1285 0
4676 -1264 -1285 0
-4676 1264 0
-4676 1285 0
4677 -1264 -1292 0
-4677 1264 0
-4677 1292 0
4678 -1287 -1292 -1271 0
-4678 1287 0
-4678 1292 0
-4678 1271 0
-225 1282 4675 4676 4677 4678 0
225 -1282 0
225 -4675 0
225 -4676 0
225 -4677 0
225 -4678 0
4679 -1297 -1264 0
-4679 1297 0
-4679 1264 0
4680 -1278 -1287 0
-4680 1278 0
-4680 1287 0
4681 -1278 -1264 0
-4681 1278 0
-4681 1264 0
4682 -1297 -1287 -1271 0
-4682 1297 0
-4682 1287 0
-4682 1271 0
-223 1276 4679 4680 4681 4682 0
223 -1276 0
223 -4679 0
223 -4680 0
223 -4681 0
223 -4682 0
4683 -1297 -1278 0
-4683 1297 0
-4683 1278 0
4684 -1278 -1278 0
-4684 1278 0
-4684 1278 0
4685 -1278 -1297 0
-4685 1278 0
-4685 1297 0
4686 -1297 -1297 -1271 0
-4686 1297 0
-4686 1297 0
-4686 1271 0
-4687 1303 4683 4684 4685 4686 0
4687 -1303 0
4687 -4683 0
4687 -4684 0
4687 -4685 0
4687 -4686 0
4688 -2521 -2521 0
-4688 2521 0
-4688 2521 0
-4689 2528 4688 0
4689 -2528 0
4689 -4688 0
4690 -2521 -2533 0
-4690 2521 0
-4690 2533 0
-654 2535 4690 0
654 -2535 0
654 -4690 0
4691 -2521 -2539 0
-4691 2521 0
-4691 2539 0
-652 2542 4691 0
652 -2542 0
652 -4691 0
4692 -2544 -2539 0
-4692 2544 0
-4692 2539 0
-655 2549 4692 0
655 -2549 0
655 -4692 0
4693 -2533 -2544 0
-4693 2533 0
-4693 2544 0
-653 2554 4693 0
653 -2554 0
653 -4693 0
4694 -2533 -2533 0
-4694 2533 0
-4694 2533 0
-4695 2560 4694 0
4695 -2560 0
4695 -4694 0
4696 -1600 -4697 0
-4696 1600 0
-4696 4697 0
4698 -4697 -4697 0
-4698 4697 0
-4698 4697 0
4699 -4697 -1600 0
-4699 4697 0
-4699 1600 0
4700 -1600 -1600 -4701 0
-4700 1600 0
-4700 1600 0
-4700 4701 0
-4702 1602 4696 4698 4699 4700 0
4702 -1602 0
4702 -4696 0
4702 -4698 0
4702 -4699 0
4702 -4700 0
4703 -1600 -4704 0
-4703 1600 0
-4703 4704 0
4705 -4697 -4704 0
-4705 4697 0
-4705 4704 0
4706 -4697 -1604 0
-4706 4697 0
-4706 1604 0
4707 -1600 -1604 -4701 0
-4707 1600 0
-4707 1604 0
-4707 4701 0
-324 1605 4703 4705 4706 4707 0
324 -1605 0
324 -4703 0
324 -4705 0
324 -4706 0
324 -4707 0
4708 -1600 -4709 0
-4708 1600 0
-4708 4709 0
4710 -4697 -1607 0
-4710 4697 0
-4710 1607 0
4711 -4697 -4709 0
-4711 4697 0
-4711 4709 0
4712 -1600 -1607 -4701 0
-4712 1600 0
-4712 1607 0
-4712 4701 0
-322 1608 4708 4710 4711 4712 0
322 -1608 0
322 -4708 0
322 -4710 0
322 -4711 0
322 -4712 0
4713 -1610 -4709 0
-4713 1610 0
-4713 4709 0
4714 -4715 -4709 0
-4714 4715 0
-4714 4709 0
4716 -4715 -1607 0
-4716 4715 0
-4716 1607 0
4717 -1610 -1607 -4701 0
-4717 1610 0
-4717 1607 0
-4717 4701 0
-325 1611 4713 4714 4716 4717 0
325 -1611 0
325 -4713 0
325 -4714 0
325 -4716 0
325 -4717 0
4718 -1604 -4715 0
-4718 1604 0
-4718 4715 0
4719 -4704 -1610 0
-4719 4704 0
-4719 1610 0
4720 -4704 -4715 0
-4720 4704 0
-4720 4715 0
4721 -1604 -1610 -4701 0
-4721 1604 0
-4721 1610 0
-4721 4701 0
-323 1613 4718 4719 4720 4721 0
323 -1613 0
323 -4718 0
323 -4719 0
323 -4720 0
323 -4721 0
4722 -1604 -4704 0
-4722 1604 0
-4722 4704 0
4723 -4704 -4704 0
-4723 4704 0
-4723 4704 0
4724 -4704 -1604 0
-4724 4704 0
-4724 1604 0
4725 -1604 -1604 -4701 0
-4725 1604 0
-4725 1604 0
-4725 4701 0
-4726 1616 4722 4723 4724 4725 0
4726 -1616 0
4726 -4722 0
4726 -4723 0
4726 -4724 0
4726 -4725 0
4727 -1584 -1584 0
-4727 1584 0
-4727 1584 0
-4728 1564 4727 0
4728 -1564 0
4728 -4727 0
4729 -1584 -1592 0
-4729 1584 0
-4729 1592 0
-989 1568 4729 0
989 -1568 0
989 -4729 0
4730 -1584 -1587 0
-4730 1584 0
-4730 1587 0
-987 1575 4730 0
987 -1575 0
987 -4730 0
4731 -1582 -1587 0
-4731 1582 0
-4731 1587 0
-990 1577 4731 0
990 -1577 0
990 -4731 0
4732 -1592 -1582 0
-4732 1592 0
-4732 1582 0
-988 1571 4732 0
988 -1571 0
988 -4732 0
4733 -1592 -1592 0
-4733 1592 0
-4733 1592 0
-4734 1598 4733 0
4734 -1598 0
4734 -4733 0
4735 -2016 -4736 0
-4735 2016 0
-4735 4736 0
4737 -4736 -4736 0
-4737 4736 0
-4737 4736 0
4738 -4736 -2016 0
-4738 4736 0
-4738 2016 0
4739 -2016 -2016 -4740 0
-4739 2016 0
-4739 2016 0
-4739 4740 0
-4741 2018 4735 4737 4738 4739 0
4741 -2018 0
4741 -4735 0
4741 -4737 0
4741 -4738 0
4741 -4739 0
4742 -2016 -4743 0
-4742 2016 0
-4742 4743 0
4744 -4736 -4743 0
-4744 4736 0
-4744 4743 0
4745 -4736 -2020 0
-4745 4736 0
-4745 2020 0
4746 -2016 -2020 -4740 0
-4746 2016 0
-4746 2020 0
-4746 4740 0
-794 2021 4742 4744 4745 4746 0
794 -2021 0
794 -4742 0
794 -4744 0
794 -4745 0
794 -4746 0
4747 -2016 -4748 0
-4747 2016 0
-4747 4748 0
4749 -4736 -2023 0
-4749 4736 0
-4749 2023 0
4750 -4736 -4748 0
-4750 4736 0
-4750 4748 0
4751 -2016 -2023 -4740 0
-4751 2016 0
-4751 2023 0
-4751 4740 0
-792 2024 4747 4749 4750 4751 0
792 -2024 0
792 -4747 0
792 -4749 0
792 -4750 0
792 -4751 0
4752 -2026 -4748 0
-4752 2026 0
-4752 4748 0
4753 -4754 -4748 0
-4753 4754 0
-4753 4748 0
4755 -4754 -2023 0
-4755 4754 0
-4755 2023 0
4756 -2026 -2023 -4740 0
-4756 2026 0
-4756 2023 0
-4756 4740 0
-795 2027 4752 4753 4755 4756 0
795 -2027 0
795 -4752 0
795 -4753 0
795 -4755 0
795 -4756 0
4757 -2020 -4754 0
-4757 2020 0
-4757 4754 0
4758 -4743 -2026 0
-4758 4743 0
-4758 2026 0
4759 -4743 -4754 0
-4759 4743 0
-4759 4754 0
4760 -2020 -2026 -4740 0
-4760 2020 0
-4760 2026 0
-4760 4740 0
-793 2029 4757 4758 4759 4760 0
793 -2029 0
793 -4757 0
793 -4758 0
793 -4759 0
793 -4760 0
4761 -2020 -4743 0
-4761 2020 0
-4761 4743 0
4762 -4743 -4743 0
-4762 4743 0
-4762 4743 0
4763 -4743 -2020 0
-4763 4743 0
-4763 2020 0
4764 -2020 -2020 -4740 0
-4764 2020 0
-4764 2020 0
-4764 4740 0
-4765 2032 4761 4762 4763 4764 0
4765 -2032 0
4765 -4761 0
4765 -4762 0
4765 -4763 0
4765 -4764 0
4766 -3324 -3324 0
-4766 3324 0
-4766 3324 0
-4767 3331 4766 0
4767 -3331 0
4767 -4766 0
4768 -3324 -3336 0
-4768 3324 0
-4768 3336 0
-1154 3338 4768 0
1154 -3338 0
1154 -4768 0
4769 -3324 -3342 0
-4769 3324 0
-4769 3342 0
-1152 3345 4769 0
1152 -3345 0
1152 -4769 0
4770 -3347 -3342 0
-4770 3347 0
-4770 3342 0
-1155 3352 4770 0
1155 -3352 0
1155 -4770 0
4771 -3336 -3347 0
-4771 3336 0
-4771 3347 0
-1153 3357 4771 0
1153 -3357 0
1153 -4771 0
4772 -3336 -3336 0
-4772 3336 0
-4772 3336 0
-4773 3363 4772 0
4773 -3363 0
4773 -4772 0
4774 -2578 -2571 0
-4774 2578 0
-4774 2571 0
2597 -2571 -2571 0
-2597 2571 0
-2597 2571 0
4775 -2571 -2578 0
-4775 2571 0
-4775 2578 0
4776 -2578 -2578 -2601 0
-4776 2578 0
-4776 2578 0
-4776 2601 0
-4777 2567 4774 2597 4775 4776 0
4777 -2567 0
4777 -4774 0
4777 -2597 0
4777 -4775 0
4777 -4776 0
4778 -2578 -2576 0
-4778 2578 0
-4778 2576 0
4779 -2571 -2576 0
-4779 2571 0
-4779 2576 0
4780 -2571 -2583 0
-4780 2571 0
-4780 2583 0
4781 -2578 -2583 -2601 0
-4781 2578 0
-4781 2583 0
-4781 2601 0
-89 2563 4778 4779 4780 4781 0
89 -2563 0
89 -4778 0
89 -4779 0
89 -4780 0
89 -4781 0
4782 -2578 -2595 0
-4782 2578 0
-4782 2595 0
4783 -2571 -2590 0
-4783 2571 0
-4783 2590 0
4784 -2571 -2595 0
-4784 2571 0
-4784 2595 0
4785 -2578 -2590 -2601 0
-4785 2578 0
-4785 2590 0
-4785 2601 0
-87 2587 4782 4783 4784 4785 0
87 -2587 0
87 -4782 0
87 -4783 0
87 -4784 0
87 -4785 0
4786 -2580 -2595 0
-4786 2580 0
-4786 2595 0
4787 -2574 -2595 0
-4787 2574 0
-4787 2595 0
4788 -2574 -2590 0
-4788 2574 0
-4788 2590 0
4789 -2580 -2590 -2601 0
-4789 2580 0
-4789 2590 0
-4789 2601 0
-90 2585 4786 4787 4788 4789 0
90 -2585 0
90 -4786 0
90 -4787 0
90 -4788 0
90 -4789 0
4790 -2583 -2574 0
-4790 2583 0
-4790 2574 0
4791 -2576 -2580 0
-4791 2576 0
-4791 2580 0
4792 -2576 -2574 0
-4792 2576 0
-4792 2574 0
4793 -2583 -2580 -2601 0
-4793 2583 0
-4793 2580 0
-4793 2601 0
-88 2562 4790 4791 4792 4793 0
88 -2562 0
88 -4790 0
88 -4791 0
88 -4792 0
88 -4793 0
4794 -2583 -2576 0
-4794 2583 0
-4794 2576 0
4795 -2576 -2576 0
-4795 2576 0
-4795 2576 0
4796 -2576 -2583 0
-4796 2576 0
-4796 2583 0
4797 -2583 -2583 -2601 0
-4797 2583 0
-4797 2583 0
-4797 2601 0
-4798 2569 4794 4795 4796 4797 0
4798 -2569 0
4798 -4794 0
4798 -4795 0
4798 -4796 0
4798 -4797 0
4799 -4800 -4801 0
-4799 4800 0
-4799 4801 0
4802 -4801 -4801 0
-4802 4801 0
-4802 4801 0
4803 -4801 -4800 0
-4803 4801 0
-4803 4800 0
4804 -4800 -4800 -3255 0
-4804 4800 0
-4804 4800 0
-4804 3255 0
-4805 4806 4799 4802 4803 4804 0
4805 -4806 0
4805 -4799 0
4805 -4802 0
4805 -4803 0
4805 -4804 0
4807 -4800 -3258 0
-4807 4800 0
-4807 3258 0
4808 -4801 -3258 0
-4808 4801 0
-4808 3258 0
4809 -4801 -3266 0
-4809 4801 0
-4809 3266 0
4810 -4800 -3266 -3255 0
-4810 4800 0
-4810 3266 0
-4810 3255 0
-254 4811 4807 4808 4809 4810 0
254 -4811 0
254 -4807 0
254 -4808 0
254 -4809 0
254 -4810 0
4812 -4800 -3261 0
-4812 4800 0
-4812 3261 0
4813 -4801 -3264 0
-4813 4801 0
-4813 3264 0
4814 -4801 -3261 0
-4814 4801 0
-4814 3261 0
4815 -4800 -3264 -3255 0
-4815 4800 0
-4815 3264 0
-4815 3255 0
-252 4816 4812 4813 4814 4815 0
252 -4816 0
252 -4812 0
252 -4813 0
252 -4814 0
252 -4815 0
4817 -3263 -3261 0
-4817 3263 0
-4817 3261 0
4818 -3253 -3261 0
-4818 3253 0
-4818 3261 0
4819 -3253 -3264 0
-4819 3253 0
-4819 3264 0
4820 -3263 -3264 -3255 0
-4820 3263 0
-4820 3264 0
-4820 3255 0
-255 3260 4817 4818 4819 4820 0
255 -3260 0
255 -4817 0
255 -4818 0
255 -4819 0
255 -4820 0
4821 -3266 -3253 0
-4821 3266 0
-4821 3253 0
4822 -3258 -3263 0
-4822 3258 0
-4822 3263 0
4823 -3258 -3253 0
-4823 3258 0
-4823 3253 0
4824 -3266 -3263 -3255 0
-4824 3266 0
-4824 3263 0
-4824 3255 0
-253 3257 4821 4822 4823 4824 0
253 -3257 0
253 -4821 0
253 -4822 0
253 -4823 0
253 -4824 0
4825 -3266 -3258 0
-4825 3266 0
-4825 3258 0
4826 -3258 -3258 0
-4826 3258 0
-4826 3258 0
4827 -3258 -3266 0
-4827 3258 0
-4827 3266 0
4828 -3266 -3266 -3255 0
-4828 3266 0
-4828 3266 0
-4828 3255 0
-4829 3269 4825 4826 4827 4828 0
4829 -3269 0
4829 -4825 0
4829 -4826 0
4829 -4827 0
4829 -4828 0
4830 -3943 -3925 0
-4830 3943 0
-4830 3925 0
3926 -3925 -3925 0
-3926 3925 0
-3926 3925 0
4831 -3925 -3943 0
-4831 3925 0
-4831 3943 0
4832 -3943 -3943 -1543 0
-4832 3943 0
-4832 3943 0
-4832 1543 0
-4833 3929 4830 3926 4831 4832 0
4833 -3929 0
4833 -4830 0
4833 -3926 0
4833 -4831 0
4833 -4832 0
4834 -3943 -1546 0
-4834 3943 0
-4834 1546 0
4835 -3925 -1546 0
-4835 3925 0
-4835 1546 0
4836 -3925 -1554 0
-4836 3925 0
-4836 1554 0
4837 -3943 -1554 -1543 0
-4837 3943 0
-4837 1554 0
-4837 1543 0
-904 3932 4834 4835 4836 4837 0
904 -3932 0
904 -4834 0
904 -4835 0
904 -4836 0
904 -4837 0
4838 -3943 -1549 0
-4838 3943 0
-4838 1549 0
4839 -3925 -1552 0
-4839 3925 0
-4839 1552 0
4840 -3925 -1549 0
-4840 3925 0
-4840 1549 0
4841 -3943 -1552 -1543 0
-4841 3943 0
-4841 1552 0
-4841 1543 0
-902 3937 4838 4839 4840 4841 0
902 -3937 0
902 -4838 0
902 -4839 0
902 -4840 0
902 -4841 0
4842 -1551 -1549 0
-4842 1551 0
-4842 1549 0
4843 -1541 -1549 0
-4843 1541 0
-4843 1549 0
4844 -1541 -1552 0
-4844 1541 0
-4844 1552 0
4845 -1551 -1552 -1543 0
-4845 1551 0
-4845 1552 0
-4845 1543 0
-905 1548 4842 4843 4844 4845 0
905 -1548 0
905 -4842 0
905 -4843 0
905 -4844 0
905 -4845 0
4846 -1554 -1541 0
-4846 1554 0
-4846 1541 0
4847 -1546 -1551 0
-4847 1546 0
-4847 1551 0
4848 -1546 -1541 0
-4848 1546 0
-4848 1541 0
4849 -1554 -1551 -1543 0
-4849 1554 0
-4849 1551 0
-4849 1543 0
-903 1545 4846 4847 4848 4849 0
903 -1545 0
903 -4846 0
903 -4847 0
903 -4848 0
903 -4849 0
4850 -1554 -1546 0
-4850 1554 0
-4850 1546 0
4851 -1546 -1546 0
-4851 1546 0
-4851 1546 0
4852 -1546 -1554 0
-4852 1546 0
-4852 1554 0
4853 -1554 -1554 -1543 0
-4853 1554 0
-4853 1554 0
-4853 1543 0
-4854 1557 4850 4851 4852 4853 0
4854 -1557 0
4854 -4850 0
4854 -4851 0
4854 -4852 0
4854 -4853 0
4855 -4856 -4857 0
-4855 4856 0
-4855 4857 0
4858 -4857 -4857 0
-4858 4857 0
-4858 4857 0
4859 -4857 -4856 0
-4859 4857 0
-4859 4856 0
4860 -4856 -4856 -4861 0
-4860 4856 0
-4860 4856 0
-4860 4861 0
-4862 4863 4855 4858 4859 4860 0
4862 -4863 0
4862 -4855 0
4862 -4858 0
4862 -4859 0
4862 -4860 0
4864 -4856 -4865 0
-4864 4856 0
-4864 4865 0
4866 -4857 -4865 0
-4866 4857 0
-4866 4865 0
4867 -4857 -4868 0
-4867 4857 0
-4867 4868 0
4869 -4856 -4868 -4861 0
-4869 4856 0
-4869 4868 0
-4869 4861 0
-264 4870 4864 4866 4867 4869 0
264 -4870 0
264 -4864 0
264 -4866 0
264 -4867 0
264 -4869 0
4871 -4856 -4872 0
-4871 4856 0
-4871 4872 0
4873 -4857 -4874 0
-4873 4857 0
-4873 4874 0
4875 -4857 -4872 0
-4875 4857 0
-4875 4872 0
4876 -4856 -4874 -4861 0
-4876 4856 0
-4876 4874 0
-4876 4861 0
-262 4877 4871 4873 4875 4876 0
262 -4877 0
262 -4871 0
262 -4873 0
262 -4875 0
262 -4876 0
4878 -4879 -4872 0
-4878 4879 0
-4878 4872 0
4880 -4881 -4872 0
-4880 4881 0
-4880 4872 0
4882 -4881 -4874 0
-4882 4881 0
-4882 4874 0
4883 -4879 -4874 -4861 0
-4883 4879 0
-4883 4874 0
-4883 4861 0
-265 4884 4878 4880 4882 4883 0
265 -4884 0
265 -4878 0
265 -4880 0
265 -4882 0
265 -4883 0
4885 -4868 -4881 0
-4885 4868 0
-4885 4881 0
4886 -4865 -4879 0
-4886 4865 0
-4886 4879 0
4887 -4865 -4881 0
-4887 4865 0
-4887 4881 0
4888 -4868 -4879 -4861 0
-4888 4868 0
-4888 4879 0
-4888 4861 0
-263 4889 4885 4886 4887 4888 0
263 -4889 0
263 -4885 0
263 -4886 0
263 -4887 0
263 -4888 0
4890 -4868 -4865 0
-4890 4868 0
-4890 4865 0
4891 -4865 -4865 0
-4891 4865 0
-4891 4865 0
4892 -4865 -4868 0
-4892 4865 0
-4892 4868 0
4893 -4868 -4868 -4861 0
-4893 4868 0
-4893 4868 0
-4893 4861 0
-4894 4895 4890 4891 4892 4893 0
4894 -4895 0
4894 -4890 0
4894 -4891 0
4894 -4892 0
4894 -4893 0
4896 -1962 -4897 0
-4896 1962 0
-4896 4897 0
4898 -4897 -4897 0
-4898 4897 0
-4898 4897 0
4899 -4897 -1962 0
-4899 4897 0
-4899 1962 0
4900 -1962 -1962 -4901 0
-4900 1962 0
-4900 1962 0
-4900 4901 0
-4902 1964 4896 4898 4899 4900 0
4902 -1964 0
4902 -4896 0
4902 -4898 0
4902 -4899 0
4902 -4900 0
4903 -1962 -4904 0
-4903 1962 0
-4903 4904 0
4905 -4897 -4904 0
-4905 4897 0
-4905 4904 0
4906 -4897 -1966 0
-4906 4897 0
-4906 1966 0
4907 -1962 -1966 -4901 0
-4907 1962 0
-4907 1966 0
-4907 4901 0
-284 1967 4903 4905 4906 4907 0
284 -1967 0
284 -4903 0
284 -4905 0
284 -4906 0
284 -4907 0
4908 -1962 -4909 0
-4908 1962 0
-4908 4909 0
4910 -4897 -1969 0
-4910 4897 0
-4910 1969 0
4911 -4897 -4909 0
-4911 4897 0
-4911 4909 0
4912 -1962 -1969 -4901 0
-4912 1962 0
-4912 1969 0
-4912 4901 0
-282 1970 4908 4910 4911 4912 0
282 -1970 0
282 -4908 0
282 -4910 0
282 -4911 0
282 -4912 0
4913 -1972 -4909 0
-4913 1972 0
-4913 4909 0
4914 -4915 -4909 0
-4914 4915 0
-4914 4909 0
4916 -4915 -1969 0
-4916 4915 0
-4916 1969 0
4917 -1972 -1969 -4901 0
-4917 1972 0
-4917 1969 0
-4917 4901 0
-285 1973 4913 4914 4916 4917 0
285 -1973 0
285 -4913 0
285 -4914 0
285 -4916 0
285 -4917 0
4918 -1966 -4915 0
-4918 1966 0
-4918 4915 0
4919 -4904 -1972 0
-4919 4904 0
-4919 1972 0
4920 -4904 -4915 0
-4920 4904 0
-4920 4915 0
4921 -1966 -1972 -4901 0
-4921 1966 0
-4921 1972 0
-4921 4901 0
-283 1975 4918 4919 4920 4921 0
283 -1975 0
283 -4918 0
283 -4919 0
283 -4920 0
283 -4921 0
4922 -1966 -4904 0
-4922 1966 0
-4922 4904 0
4923 -4904 -4904 0
-4923 4904 0
-4923 4904 0
4924 -4904 -1966 0
-4924 4904 0
-4924 1966 0
4925 -1966 -1966 -4901 0
-4925 1966 0
-4925 1966 0
-4925 4901 0
-4926 1978 4922 4923 4924 4925 0
4926 -1978 0
4926 -4922 0
4926 -4923 0
4926 -4924 0
4926 -4925 0
4927 -2337 -4928 0
-4927 2337 0
-4927 4928 0
4929 -4928 -4928 0
-4929 4928 0
-4929 4928 0
4930 -4928 -2337 0
-4930 4928 0
-4930 2337 0
4931 -2337 -2337 -4932 0
-4931 2337 0
-4931 2337 0
-4931 4932 0
-4933 2339 4927 4929 4930 4931 0
4933 -2339 0
4933 -4927 0
4933 -4929 0
4933 -4930 0
4933 -4931 0
4934 -2337 -4935 0
-4934 2337 0
-4934 4935 0
4936 -4928 -4935 0
-4936 4928 0
-4936 4935 0
4937 -4928 -2341 0
-4937 4928 0
-4937 2341 0
4938 -2337 -2341 -4932 0
-4938 2337 0
-4938 2341 0
-4938 4932 0
-369 2342 4934 4936 4937 4938 0
369 -2342 0
369 -4934 0
369 -4936 0
369 -4937 0
369 -4938 0
4939 -2337 -4940 0
-4939 2337 0
-4939 4940 0
4941 -4928 -2344 0
-4941 4928 0
-4941 2344 0
4942 -4928 -4940 0
-4942 4928 0
-4942 4940 0
4943 -2337 -2344 -4932 0
-4943 2337 0
-4943 2344 0
-4943 4932 0
-367 2345 4939 4941 4942 4943 0
367 -2345 0
367 -4939 0
367 -4941 0
367 -4942 0
367 -4943 0
4944 -2347 -4940 0
-4944 2347 0
-4944 4940 0
4945 -4946 -4940 0
-4945 4946 0
-4945 4940 0
4947 -4946 -2344 0
-4947 4946 0
-4947 2344 0
4948 -2347 -2344 -4932 0
-4948 2347 0
-4948 2344 0
-4948 4932 0
-370 2348 4944 4945 4947 4948 0
370 -2348 0
370 -4944 0
370 -4945 0
370 -4947 0
370 -4948 0
4949 -2341 -4946 0
-4949 2341 0
-4949 4946 0
4950 -4935 -2347 0
-4950 4935 0
-4950 2347 0
4951 -4935 -4946 0
-4951 4935 0
-4951 4946 0
4952 -2341 -2347 -4932 0
-4952 2341 0
-4952 2347 0
-4952 4932 0
-368 2350 4949 4950 4951 4952 0
368 -2350 0
368 -4949 0
368 -4950 0
368 -4951 0
368 -4952 0
4953 -2341 -4935 0
-4953 2341 0
-4953 4935 0
4954 -4935 -4935 0
-4954 4935 0
-4954 4935 0
4955 -4935 -2341 0
-4955 4935 0
-4955 2341 0
4956 -2341 -2341 -4932 0
-4956 2341 0
-4956 2341 0
-4956 4932 0
-4957 2353 4953 4954 4955 4956 0
4957 -2353 0
4957 -4953 0
4957 -4954 0
4957 -4955 0
4957 -4956 0
4958 -2587 -2563 0
-4958 2587 0
-4958 2563 0
2564 -2563 -2563 0
-2564 2563 0
-2564 2563 0
4959 -2563 -2587 0
-4959 2563 0
-4959 2587 0
4960 -2587 -2587 -2569 0
-4960 2587 0
-4960 2587 0
-4960 2569 0
-4961 2567 4958 2564 4959 4960 0
4961 -2567 0
4961 -4958 0
4961 -2564 0
4961 -4959 0
4961 -4960 0
4962 -2587 -2576 0
-4962 2587 0
-4962 2576 0
4963 -2563 -2576 0
-4963 2563 0
-4963 2576 0
4964 -2563 -2595 0
-4964 2563 0
-4964 2595 0
4965 -2587 -2595 -2569 0
-4965 2587 0
-4965 2595 0
-4965 2569 0
-109 2571 4962 4963 4964 4965 0
109 -2571 0
109 -4962 0
109 -4963 0
109 -4964 0
109 -4965 0
4966 -2587 -2583 0
-4966 2587 0
-4966 2583 0
4967 -2563 -2590 0
-4967 2563 0
-4967 2590 0
4968 -2563 -2583 0
-4968 2563 0
-4968 2583 0
4969 -2587 -2590 -2569 0
-4969 2587 0
-4969 2590 0
-4969 2569 0
-107 2578 4966 4967 4968 4969 0
107 -2578 0
107 -4966 0
107 -4967 0
107 -4968 0
107 -4969 0
4970 -2585 -2583 0
-4970 2585 0
-4970 2583 0
4971 -2562 -2583 0
-4971 2562 0
-4971 2583 0
4972 -2562 -2590 0
-4972 2562 0
-4972 2590 0
4973 -2585 -2590 -2569 0
-4973 2585 0
-4973 2590 0
-4973 2569 0
-110 2580 4970 4971 4972 4973 0
110 -2580 0
110 -4970 0
110 -4971 0
110 -4972 0
110 -4973 0
4974 -2595 -2562 0
-4974 2595 0
-4974 2562 0
4975 -2576 -2585 0
-4975 2576 0
-4975 2585 0
4976 -2576 -2562 0
-4976 2576 0
-4976 2562 0
4977 -2595 -2585 -2569 0
-4977 2595 0
-4977 2585 0
-4977 2569 0
-108 2574 4974 4975 4976 4977 0
108 -2574 0
108 -4974 0
108 -4975 0
108 -4976 0
108 -4977 0
4978 -2595 -2576 0
-4978 2595 0
-4978 2576 0
4795 -2576 -2576 0
-4795 2576 0
-4795 2576 0
4979 -2576 -2595 0
-4979 2576 0
-4979 2595 0
4980 -2595 -2595 -2569 0
-4980 2595 0
-4980 2595 0
-4980 2569 0
-4981 2601 4978 4795 4979 4980 0
4981 -2601 0
4981 -4978 0
4981 -4795 0
4981 -4979 0
4981 -4980 0
4982 -2688 -2670 0
-4982 2688 0
-4982 2670 0
2671 -2670 -2670 0
-2671 2670 0
-2671 2670 0
4983 -2670 -2688 0
-4983 2670 0
-4983 2688 0
4984 -2688 -2688 -1802 0
-4984 2688 0
-4984 2688 0
-4984 1802 0
-4985 2674 4982 2671 4983 4984 0
4985 -2674 0
4985 -4982 0
4985 -2671 0
4985 -4983 0
4985 -4984 0
4986 -2688 -1805 0
-4986 2688 0
-4986 1805 0
4987 -2670 -1805 0
-4987 2670 0
-4987 1805 0
4988 -2670 -1813 0
-4988 2670 0
-4988 1813 0
4989 -2688 -1813 -1802 0
-4989 2688 0
-4989 1813 0
-4989 1802 0
-154 2677 4986 4987 4988 4989 0
154 -2677 0
154 -4986 0
154 -4987 0
154 -4988 0
154 -4989 0
4990 -2688 -1808 0
-4990 2688 0
-4990 1808 0
4991 -2670 -1811 0
-4991 2670 0
-4991 1811 0
4992 -2670 -1808 0
-4992 2670 0
-4992 1808 0
4993 -2688 -1811 -1802 0
-4993 2688 0
-4993 1811 0
-4993 1802 0
-152 2682 4990 4991 4992 4993 0
152 -2682 0
152 -4990 0
152 -4991 0
152 -4992 0
152 -4993 0
4994 -1810 -1808 0
-4994 1810 0
-4994 1808 0
4995 -1800 -1808 0
-4995 1800 0
-4995 1808 0
4996 -1800 -1811 0
-4996 1800 0
-4996 1811 0
4997 -1810 -1811 -1802 0
-4997 1810 0
-4997 1811 0
-4997 1802 0
-155 1807 4994 4995 4996 4997 0
155 -1807 0
155 -4994 0
155 -4995 0
155 -4996 0
155 -4997 0
4998 -1813 -1800 0
-4998 1813 0
-4998 1800 0
4999 -1805 -1810 0
-4999 1805 0
-4999 1810 0
5000 -1805 -1800 0
-5000 1805 0
-5000 1800 0
5001 -1813 -1810 -1802 0
-5001 1813 0
-5001 1810 0
-5001 1802 0
-153 1804 4998 4999 5000 5001 0
153 -1804 0
153 -4998 0
153 -4999 0
153 -5000 0
153 -5001 0
5002 -1813 -1805 0
-5002 1813 0
-5002 1805 0
5003 -1805 -1805 0
-5003 1805 0
-5003 1805 0
5004 -1805 -1813 0
-5004 1805 0
-5004 1813 0
5005 -1813 -1813 -1802 0
-5005 1813 0
-5005 1813 0
-5005 1802 0
-5006 1816 5002 5003 5004 5005 0
5006 -1816 0
5006 -5002 0
5006 -5003 0
5006 -5004 0
5006 -5005 0
5007 -1818 -5008 0
-5007 1818 0
-5007 5008 0
5009 -5008 -5008 0
-5009 5008 0
-5009 5008 0
5010 -5008 -1818 0
-5010 5008 0
-5010 1818 0
5011 -1818 -1818 -2255 0
-5011 1818 0
-5011 1818 0
-5011 2255 0
-5012 1820 5007 5009 5010 5011 0
5012 -1820 0
5012 -5007 0
5012 -5009 0
5012 -5010 0
5012 -5011 0
5013 -1818 -2257 0
-5013 1818 0
-5013 2257 0
5014 -5008 -2257 0
-5014 5008 0
-5014 2257 0
5015 -5008 -1822 0
-5015 5008 0
-5015 1822 0
5016 -1818 -1822 -2255 0
-5016 1818 0
-5016 1822 0
-5016 2255 0
-209 1823 5013 5014 5015 5016 0
209 -1823 0
209 -5013 0
209 -5014 0
209 -5015 0
209 -5016 0
5017 -1818 -2259 0
-5017 1818 0
-5017 2259 0
5018 -5008 -1825 0
-5018 5008 0
-5018 1825 0
5019 -5008 -2259 0
-5019 5008 0
-5019 2259 0
5020 -1818 -1825 -2255 0
-5020 1818 0
-5020 1825 0
-5020 2255 0
-207 1826 5017 5018 5019 5020 0
207 -1826 0
207 -5017 0
207 -5018 0
207 -5019 0
207 -5020 0
5021 -1828 -2259 0
-5021 1828 0
-5021 2259 0
5022 -2253 -2259 0
-5022 2253 0
-5022 2259 0
5023 -2253 -1825 0
-5023 2253 0
-5023 1825 0
5024 -1828 -1825 -2255 0
-5024 1828 0
-5024 1825 0
-5024 2255 0
-210 1829 5021 5022 5023 5024 0
210 -1829 0
210 -5021 0
210 -5022 0
210 -5023 0
210 -5024 0
5025 -1822 -2253 0
-5025 1822 0
-5025 2253 0
5026 -2257 -1828 0
-5026 2257 0
-5026 1828 0
5027 -2257 -2253 0
-5027 2257 0
-5027 2253 0
5028 -1822 -1828 -2255 0
-5028 1822 0
-5028 1828 0
-5028 2255 0
-208 1831 5025 5026 5027 5028 0
208 -1831 0
208 -5025 0
208 -5026 0
208 -5027 0
208 -5028 0
5029 -1822 -2257 0
-5029 1822 0
-5029 2257 0
5030 -2257 -2257 0
-5030 2257 0
-5030 2257 0
5031 -2257 -1822 0
-5031 2257 0
-5031 1822 0
5032 -1822 -1822 -2255 0
-5032 1822 0
-5032 1822 0
-5032 2255 0
-5033 1834 5029 5030 5031 5032 0
5033 -1834 0
5033 -5029 0
5033 -5030 0
5033 -5031 0
5033 -5032 0
5034 -1741 -5035 0
-5034 1741 0
-5034 5035 0
5036 -5035 -5035 0
-5036 5035 0
-5036 5035 0
5037 -5035 -1741 0
-5037 5035 0
-5037 1741 0
5038 -1741 -1741 -5039 0
-5038 1741 0
-5038 1741 0
-5038 5039 0
-5040 1743 5034 5036 5037 5038 0
5040 -1743 0
5040 -5034 0
5040 -5036 0
5040 -5037 0
5040 -5038 0
5041 -1741 -5042 0
-5041 1741 0
-5041 5042 0
5043 -5035 -5042 0
-5043 5035 0
-5043 5042 0
5044 -5035 -1745 0
-5044 5035 0
-5044 1745 0
5045 -1741 -1745 -5039 0
-5045 1741 0
-5045 1745 0
-5045 5039 0
-1044 1746 5041 5043 5044 5045 0
1044 -1746 0
1044 -5041 0
1044 -5043 0
1044 -5044 0
1044 -5045 0
5046 -1741 -5047 0
-5046 1741 0
-5046 5047 0
5048 -5035 -1748 0
-5048 5035 0
-5048 1748 0
5049 -5035 -5047 0
-5049 5035 0
-5049 5047 0
5050 -1741 -1748 -5039 0
-5050 1741 0
-5050 1748 0
-5050 5039 0
-1042 1749 5046 5048 5049 5050 0
1042 -1749 0
1042 -5046 0
1042 -5048 0
1042 -5049 0
1042 -5050 0
5051 -1751 -5047 0
-5051 1751 0
-5051 5047 0
5052 -5053 -5047 0
-5052 5053 0
-5052 5047 0
5054 -5053 -1748 0
-5054 5053 0
-5054 1748 0
5055 -1751 -1748 -5039 0
-5055 1751 0
-5055 1748 0
-5055 5039 0
-1045 1752 5051 5052 5054 5055 0
1045 -1752 0
1045 -5051 0
1045 -5052 0
1045 -5054 0
1045 -5055 0
5056 -1745 -5053 0
-5056 1745 0
-5056 5053 0
5057 -5042 -1751 0
-5057 5042 0
-5057 1751 0
5058 -5042 -5053 0
-5058 5042 0
-5058 5053 0
5059 -1745 -1751 -5039 0
-5059 1745 0
-5059 1751 0
-5059 5039 0
-1043 1754 5056 5057 5058 5059 0
1043 -1754 0
1043 -5056 0
1043 -5057 0
1043 -5058 0
1043 -5059 0
5060 -1745 -5042 0
-5060 1745 0
-5060 5042 0
5061 -5042 -5042 0
-5061 5042 0
-5061 5042 0
5062 -5042 -1745 0
-5062 5042 0
-5062 1745 0
5063 -1745 -1745 -5039 0
-5063 1745 0
-5063 1745 0
-5063 5039 0
-5064 1757 5060 5061 5062 5063 0
5064 -1757 0
5064 -5060 0
5064 -5061 0
5064 -5062 0
5064 -5063 0
5065 -5066 -5067 0
-5065 5066 0
-5065 5067 0
5068 -5067 -5067 0
-5068 5067 0
-5068 5067 0
5069 -5067 -5066 0
-5069 5067 0
-5069 5066 0
5070 -5066 -5066 -5071 0
-5070 5066 0
-5070 5066 0
-5070 5071 0
-5072 5073 5065 5068 5069 5070 0
5072 -5073 0
5072 -5065 0
5072 -5068 0
5072 -5069 0
5072 -5070 0
5074 -5066 -5075 0
-5074 5066 0
-5074 5075 0
5076 -5067 -5075 0
-5076 5067 0
-5076 5075 0
5077 -5067 -5078 0
-5077 5067 0
-5077 5078 0
5079 -5066 -5078 -5071 0
-5079 5066 0
-5079 5078 0
-5079 5071 0
-49 5080 5074 5076 5077 5079 0
49 -5080 0
49 -5074 0
49 -5076 0
49 -5077 0
49 -5079 0
5081 -5066 -5082 0
-5081 5066 0
-5081 5082 0
5083 -5067 -5084 0
-5083 5067 0
-5083 5084 0
5085 -5067 -5082 0
-5085 5067 0
-5085 5082 0
5086 -5066 -5084 -5071 0
-5086 5066 0
-5086 5084 0
-5086 5071 0
-47 5087 5081 5083 5085 5086 0
47 -5087 0
47 -5081 0
47 -5083 0
47 -5085 0
47 -5086 0
5088 -5089 -5082 0
-5088 5089 0
-5088 5082 0
5090 -5091 -5082 0
-5090 5091 0
-5090 5082 0
5092 -5091 -5084 0
-5092 5091 0
-5092 5084 0
5093 -5089 -5084 -5071 0
-5093 5089 0
-5093 5084 0
-5093 5071 0
-50 5094 5088 5090 5092 5093 0
50 -5094 0
50 -5088 0
50 -5090 0
50 -5092 0
50 -5093 0
5095 -5078 -5091 0
-5095 5078 0
-5095 5091 0
5096 -5075 -5089 0
-5096 5075 0
-5096 5089 0
5097 -5075 -5091 0
-5097 5075 0
-5097 5091 0
5098 -5078 -5089 -5071 0
-5098 5078 0
-5098 5089 0
-5098 5071 0
-48 5099 5095 5096 5097 5098 0
48 -5099 0
48 -5095 0
48 -5096 0
48 -5097 0
48 -5098 0
5100 -5078 -5075 0
-5100 5078 0
-5100 5075 0
5101 -5075 -5075 0
-5101 5075 0
-5101 5075 0
5102 -5075 -5078 0
-5102 5075 0
-5102 5078 0
5103 -5078 -5078 -5071 0
-5103 5078 0
-5103 5078 0
-5103 5071 0
-5104 5105 5100 5101 5102 5103 0
5104 -5105 0
5104 -5100 0
5104 -5101 0
5104 -5102 0
5104 -5103 0
5106 -5107 -5107 0
-5106 5107 0
-5106 5107 0
-5108 5109 5106 0
5108 -5109 0
5108 -5106 0
5110 -5107 -5111 0
-5110 5107 0
-5110 5111 0
-1094 5112 5110 0
1094 -5112 0
1094 -5110 0
5113 -5107 -5114 0
-5113 5107 0
-5113 5114 0
-1092 5115 5113 0
1092 -5115 0
1092 -5113 0
5116 -5117 -5114 0
-5116 5117 0
-5116 5114 0
-1095 5118 5116 0
1095 -5118 0
1095 -5116 0
5119 -5111 -5117 0
-5119 5111 0
-5119 5117 0
-1093 5120 5119 0
1093 -5120 0
1093 -5119 0
5121 -5111 -5111 0
-5121 5111 0
-5121 5111 0
-5122 5123 5121 0
5122 -5123 0
5122 -5121 0
5124 -3145 -3145 0
-5124 3145 0
-5124 3145 0
-5125 3152 5124 0
5125 -3152 0
5125 -5124 0
5126 -3145 -3157 0
-5126 3145 0
-5126 3157 0
-874 3159 5126 0
874 -3159 0
874 -5126 0
5127 -3145 -3163 0
-5127 3145 0
-5127 3163 0
-872 3166 5127 0
872 -3166 0
872 -5127 0
5128 -3168 -3163 0
-5128 3168 0
-5128 3163 0
-875 3173 5128 0
875 -3173 0
875 -5128 0
5129 -3157 -3168 0
-5129 3157 0
-5129 3168 0
-873 3178 5129 0
873 -3178 0
873 -5129 0
5130 -3157 -3157 0
-5130 3157 0
-5130 3157 0
-5131 3184 5130 0
5131 -3184 0
5131 -5130 0
5132 -3340 -3333 0
-5132 3340 0
-5132 3333 0
3359 -3333 -3333 0
-3359 3333 0
-3359 3333 0
5133 -3333 -3340 0
-5133 3333 0
-5133 3340 0
5134 -3340 -3340 -3363 0
-5134 3340 0
-5134 3340 0
-5134 3363 0
-5135 3329 5132 3359 5133 5134 0
5135 -3329 0
5135 -5132 0
5135 -3359 0
5135 -5133 0
5135 -5134 0
5136 -3340 -3338 0
-5136 3340 0
-5136 3338 0
5137 -3333 -3338 0
-5137 3333 0
-5137 3338 0
5138 -3333 -3345 0
-5138 3333 0
-5138 3345 0
5139 -3340 -3345 -3363 0
-5139 3340 0
-5139 3345 0
-5139 3363 0
-844 3325 5136 5137 5138 5139 0
844 -3325 0
844 -5136 0
844 -5137 0
844 -5138 0
844 -5139 0
5140 -3340 -3357 0
-5140 3340 0
-5140 3357 0
5141 -3333 -3352 0
-5141 3333 0
-5141 3352 0
5142 -3333 -3357 0
-5142 3333 0
-5142 3357 0
5143 -3340 -3352 -3363 0
-5143 3340 0
-5143 3352 0
-5143 3363 0
-842 3349 5140 5141 5142 5143 0
842 -3349 0
842 -5140 0
842 -5141 0
842 -5142 0
842 -5143 0
5144 -3342 -3357 0
-5144 3342 0
-5144 3357 0
5145 -3336 -3357 0
-5145 3336 0
-5145 3357 0
5146 -3336 -3352 0
-5146 3336 0
-5146 3352 0
5147 -3342 -3352 -3363 0
-5147 3342 0
-5147 3352 0
-5147 3363 0
-845 3347 5144 5145 5146 5147 0
845 -3347 0
845 -5144 0
845 -5145 0
845 -5146 0
845 -5147 0
5148 -3345 -3336 0
-5148 3345 0
-5148 3336 0
5149 -3338 -3342 0
-5149 3338 0
-5149 3342 0
5150 -3338 -3336 0
-5150 3338 0
-5150 3336 0
5151 -3345 -3342 -3363 0
-5151 3345 0
-5151 3342 0
-5151 3363 0
-843 3324 5148 5149 5150 5151 0
843 -3324 0
843 -5148 0
843 -5149 0
843 -5150 0
843 -5151 0
5152 -3345 -3338 0
-5152 3345 0
-5152 3338 0
5153 -3338 -3338 0
-5153 3338 0
-5153 3338 0
5154 -3338 -3345 0
-5154 3338 0
-5154 3345 0
5155 -3345 -3345 -3363 0
-5155 3345 0
-5155 3345 0
-5155 3363 0
-5156 3331 5152 5153 5154 5155 0
5156 -3331 0
5156 -5152 0
5156 -5153 0
5156 -5154 0
5156 -5155 0
5157 -5158 -5158 0
-5157 5158 0
-5157 5158 0
-5159 5160 5157 0
5159 -5160 0
5159 -5157 0
5161 -5158 -5162 0
-5161 5158 0
-5161 5162 0
-1034 5163 5161 0
1034 -5163 0
1034 -5161 0
5164 -5158 -5165 0
-5164 5158 0
-5164 5165 0
-1032 5166 5164 0
1032 -5166 0
1032 -5164 0
5167 -5168 -5165 0
-5167 5168 0
-5167 5165 0
-1035 5169 5167 0
1035 -5169 0
1035 -5167 0
5170 -5162 -5168 0
-5170 5162 0
-5170 5168 0
-1033 5171 5170 0
1033 -5171 0
1033 -5170 0
5172 -5162 -5162 0
-5172 5162 0
-5172 5162 0
-5173 5174 5172 0
5173 -5174 0
5173 -5172 0
5175 -1784 -1784 0
-5175 1784 0
-5175 1784 0
-5176 1764 5175 0
5176 -1764 0
5176 -5175 0
5177 -1784 -1792 0
-5177 1784 0
-5177 1792 0
-159 1768 5177 0
159 -1768 0
159 -5177 0
5178 -1784 -1787 0
-5178 1784 0
-5178 1787 0
-157 1775 5178 0
157 -1775 0
157 -5178 0
5179 -1782 -1787 0
-5179 1782 0
-5179 1787 0
-160 1777 5179 0
160 -1777 0
160 -5179 0
5180 -1792 -1782 0
-5180 1792 0
-5180 1782 0
-158 1771 5180 0
158 -1771 0
158 -5180 0
5181 -1792 -1792 0
-5181 1792 0
-5181 1792 0
-5182 1798 5181 0
5182 -1798 0
5182 -5181 0
5183 -1421 -1414 0
-5183 1421 0
-5183 1414 0
2979 -1414 -1414 0
-2979 1414 0
-2979 1414 0
5184 -1414 -1421 0
-5184 1414 0
-5184 1421 0
5185 -1421 -1421 -1439 0
-5185 1421 0
-5185 1421 0
-5185 1439 0
-5186 1407 5183 2979 5184 5185 0
5186 -1407 0
5186 -5183 0
5186 -2979 0
5186 -5184 0
5186 -5185 0
5187 -1421 -1409 0
-5187 1421 0
-5187 1409 0
5188 -1414 -1409 0
-5188 1414 0
-5188 1409 0
5189 -1414 -1416 0
-5189 1414 0
-5189 1416 0
5190 -1421 -1416 -1439 0
-5190 1421 0
-5190 1416 0
-5190 1439 0
-404 1401 5187 5188 5189 5190 0
404 -1401 0
404 -5187 0
404 -5188 0
404 -5189 0
404 -5190 0
5191 -1421 -1412 0
-5191 1421 0
-5191 1412 0
5192 -1414 -1418 0
-5192 1414 0
-5192 1418 0
5193 -1414 -1412 0
-5193 1414 0
-5193 1412 0
5194 -1421 -1418 -1439 0
-5194 1421 0
-5194 1418 0
-5194 1439 0
-402 1400 5191 5192 5193 5194 0
402 -1400 0
402 -5191 0
402 -5192 0
402 -5193 0
402 -5194 0
5195 -1428 -1412 0
-5195 1428 0
-5195 1412 0
5196 -1433 -1412 0
-5196 1433 0
-5196 1412 0
5197 -1433 -1418 0
-5197 1433 0
-5197 1418 0
5198 -1428 -1418 -1439 0
-5198 1428 0
-5198 1418 0
-5198 1439 0
-405 1423 5195 5196 5197 5198 0
405 -1423 0
405 -5195 0
405 -5196 0
405 -5197 0
405 -5198 0
5199 -1416 -1433 0
-5199 1416 0
-5199 1433 0
5200 -1409 -1428 0
-5200 1409 0
-5200 1428 0
5201 -1409 -1433 0
-5201 1409 0
-5201 1433 0
5202 -1416 -1428 -1439 0
-5202 1416 0
-5202 1428 0
-5202 1439 0
-403 1425 5199 5200 5201 5202 0
403 -1425 0
403 -5199 0
403 -5200 0
403 -5201 0
403 -5202 0
5203 -1416 -1409 0
-5203 1416 0
-5203 1409 0
1435 -1409 -1409 0
-1435 1409 0
-1435 1409 0
5204 -1409 -1416 0
-5204 1409 0
-5204 1416 0
5205 -1416 -1416 -1439 0
-5205 1416 0
-5205 1416 0
-5205 1439 0
-5206 1405 5203 1435 5204 5205 0
5206 -1405 0
5206 -5203 0
5206 -1435 0
5206 -5204 0
5206 -5205 0
5207 -2943 -2943 0
-5207 2943 0
-5207 2943 0
-5208 2923 5207 0
5208 -2923 0
5208 -5207 0
5209 -2943 -2951 0
-5209 2943 0
-5209 2951 0
-849 2927 5209 0
849 -2927 0
849 -5209 0
5210 -2943 -2946 0
-5210 2943 0
-5210 2946 0
-847 2934 5210 0
847 -2934 0
847 -5210 0
5211 -2941 -2946 0
-5211 2941 0
-5211 2946 0
-850 2936 5211 0
850 -2936 0
850 -5211 0
5212 -2951 -2941 0
-5212 2951 0
-5212 2941 0
-848 2930 5212 0
848 -2930 0
848 -5212 0
5213 -2951 -2951 0
-5213 2951 0
-5213 2951 0
-5214 2957 5213 0
5214 -2957 0
5214 -5213 0
5215 -1584 -1560 0
-5215 1584 0
-5215 1560 0
1561 -1560 -1560 0
-1561 1560 0
-1561 1560 0
5216 -1560 -1584 0
-5216 1560 0
-5216 1584 0
5217 -1584 -1584 -1566 0
-5217 1584 0
-5217 1584 0
-5217 1566 0
-5218 1564 5215 1561 5216 5217 0
5218 -1564 0
5218 -5215 0
5218 -1561 0
5218 -5216 0
5218 -5217 0
5219 -1584 -1573 0
-5219 1584 0
-5219 1573 0
5220 -1560 -1573 0
-5220 1560 0
-5220 1573 0
5221 -1560 -1592 0
-5221 1560 0
-5221 1592 0
5222 -1584 -1592 -1566 0
-5222 1584 0
-5222 1592 0
-5222 1566 0
-629 1568 5219 5220 5221 5222 0
629 -1568 0
629 -5219 0
629 -5220 0
629 -5221 0
629 -5222 0
5223 -1584 -1580 0
-5223 1584 0
-5223 1580 0
5224 -1560 -1587 0
-5224 1560 0
-5224 1587 0
5225 -1560 -1580 0
-5225 1560 0
-5225 1580 0
5226 -1584 -1587 -1566 0
-5226 1584 0
-5226 1587 0
-5226 1566 0
-627 1575 5223 5224 5225 5226 0
627 -1575 0
627 -5223 0
627 -5224 0
627 -5225 0
627 -5226 0
5227 -1582 -1580 0
-5227 1582 0
-5227 1580 0
5228 -1559 -1580 0
-5228 1559 0
-5228 1580 0
5229 -1559 -1587 0
-5229 1559 0
-5229 1587 0
5230 -1582 -1587 -1566 0
-5230 1582 0
-5230 1587 0
-5230 1566 0
-630 1577 5227 5228 5229 5230 0
630 -1577 0
630 -5227 0
630 -5228 0
630 -5229 0
630 -5230 0
5231 -1592 -1559 0
-5231 1592 0
-5231 1559 0
5232 -1573 -1582 0
-5232 1573 0
-5232 1582 0
5233 -1573 -1559 0
-5233 1573 0
-5233 1559 0
5234 -1592 -1582 -1566 0
-5234 1592 0
-5234 1582 0
-5234 1566 0
-628 1571 5231 5232 5233 5234 0
628 -1571 0
628 -5231 0
628 -5232 0
628 -5233 0
628 -5234 0
5235 -1592 -1573 0
-5235 1592 0
-5235 1573 0
5236 -1573 -1573 0
-5236 1573 0
-5236 1573 0
5237 -1573 -1592 0
-5237 1573 0
-5237 1592 0
5238 -1592 -1592 -1566 0
-5238 1592 0
-5238 1592 0
-5238 1566 0
-5239 1598 5235 5236 5237 5238 0
5239 -1598 0
5239 -5235 0
5239 -5236 0
5239 -5237 0
5239 -5238 0
5240 -2455 -2455 0
-5240 2455 0
-5240 2455 0
-5241 2462 5240 0
5241 -2462 0
5241 -5240 0
5242 -2455 -2467 0
-5242 2455 0
-5242 2467 0
-744 2469 5242 0
744 -2469 0
744 -5242 0
5243 -2455 -2473 0
-5243 2455 0
-5243 2473 0
-742 2476 5243 0
742 -2476 0
742 -5243 0
5244 -2478 -2473 0
-5244 2478 0
-5244 2473 0
-745 2483 5244 0
745 -2483 0
745 -5244 0
5245 -2467 -2478 0
-5245 2467 0
-5245 2478 0
-743 2488 5245 0
743 -2488 0
743 -5245 0
5246 -2467 -2467 0
-5246 2467 0
-5246 2467 0
-5247 2494 5246 0
5247 -2494 0
5247 -5246 0
5248 -5249 -5249 0
-5248 5249 0
-5248 5249 0
-5250 5251 5248 0
5250 -5251 0
5250 -5248 0
5252 -5249 -5253 0
-5252 5249 0
-5252 5253 0
-784 5254 5252 0
784 -5254 0
784 -5252 0
5255 -5249 -5256 0
-5255 5249 0
-5255 5256 0
-782 5257 5255 0
782 -5257 0
782 -5255 0
5258 -5259 -5256 0
-5258 5259 0
-5258 5256 0
-785 5260 5258 0
785 -5260 0
785 -5258 0
5261 -5253 -5259 0
-5261 5253 0
-5261 5259 0
-783 5262 5261 0
783 -5262 0
783 -5261 0
5263 -5253 -5253 0
-5263 5253 0
-5263 5253 0
-5264 5265 5263 0
5264 -5265 0
5264 -5263 0
5266 -3590 -3590 0
-5266 3590 0
-5266 3590 0
-5267 3576 5266 0
5267 -3576 0
5267 -5266 0
5268 -3590 -3585 0
-5268 3590 0
-5268 3585 0
-854 3570 5268 0
854 -3570 0
854 -5268 0
5269 -3590 -3587 0
-5269 3590 0
-5269 3587 0
-852 3569 5269 0
852 -3569 0
852 -5269 0
5270 -3597 -3587 0
-5270 3597 0
-5270 3587 0
-855 3592 5270 0
855 -3592 0
855 -5270 0
5271 -3585 -3597 0
-5271 3585 0
-5271 3597 0
-853 3594 5271 0
853 -3594 0
853 -5271 0
5272 -3585 -3585 0
-5272 3585 0
-5272 3585 0
-5273 3574 5272 0
5273 -3574 0
5273 -5272 0
5274 -1382 -3773 0
-5274 1382 0
-5274 3773 0
4485 -3773 -3773 0
-4485 3773 0
-4485 3773 0
5275 -3773 -1382 0
-5275 3773 0
-5275 1382 0
5276 -1382 -1382 -3771 0
-5276 1382 0
-5276 1382 0
-5276 3771 0
-5277 1384 5274 4485 5275 5276 0
5277 -1384 0
5277 -5274 0
5277 -4485 0
5277 -5275 0
5277 -5276 0
5278 -1382 -4381 0
-5278 1382 0
-5278 4381 0
5279 -3773 -4381 0
-5279 3773 0
-5279 4381 0
5280 -3773 -1386 0
-5280 3773 0
-5280 1386 0
5281 -1382 -1386 -3771 0
-5281 1382 0
-5281 1386 0
-5281 3771 0
-184 1387 5278 5279 5280 5281 0
184 -1387 0
184 -5278 0
184 -5279 0
184 -5280 0
184 -5281 0
5282 -1382 -3769 0
-5282 1382 0
-5282 3769 0
5283 -3773 -1389 0
-5283 3773 0
-5283 1389 0
5284 -3773 -3769 0
-5284 3773 0
-5284 3769 0
5285 -1382 -1389 -3771 0
-5285 1382 0
-5285 1389 0
-5285 3771 0
-182 1390 5282 5283 5284 5285 0
182 -1390 0
182 -5282 0
182 -5283 0
182 -5284 0
182 -5285 0
5286 -1392 -3769 0
-5286 1392 0
-5286 3769 0
5287 -3775 -3769 0
-5287 3775 0
-5287 3769 0
5288 -3775 -1389 0
-5288 3775 0
-5288 1389 0
5289 -1392 -1389 -3771 0
-5289 1392 0
-5289 1389 0
-5289 3771 0
-185 1393 5286 5287 5288 5289 0
185 -1393 0
185 -5286 0
185 -5287 0
185 -5288 0
185 -5289 0
5290 -1386 -3775 0
-5290 1386 0
-5290 3775 0
5291 -4381 -1392 0
-5291 4381 0
-5291 1392 0
5292 -4381 -3775 0
-5292 4381 0
-5292 3775 0
5293 -1386 -1392 -3771 0
-5293 1386 0
-5293 1392 0
-5293 3771 0
-183 1395 5290 5291 5292 5293 0
183 -1395 0
183 -5290 0
183 -5291 0
183 -5292 0
183 -5293 0
5294 -1386 -4381 0
-5294 1386 0
-5294 4381 0
4614 -4381 -4381 0
-4614 4381 0
-4614 4381 0
5295 -4381 -1386 0
-5295 4381 0
-5295 1386 0
5296 -1386 -1386 -3771 0
-5296 1386 0
-5296 1386 0
-5296 3771 0
-5297 1398 5294 4614 5295 5296 0
5297 -1398 0
5297 -5294 0
5297 -4614 0
5297 -5295 0
5297 -5296 0
5298 -3832 -5299 0
-5298 3832 0
-5298 5299 0
5300 -5299 -5299 0
-5300 5299 0
-5300 5299 0
5301 -5299 -3832 0
-5301 5299 0
-5301 3832 0
5302 -3832 -3832 -5303 0
-5302 3832 0
-5302 3832 0
-5302 5303 0
-5304 3834 5298 5300 5301 5302 0
5304 -3834 0
5304 -5298 0
5304 -5300 0
5304 -5301 0
5304 -5302 0
5305 -3832 -5306 0
-5305 3832 0
-5305 5306 0
5307 -5299 -5306 0
-5307 5299 0
-5307 5306 0
5308 -5299 -3836 0
-5308 5299 0
-5308 3836 0
5309 -3832 -3836 -5303 0
-5309 3832 0
-5309 3836 0
-5309 5303 0
-64 3837 5305 5307 5308 5309 0
64 -3837 0
64 -5305 0
64 -5307 0
64 -5308 0
64 -5309 0
5310 -3832 -5311 0
-5310 3832 0
-5310 5311 0
5312 -5299 -3839 0
-5312 5299 0
-5312 3839 0
5313 -5299 -5311 0
-5313 5299 0
-5313 5311 0
5314 -3832 -3839 -5303 0
-5314 3832 0
-5314 3839 0
-5314 5303 0
-62 3840 5310 5312 5313 5314 0
62 -3840 0
62 -5310 0
62 -5312 0
62 -5313 0
62 -5314 0
5315 -3842 -5311 0
-5315 3842 0
-5315 5311 0
5316 -5317 -5311 0
-5316 5317 0
-5316 5311 0
5318 -5317 -3839 0
-5318 5317 0
-5318 3839 0
5319 -3842 -3839 -5303 0
-5319 3842 0
-5319 3839 0
-5319 5303 0
-65 3843 5315 5316 5318 5319 0
65 -3843 0
65 -5315 0
65 -5316 0
65 -5318 0
65 -5319 0
5320 -3836 -5317 0
-5320 3836 0
-5320 5317 0
5321 -5306 -3842 0
-5321 5306 0
-5321 3842 0
5322 -5306 -5317 0
-5322 5306 0
-5322 5317 0
5323 -3836 -3842 -5303 0
-5323 3836 0
-5323 3842 0
-5323 5303 0
-63 3845 5320 5321 5322 5323 0
63 -3845 0
63 -5320 0
63 -5321 0
63 -5322 0
63 -5323 0
5324 -3836 -5306 0
-5324 3836 0
-5324 5306 0
5325 -5306 -5306 0
-5325 5306 0
-5325 5306 0
5326 -5306 -3836 0
-5326 5306 0
-5326 3836 0
5327 -3836 -3836 -5303 0
-5327 3836 0
-5327 3836 0
-5327 5303 0
-5328 3848 5324 5325 5326 5327 0
5328 -3848 0
5328 -5324 0
5328 -5325 0
5328 -5326 0
5328 -5327 0
5329 -2578 -2578 0
-5329 2578 0
-5329 2578 0
-5330 2567 5329 0
5330 -2567 0
5330 -5329 0
5331 -2578 -2583 0
-5331 2578 0
-5331 2583 0
-384 2563 5331 0
384 -2563 0
384 -5331 0
5332 -2578 -2590 0
-5332 2578 0
-5332 2590 0
-382 2587 5332 0
382 -2587 0
382 -5332 0
5333 -2580 -2590 0
-5333 2580 0
-5333 2590 0
-385 2585 5333 0
385 -2585 0
385 -5333 0
5334 -2583 -2580 0
-5334 2583 0
-5334 2580 0
-383 2562 5334 0
383 -2562 0
383 -5334 0
5335 -2583 -2583 0
-5335 2583 0
-5335 2583 0
-5336 2569 5335 0
5336 -2569 0
5336 -5335 0
5337 -2070 -2052 0
-5337 2070 0
-5337 2052 0
2053 -2052 -2052 0
-2053 2052 0
-2053 2052 0
5338 -2052 -2070 0
-5338 2052 0
-5338 2070 0
5339 -2070 -2070 -1946 0
-5339 2070 0
-5339 2070 0
-5339 1946 0
-5340 2056 5337 2053 5338 5339 0
5340 -2056 0
5340 -5337 0
5340 -2053 0
5340 -5338 0
5340 -5339 0
5341 -2070 -1949 0
-5341 2070 0
-5341 1949 0
5342 -2052 -1949 0
-5342 2052 0
-5342 1949 0
5343 -2052 -1957 0
-5343 2052 0
-5343 1957 0
5344 -2070 -1957 -1946 0
-5344 2070 0
-5344 1957 0
-5344 1946 0
-924 2059 5341 5342 5343 5344 0
924 -2059 0
924 -5341 0
924 -5342 0
924 -5343 0
924 -5344 0
5345 -2070 -1952 0
-5345 2070 0
-5345 1952 0
5346 -2052 -1955 0
-5346 2052 0
-5346 1955 0
5347 -2052 -1952 0
-5347 2052 0
-5347 1952 0
5348 -2070 -1955 -1946 0
-5348 2070 0
-5348 1955 0
-5348 1946 0
-922 2064 5345 5346 5347 5348 0
922 -2064 0
922 -5345 0
922 -5346 0
922 -5347 0
922 -5348 0
5349 -1954 -1952 0
-5349 1954 0
-5349 1952 0
5350 -1944 -1952 0
-5350 1944 0
-5350 1952 0
5351 -1944 -1955 0
-5351 1944 0
-5351 1955 0
5352 -1954 -1955 -1946 0
-5352 1954 0
-5352 1955 0
-5352 1946 0
-925 1951 5349 5350 5351 5352 0
925 -1951 0
925 -5349 0
925 -5350 0
925 -5351 0
925 -5352 0
5353 -1957 -1944 0
-5353 1957 0
-5353 1944 0
5354 -1949 -1954 0
-5354 1949 0
-5354 1954 0
5355 -1949 -1944 0
-5355 1949 0
-5355 1944 0
5356 -1957 -1954 -1946 0
-5356 1957 0
-5356 1954 0
-5356 1946 0
-923 1948 5353 5354 5355 5356 0
923 -1948 0
923 -5353 0
923 -5354 0
923 -5355 0
923 -5356 0
5357 -1957 -1949 0
-5357 1957 0
-5357 1949 0
5358 -1949 -1949 0
-5358 1949 0
-5358 1949 0
5359 -1949 -1957 0
-5359 1949 0
-5359 1957 0
5360 -1957 -1957 -1946 0
-5360 1957 0
-5360 1957 0
-5360 1946 0
-5361 1960 5357 5358 5359 5360 0
5361 -1960 0
5361 -5357 0
5361 -5358 0
5361 -5359 0
5361 -5360 0
5362 -3610 -5363 0
-5362 3610 0
-5362 5363 0
5364 -5363 -5363 0
-5364 5363 0
-5364 5363 0
5365 -5363 -3610 0
-5365 5363 0
-5365 3610 0
5366 -3610 -3610 -5367 0
-5366 3610 0
-5366 3610 0
-5366 5367 0
-5368 3612 5362 5364 5365 5366 0
5368 -3612 0
5368 -5362 0
5368 -5364 0
5368 -5365 0
5368 -5366 0
5369 -3610 -5370 0
-5369 3610 0
-5369 5370 0
5371 -5363 -5370 0
-5371 5363 0
-5371 5370 0
5372 -5363 -3614 0
-5372 5363 0
-5372 3614 0
5373 -3610 -3614 -5367 0
-5373 3610 0
-5373 3614 0
-5373 5367 0
-704 3615 5369 5371 5372 5373 0
704 -3615 0
704 -5369 0
704 -5371 0
704 -5372 0
704 -5373 0
5374 -3610 -5375 0
-5374 3610 0
-5374 5375 0
5376 -5363 -3617 0
-5376 5363 0
-5376 3617 0
5377 -5363 -5375 0
-5377 5363 0
-5377 5375 0
5378 -3610 -3617 -5367 0
-5378 3610 0
-5378 3617 0
-5378 5367 0
-702 3618 5374 5376 5377 5378 0
702 -3618 0
702 -5374 0
702 -5376 0
702 -5377 0
702 -5378 0
5379 -3620 -5375 0
-5379 3620 0
-5379 5375 0
5380 -5381 -5375 0
-5380 5381 0
-5380 5375 0
5382 -5381 -3617 0
-5382 5381 0
-5382 3617 0
5383 -3620 -3617 -5367 0
-5383 3620 0
-5383 3617 0
-5383 5367 0
-705 3621 5379 5380 5382 5383 0
705 -3621 0
705 -5379 0
705 -5380 0
705 -5382 0
705 -5383 0
5384 -3614 -5381 0
-5384 3614 0
-5384 5381 0
5385 -5370 -3620 0
-5385 5370 0
-5385 3620 0
5386 -5370 -5381 0
-5386 5370 0
-5386 5381 0
5387 -3614 -3620 -5367 0
-5387 3614 0
-5387 3620 0
-5387 5367 0
-703 3623 5384 5385 5386 5387 0
703 -3623 0
703 -5384 0
703 -5385 0
703 -5386 0
703 -5387 0
5388 -3614 -5370 0
-5388 3614 0
-5388 5370 0
5389 -5370 -5370 0
-5389 5370 0
-5389 5370 0
5390 -5370 -3614 0
-5390 5370 0
-5390 3614 0
5391 -3614 -3614 -5367 0
-5391 3614 0
-5391 3614 0
-5391 5367 0
-5392 3626 5388 5389 5390 5391 0
5392 -3626 0
5392 -5388 0
5392 -5389 0
5392 -5390 0
5392 -5391 0
5393 -2135 -2135 0
-5393 2135 0
-5393 2135 0
-5394 2142 5393 0
5394 -2142 0
5394 -5393 0
5395 -2135 -2147 0
-5395 2135 0
-5395 2147 0
-1049 2149 5395 0
1049 -2149 0
1049 -5395 0
5396 -2135 -2153 0
-5396 2135 0
-5396 2153 0
-1047 2156 5396 0
1047 -2156 0
1047 -5396 0
5397 -2158 -2153 0
-5397 2158 0
-5397 2153 0
-1050 2163 5397 0
1050 -2163 0
1050 -5397 0
5398 -2147 -2158 0
-5398 2147 0
-5398 2158 0
-1048 2168 5398 0
1048 -2168 0
1048 -5398 0
5399 -2147 -2147 0
-5399 2147 0
-5399 2147 0
-5400 2174 5399 0
5400 -2174 0
5400 -5399 0
5401 -4576 -4576 0
-5401 4576 0
-5401 4576 0
-5402 4562 5401 0
5402 -4562 0
5402 -5401 0
5403 -4576 -2047 0
-5403 4576 0
-5403 2047 0
-969 4565 5403 0
969 -4565 0
969 -5403 0
5404 -4576 -2045 0
-5404 4576 0
-5404 2045 0
-967 4570 5404 0
967 -4570 0
967 -5404 0
5405 -2044 -2045 0
-5405 2044 0
-5405 2045 0
-970 2041 5405 0
970 -2041 0
970 -5405 0
5406 -2047 -2044 0
-5406 2047 0
-5406 2044 0
-968 2038 5406 0
968 -2038 0
968 -5406 0
5407 -2047 -2047 0
-5407 2047 0
-5407 2047 0
-5408 2050 5407 0
5408 -2050 0
5408 -5407 0
5409 -3349 -3349 0
-5409 3349 0
-5409 3349 0
-5410 3329 5409 0
5410 -3329 0
5410 -5409 0
5411 -3349 -3357 0
-5411 3349 0
-5411 3357 0
-1134 3333 5411 0
1134 -3333 0
1134 -5411 0
5412 -3349 -3352 0
-5412 3349 0
-5412 3352 0
-1132 3340 5412 0
1132 -3340 0
1132 -5412 0
5413 -3347 -3352 0
-5413 3347 0
-5413 3352 0
-1135 3342 5413 0
1135 -3342 0
1135 -5413 0
5414 -3357 -3347 0
-5414 3357 0
-5414 3347 0
-1133 3336 5414 0
1133 -3336 0
1133 -5414 0
5415 -3357 -3357 0
-5415 3357 0
-5415 3357 0
-5416 3363 5415 0
5416 -3363 0
5416 -5415 0
5417 -1931 -1913 0
-5417 1931 0
-5417 1913 0
1914 -1913 -1913 0
-1914 1913 0
-1914 1913 0
5418 -1913 -1931 0
-5418 1913 0
-5418 1931 0
5419 -1931 -1931 -1879 0
-5419 1931 0
-5419 1931 0
-5419 1879 0
-5420 1917 5417 1914 5418 5419 0
5420 -1917 0
5420 -5417 0
5420 -1914 0
5420 -5418 0
5420 -5419 0
5421 -1931 -1882 0
-5421 1931 0
-5421 1882 0
5422 -1913 -1882 0
-5422 1913 0
-5422 1882 0
5423 -1913 -1890 0
-5423 1913 0
-5423 1890 0
5424 -1931 -1890 -1879 0
-5424 1931 0
-5424 1890 0
-5424 1879 0
-884 1920 5421 5422 5423 5424 0
884 -1920 0
884 -5421 0
884 -5422 0
884 -5423 0
884 -5424 0
5425 -1931 -1885 0
-5425 1931 0
-5425 1885 0
5426 -1913 -1888 0
-5426 1913 0
-5426 1888 0
5427 -1913 -1885 0
-5427 1913 0
-5427 1885 0
5428 -1931 -1888 -1879 0
-5428 1931 0
-5428 1888 0
-5428 1879 0
-882 1925 5425 5426 5427 5428 0
882 -1925 0
882 -5425 0
882 -5426 0
882 -5427 0
882 -5428 0
5429 -1887 -1885 0
-5429 1887 0
-5429 1885 0
5430 -1877 -1885 0
-5430 1877 0
-5430 1885 0
5431 -1877 -1888 0
-5431 1877 0
-5431 1888 0
5432 -1887 -1888 -1879 0
-5432 1887 0
-5432 1888 0
-5432 1879 0
-885 1884 5429 5430 5431 5432 0
885 -1884 0
885 -5429 0
885 -5430 0
885 -5431 0
885 -5432 0
5433 -1890 -1877 0
-5433 1890 0
-5433 1877 0
5434 -1882 -1887 0
-5434 1882 0
-5434 1887 0
5435 -1882 -1877 0
-5435 1882 0
-5435 1877 0
5436 -1890 -1887 -1879 0
-5436 1890 0
-5436 1887 0
-5436 1879 0
-883 1881 5433 5434 5435 5436 0
883 -1881 0
883 -5433 0
883 -5434 0
883 -5435 0
883 -5436 0
5437 -1890 -1882 0
-5437 1890 0
-5437 1882 0
5438 -1882 -1882 0
-5438 1882 0
-5438 1882 0
5439 -1882 -1890 0
-5439 1882 0
-5439 1890 0
5440 -1890 -1890 -1879 0
-5440 1890 0
-5440 1890 0
-5440 1879 0
-5441 1893 5437 5438 5439 5440 0
5441 -1893 0
5441 -5437 0
5441 -5438 0
5441 -5439 0
5441 -5440 0
5442 -5443 -5444 0
-5442 5443 0
-5442 5444 0
5445 -5444 -5444 0
-5445 5444 0
-5445 5444 0
5446 -5444 -5443 0
-5446 5444 0
-5446 5443 0
5447 -5443 -5443 -5448 0
-5447 5443 0
-5447 5443 0
-5447 5448 0
-5449 5450 5442 5445 5446 5447 0
5449 -5450 0
5449 -5442 0
5449 -5445 0
5449 -5446 0
5449 -5447 0
5451 -5443 -5452 0
-5451 5443 0
-5451 5452 0
5453 -5444 -5452 0
-5453 5444 0
-5453 5452 0
5454 -5444 -5455 0
-5454 5444 0
-5454 5455 0
5456 -5443 -5455 -5448 0
-5456 5443 0
-5456 5455 0
-5456 5448 0
-819 5457 5451 5453 5454 5456 0
819 -5457 0
819 -5451 0
819 -5453 0
819 -5454 0
819 -5456 0
5458 -5443 -5459 0
-5458 5443 0
-5458 5459 0
5460 -5444 -5461 0
-5460 5444 0
-5460 5461 0
5462 -5444 -5459 0
-5462 5444 0
-5462 5459 0
5463 -5443 -5461 -5448 0
-5463 5443 0
-5463 5461 0
-5463 5448 0
-817 5464 5458 5460 5462 5463 0
817 -5464 0
817 -5458 0
817 -5460 0
817 -5462 0
817 -5463 0
5465 -5466 -5459 0
-5465 5466 0
-5465 5459 0
5467 -5468 -5459 0
-5467 5468 0
-5467 5459 0
5469 -5468 -5461 0
-5469 5468 0
-5469 5461 0
5470 -5466 -5461 -5448 0
-5470 5466 0
-5470 5461 0
-5470 5448 0
-820 5471 5465 5467 5469 5470 0
820 -5471 0
820 -5465 0
820 -5467 0
820 -5469 0
820 -5470 0
5472 -5455 -5468 0
-5472 5455 0
-5472 5468 0
5473 -5452 -5466 0
-5473 5452 0
-5473 5466 0
5474 -5452 -5468 0
-5474 5452 0
-5474 5468 0
5475 -5455 -5466 -5448 0
-5475 5455 0
-5475 5466 0
-5475 5448 0
-818 5476 5472 5473 5474 5475 0
818 -5476 0
818 -5472 0
818 -5473 0
818 -5474 0
818 -5475 0
5477 -5455 -5452 0
-5477 5455 0
-5477 5452 0
5478 -5452 -5452 0
-5478 5452 0
-5478 5452 0
5479 -5452 -5455 0
-5479 5452 0
-5479 5455 0
5480 -5455 -5455 -5448 0
-5480 5455 0
-5480 5455 0
-5480 5448 0
-5481 5482 5477 5478 5479 5480 0
5481 -5482 0
5481 -5477 0
5481 -5478 0
5481 -5479 0
5481 -5480 0
5483 -2688 -2688 0
-5483 2688 0
-5483 2688 0
-5484 2674 5483 0
5484 -2674 0
5484 -5483 0
5485 -2688 -1813 0
-5485 2688 0
-5485 1813 0
-484 2677 5485 0
484 -2677 0
484 -5485 0
5486 -2688 -1811 0
-5486 2688 0
-5486 1811 0
-482 2682 5486 0
482 -2682 0
482 -5486 0
5487 -1810 -1811 0
-5487 1810 0
-5487 1811 0
-485 1807 5487 0
485 -1807 0
485 -5487 0
5488 -1813 -1810 0
-5488 1813 0
-5488 1810 0
-483 1804 5488 0
483 -1804 0
483 -5488 0
5489 -1813 -1813 0
-5489 1813 0
-5489 1813 0
-5490 1816 5489 0
5490 -1816 0
5490 -5489 0
5491 -4576 -4558 0
-5491 4576 0
-5491 4558 0
4559 -4558 -4558 0
-4559 4558 0
-4559 4558 0
5492 -4558 -4576 0
-5492 4558 0
-5492 4576 0
5493 -4576 -4576 -2036 0
-5493 4576 0
-5493 4576 0
-5493 2036 0
-5494 4562 5491 4559 5492 5493 0
5494 -4562 0
5494 -5491 0
5494 -4559 0
5494 -5492 0
5494 -5493 0
5495 -4576 -2039 0
-5495 4576 0
-5495 2039 0
5496 -4558 -2039 0
-5496 4558 0
-5496 2039 0
5497 -4558 -2047 0
-5497 4558 0
-5497 2047 0
5498 -4576 -2047 -2036 0
-5498 4576 0
-5498 2047 0
-5498 2036 0
-599 4565 5495 5496 5497 5498 0
599 -4565 0
599 -5495 0
599 -5496 0
599 -5497 0
599 -5498 0
5499 -4576 -2042 0
-5499 4576 0
-5499 2042 0
5500 -4558 -2045 0
-5500 4558 0
-5500 2045 0
5501 -4558 -2042 0
-5501 4558 0
-5501 2042 0
5502 -4576 -2045 -2036 0
-5502 4576 0
-5502 2045 0
-5502 2036 0
-597 4570 5499 5500 5501 5502 0
597 -4570 0
597 -5499 0
597 -5500 0
597 -5501 0
597 -5502 0
5503 -2044 -2042 0
-5503 2044 0
-5503 2042 0
5504 -2034 -2042 0
-5504 2034 0
-5504 2042 0
5505 -2034 -2045 0
-5505 2034 0
-5505 2045 0
5506 -2044 -2045 -2036 0
-5506 2044 0
-5506 2045 0
-5506 2036 0
-600 2041 5503 5504 5505 5506 0
600 -2041 0
600 -5503 0
600 -5504 0
600 -5505 0
600 -5506 0
5507 -2047 -2034 0
-5507 2047 0
-5507 2034 0
5508 -2039 -2044 0
-5508 2039 0
-5508 2044 0
5509 -2039 -2034 0
-5509 2039 0
-5509 2034 0
5510 -2047 -2044 -2036 0
-5510 2047 0
-5510 2044 0
-5510 2036 0
-598 2038 5507 5508 5509 5510 0
598 -2038 0
598 -5507 0
598 -5508 0
598 -5509 0
598 -5510 0
5511 -2047 -2039 0
-5511 2047 0
-5511 2039 0
5512 -2039 -2039 0
-5512 2039 0
-5512 2039 0
5513 -2039 -2047 0
-5513 2039 0
-5513 2047 0
5514 -2047 -2047 -2036 0
-5514 2047 0
-5514 2047 0
-5514 2036 0
-5515 2050 5511 5512 5513 5514 0
5515 -2050 0
5515 -5511 0
5515 -5512 0
5515 -5513 0
5515 -5514 0
5516 -2934 -2934 0
-5516 2934 0
-5516 2934 0
-5517 2923 5516 0
5517 -2923 0
5517 -5516 0
5518 -2934 -2939 0
-5518 2934 0
-5518 2939 0
-829 2919 5518 0
829 -2919 0
829 -5518 0
5519 -2934 -2946 0
-5519 2934 0
-5519 2946 0
-827 2943 5519 0
827 -2943 0
827 -5519 0
5520 -2936 -2946 0
-5520 2936 0
-5520 2946 0
-830 2941 5520 0
830 -2941 0
830 -5520 0
5521 -2939 -2936 0
-5521 2939 0
-5521 2936 0
-828 2918 5521 0
828 -2918 0
828 -5521 0
5522 -2939 -2939 0
-5522 2939 0
-5522 2939 0
-5523 2925 5522 0
5523 -2925 0
5523 -5522 0
5524 -5158 -5525 0
-5524 5158 0
-5524 5525 0
5526 -5525 -5525 0
-5526 5525 0
-5526 5525 0
5527 -5525 -5158 0
-5527 5525 0
-5527 5158 0
5528 -5158 -5158 -5529 0
-5528 5158 0
-5528 5158 0
-5528 5529 0
-5530 5160 5524 5526 5527 5528 0
5530 -5160 0
5530 -5524 0
5530 -5526 0
5530 -5527 0
5530 -5528 0
5531 -5158 -5532 0
-5531 5158 0
-5531 5532 0
5533 -5525 -5532 0
-5533 5525 0
-5533 5532 0
5534 -5525 -5162 0
-5534 5525 0
-5534 5162 0
5535 -5158 -5162 -5529 0
-5535 5158 0
-5535 5162 0
-5535 5529 0
-699 5163 5531 5533 5534 5535 0
699 -5163 0
699 -5531 0
699 -5533 0
699 -5534 0
699 -5535 0
5536 -5158 -5537 0
-5536 5158 0
-5536 5537 0
5538 -5525 -5165 0
-5538 5525 0
-5538 5165 0
5539 -5525 -5537 0
-5539 5525 0
-5539 5537 0
5540 -5158 -5165 -5529 0
-5540 5158 0
-5540 5165 0
-5540 5529 0
-697 5166 5536 5538 5539 5540 0
697 -5166 0
697 -5536 0
697 -5538 0
697 -5539 0
697 -5540 0
5541 -5168 -5537 0
-5541 5168 0
-5541 5537 0
5542 -5543 -5537 0
-5542 5543 0
-5542 5537 0
5544 -5543 -5165 0
-5544 5543 0
-5544 5165 0
5545 -5168 -5165 -5529 0
-5545 5168 0
-5545 5165 0
-5545 5529 0
-700 5169 5541 5542 5544 5545 0
700 -5169 0
700 -5541 0
700 -5542 0
700 -5544 0
700 -5545 0
5546 -5162 -5543 0
-5546 5162 0
-5546 5543 0
5547 -5532 -5168 0
-5547 5532 0
-5547 5168 0
5548 -5532 -5543 0
-5548 5532 0
-5548 5543 0
5549 -5162 -5168 -5529 0
-5549 5162 0
-5549 5168 0
-5549 5529 0
-698 5171 5546 5547 5548 5549 0
698 -5171 0
698 -5546 0
698 -5547 0
698 -5548 0
698 -5549 0
5550 -5162 -5532 0
-5550 5162 0
-5550 5532 0
5551 -5532 -5532 0
-5551 5532 0
-5551 5532 0
5552 -5532 -5162 0
-5552 5532 0
-5552 5162 0
5553 -5162 -5162 -5529 0
-5553 5162 0
-5553 5162 0
-5553 5529 0
-5554 5174 5550 5551 5552 5553 0
5554 -5174 0
5554 -5550 0
5554 -5551 0
5554 -5552 0
5554 -5553 0
5555 -1559 -1559 0
-5555 1559 0
-5555 1559 0
-5556 1566 5555 0
5556 -1566 0
5556 -5555 0
5557 -1559 -1571 0
-5557 1559 0
-5557 1571 0
-909 1573 5557 0
909 -1573 0
909 -5557 0
5558 -1559 -1577 0
-5558 1559 0
-5558 1577 0
-907 1580 5558 0
907 -1580 0
907 -5558 0
5559 -1582 -1577 0
-5559 1582 0
-5559 1577 0
-910 1587 5559 0
910 -1587 0
910 -5559 0
5560 -1571 -1582 0
-5560 1571 0
-5560 1582 0
-908 1592 5560 0
908 -1592 0
908 -5560 0
5561 -1571 -1571 0
-5561 1571 0
-5561 1571 0
-5562 1598 5561 0
5562 -1598 0
5562 -5561 0
5563 -5564 -5565 0
-5563 5564 0
-5563 5565 0
5566 -5565 -5565 0
-5566 5565 0
-5566 5565 0
5567 -5565 -5564 0
-5567 5565 0
-5567 5564 0
5568 -5564 -5564 -5569 0
-5568 5564 0
-5568 5564 0
-5568 5569 0
-5570 5571 5563 5566 5567 5568 0
5570 -5571 0
5570 -5563 0
5570 -5566 0
5570 -5567 0
5570 -5568 0
5572 -5564 -5573 0
-5572 5564 0
-5572 5573 0
5574 -5565 -5573 0
-5574 5565 0
-5574 5573 0
5575 -5565 -5576 0
-5575 5565 0
-5575 5576 0
5577 -5564 -5576 -5569 0
-5577 5564 0
-5577 5576 0
-5577 5569 0
-659 5578 5572 5574 5575 5577 0
659 -5578 0
659 -5572 0
659 -5574 0
659 -5575 0
659 -5577 0
5579 -5564 -5580 0
-5579 5564 0
-5579 5580 0
5581 -5565 -5582 0
-5581 5565 0
-5581 5582 0
5583 -5565 -5580 0
-5583 5565 0
-5583 5580 0
5584 -5564 -5582 -5569 0
-5584 5564 0
-5584 5582 0
-5584 5569 0
-657 5585 5579 5581 5583 5584 0
657 -5585 0
657 -5579 0
657 -5581 0
657 -5583 0
657 -5584 0
5586 -5587 -5580 0
-5586 5587 0
-5586 5580 0
5588 -5589 -5580 0
-5588 5589 0
-5588 5580 0
5590 -5589 -5582 0
-5590 5589 0
-5590 5582 0
5591 -5587 -5582 -5569 0
-5591 5587 0
-5591 5582 0
-5591 5569 0
-660 5592 5586 5588 5590 5591 0
660 -5592 0
660 -5586 0
660 -5588 0
660 -5590 0
660 -5591 0
5593 -5576 -5589 0
-5593 5576 0
-5593 5589 0
5594 -5573 -5587 0
-5594 5573 0
-5594 5587 0
5595 -5573 -5589 0
-5595 5573 0
-5595 5589 0
5596 -5576 -5587 -5569 0
-5596 5576 0
-5596 5587 0
-5596 5569 0
-658 5597 5593 5594 5595 5596 0
658 -5597 0
658 -5593 0
658 -5594 0
658 -5595 0
658 -5596 0
5598 -5576 -5573 0
-5598 5576 0
-5598 5573 0
5599 -5573 -5573 0
-5599 5573 0
-5599 5573 0
5600 -5573 -5576 0
-5600 5573 0
-5600 5576 0
5601 -5576 -5576 -5569 0
-5601 5576 0
-5601 5576 0
-5601 5569 0
-5602 5603 5598 5599 5600 5601 0
5602 -5603 0
5602 -5598 0
5602 -5599 0
5602 -5600 0
5602 -5601 0
5604 -1223 -1223 0
-5604 1223 0
-5604 1223 0
-5605 1230 5604 0
5605 -1230 0
5605 -5604 0
5606 -1223 -1235 0
-5606 1223 0
-5606 1235 0
-959 1237 5606 0
959 -1237 0
959 -5606 0
5607 -1223 -1241 0
-5607 1223 0
-5607 1241 0
-957 1244 5607 0
957 -1244 0
957 -5607 0
5608 -1246 -1241 0
-5608 1246 0
-5608 1241 0
-960 1251 5608 0
960 -1251 0
960 -5608 0
5609 -1235 -1246 0
-5609 1235 0
-5609 1246 0
-958 1256 5609 0
958 -1256 0
958 -5609 0
5610 -1235 -1235 0
-5610 1235 0
-5610 1235 0
-5611 1262 5610 0
5611 -1262 0
5611 -5610 0
5612 -1700 -1700 0
-5612 1700 0
-5612 1700 0
-5613 1707 5612 0
5613 -1707 0
5613 -5612 0
5614 -1700 -1712 0
-5614 1700 0
-5614 1712 0
-1029 1714 5614 0
1029 -1714 0
1029 -5614 0
5615 -1700 -1718 0
-5615 1700 0
-5615 1718 0
-1027 1721 5615 0
1027 -1721 0
1027 -5615 0
5616 -1723 -1718 0
-5616 1723 0
-5616 1718 0
-1030 1728 5616 0
1030 -1728 0
1030 -5616 0
5617 -1712 -1723 0
-5617 1712 0
-5617 1723 0
-1028 1733 5617 0
1028 -1733 0
1028 -5617 0
5618 -1712 -1712 0
-5618 1712 0
-5618 1712 0
-5619 1739 5618 0
5619 -1739 0
5619 -5618 0
5620 -5107 -5621 0
-5620 5107 0
-5620 5621 0
5622 -5621 -5621 0
-5622 5621 0
-5622 5621 0
5623 -5621 -5107 0
-5623 5621 0
-5623 5107 0
5624 -5107 -5107 -5625 0
-5624 5107 0
-5624 5107 0
-5624 5625 0
-5626 5109 5620 5622 5623 5624 0
5626 -5109 0
5626 -5620 0
5626 -5622 0
5626 -5623 0
5626 -5624 0
5627 -5107 -5628 0
-5627 5107 0
-5627 5628 0
5629 -5621 -5628 0
-5629 5621 0
-5629 5628 0
5630 -5621 -5111 0
-5630 5621 0
-5630 5111 0
5631 -5107 -5111 -5625 0
-5631 5107 0
-5631 5111 0
-5631 5625 0
-789 5112 5627 5629 5630 5631 0
789 -5112 0
789 -5627 0
789 -5629 0
789 -5630 0
789 -5631 0
5632 -5107 -5633 0
-5632 5107 0
-5632 5633 0
5634 -5621 -5114 0
-5634 5621 0
-5634 5114 0
5635 -5621 -5633 0
-5635 5621 0
-5635 5633 0
5636 -5107 -5114 -5625 0
-5636 5107 0
-5636 5114 0
-5636 5625 0
-787 5115 5632 5634 5635 5636 0
787 -5115 0
787 -5632 0
787 -5634 0
787 -5635 0
787 -5636 0
5637 -5117 -5633 0
-5637 5117 0
-5637 5633 0
5638 -5639 -5633 0
-5638 5639 0
-5638 5633 0
5640 -5639 -5114 0
-5640 5639 0
-5640 5114 0
5641 -5117 -5114 -5625 0
-5641 5117 0
-5641 5114 0
-5641 5625 0
-790 5118 5637 5638 5640 5641 0
790 -5118 0
790 -5637 0
790 -5638 0
790 -5640 0
790 -5641 0
5642 -5111 -5639 0
-5642 5111 0
-5642 5639 0
5643 -5628 -5117 0
-5643 5628 0
-5643 5117 0
5644 -5628 -5639 0
-5644 5628 0
-5644 5639 0
5645 -5111 -5117 -5625 0
-5645 5111 0
-5645 5117 0
-5645 5625 0
-788 5120 5642 5643 5644 5645 0
788 -5120 0
788 -5642 0
788 -5643 0
788 -5644 0
788 -5645 0
5646 -5111 -5628 0
-5646 5111 0
-5646 5628 0
5647 -5628 -5628 0
-5647 5628 0
-5647 5628 0
5648 -5628 -5111 0
-5648 5628 0
-5648 5111 0
5649 -5111 -5111 -5625 0
-5649 5111 0
-5649 5111 0
-5649 5625 0
-5650 5123 5646 5647 5648 5649 0
5650 -5123 0
5650 -5646 0
5650 -5647 0
5650 -5648 0
5650 -5649 0
5651 -4198 -4180 0
-5651 4198 0
-5651 4180 0
4181 -4180 -4180 0
-4181 4180 0
-4181 4180 0
5652 -4180 -4198 0
-5652 4180 0
-5652 4198 0
5653 -4198 -4198 -3679 0
-5653 4198 0
-5653 4198 0
-5653 3679 0
-5654 4184 5651 4181 5652 5653 0
5654 -4184 0
5654 -5651 0
5654 -4181 0
5654 -5652 0
5654 -5653 0
5655 -4198 -3682 0
-5655 4198 0
-5655 3682 0
5656 -4180 -3682 0
-5656 4180 0
-5656 3682 0
5657 -4180 -3690 0
-5657 4180 0
-5657 3690 0
5658 -4198 -3690 -3679 0
-5658 4198 0
-5658 3690 0
-5658 3679 0
-164 4187 5655 5656 5657 5658 0
164 -4187 0
164 -5655 0
164 -5656 0
164 -5657 0
164 -5658 0
5659 -4198 -3685 0
-5659 4198 0
-5659 3685 0
5660 -4180 -3688 0
-5660 4180 0
-5660 3688 0
5661 -4180 -3685 0
-5661 4180 0
-5661 3685 0
5662 -4198 -3688 -3679 0
-5662 4198 0
-5662 3688 0
-5662 3679 0
-162 4192 5659 5660 5661 5662 0
162 -4192 0
162 -5659 0
162 -5660 0
162 -5661 0
162 -5662 0
5663 -3687 -3685 0
-5663 3687 0
-5663 3685 0
5664 -3677 -3685 0
-5664 3677 0
-5664 3685 0
5665 -3677 -3688 0
-5665 3677 0
-5665 3688 0
5666 -3687 -3688 -3679 0
-5666 3687 0
-5666 3688 0
-5666 3679 0
-165 3684 5663 5664 5665 5666 0
165 -3684 0
165 -5663 0
165 -5664 0
165 -5665 0
165 -5666 0
5667 -3690 -3677 0
-5667 3690 0
-5667 3677 0
5668 -3682 -3687 0
-5668 3682 0
-5668 3687 0
5669 -3682 -3677 0
-5669 3682 0
-5669 3677 0
5670 -3690 -3687 -3679 0
-5670 3690 0
-5670 3687 0
-5670 3679 0
-163 3681 5667 5668 5669 5670 0
163 -3681 0
163 -5667 0
163 -5668 0
163 -5669 0
163 -5670 0
5671 -3690 -3682 0
-5671 3690 0
-5671 3682 0
5672 -3682 -3682 0
-5672 3682 0
-5672 3682 0
5673 -3682 -3690 0
-5673 3682 0
-5673 3690 0
5674 -3690 -3690 -3679 0
-5674 3690 0
-5674 3690 0
-5674 3679 0
-5675 3693 5671 5672 5673 5674 0
5675 -3693 0
5675 -5671 0
5675 -5672 0
5675 -5673 0
5675 -5674 0
5676 -2918 -2918 0
-5676 2918 0
-5676 2918 0
-5677 2925 5676 0
5677 -2925 0
5677 -5676 0
5678 -2918 -2930 0
-5678 2918 0
-5678 2930 0
-929 2932 5678 0
929 -2932 0
929 -5678 0
5679 -2918 -2936 0
-5679 2918 0
-5679 2936 0
-927 2939 5679 0
927 -2939 0
927 -5679 0
5680 -2941 -2936 0
-5680 2941 0
-5680 2936 0
-930 2946 5680 0
930 -2946 0
930 -5680 0
5681 -2930 -2941 0
-5681 2930 0
-5681 2941 0
-928 2951 5681 0
928 -2951 0
928 -5681 0
5682 -2930 -2930 0
-5682 2930 0
-5682 2930 0
-5683 2957 5682 0
5683 -2957 0
5683 -5682 0
5684 -4022 -5685 0
-5684 4022 0
-5684 5685 0
5686 -5685 -5685 0
-5686 5685 0
-5686 5685 0
5687 -5685 -4022 0
-5687 5685 0
-5687 4022 0
5688 -4022 -4022 -5689 0
-5688 4022 0
-5688 4022 0
-5688 5689 0
-5690 4024 5684 5686 5687 5688 0
5690 -4024 0
5690 -5684 0
5690 -5686 0
5690 -5687 0
5690 -5688 0
5691 -4022 -5692 0
-5691 4022 0
-5691 5692 0
5693 -5685 -5692 0
-5693 5685 0
-5693 5692 0
5694 -5685 -4026 0
-5694 5685 0
-5694 4026 0
5695 -4022 -4026 -5689 0
-5695 4022 0
-5695 4026 0
-5695 5689 0
-314 4027 5691 5693 5694 5695 0
314 -4027 0
314 -5691 0
314 -5693 0
314 -5694 0
314 -5695 0
5696 -4022 -5697 0
-5696 4022 0
-5696 5697 0
5698 -5685 -4029 0
-5698 5685 0
-5698 4029 0
5699 -5685 -5697 0
-5699 5685 0
-5699 5697 0
5700 -4022 -4029 -5689 0
-5700 4022 0
-5700 4029 0
-5700 5689 0
-312 4030 5696 5698 5699 5700 0
312 -4030 0
312 -5696 0
312 -5698 0
312 -5699 0
312 -5700 0
5701 -4032 -5697 0
-5701 4032 0
-5701 5697 0
5702 -5703 -5697 0
-5702 5703 0
-5702 5697 0
5704 -5703 -4029 0
-5704 5703 0
-5704 4029 0
5705 -4032 -4029 -5689 0
-5705 4032 0
-5705 4029 0
-5705 5689 0
-315 4033 5701 5702 5704 5705 0
315 -4033 0
315 -5701 0
315 -5702 0
315 -5704 0
315 -5705 0
5706 -4026 -5703 0
-5706 4026 0
-5706 5703 0
5707 -5692 -4032 0
-5707 5692 0
-5707 4032 0
5708 -5692 -5703 0
-5708 5692 0
-5708 5703 0
5709 -4026 -4032 -5689 0
-5709 4026 0
-5709 4032 0
-5709 5689 0
-313 4035 5706 5707 5708 5709 0
313 -4035 0
313 -5706 0
313 -5707 0
313 -5708 0
313 -5709 0
5710 -4026 -5692 0
-5710 4026 0
-5710 5692 0
5711 -5692 -5692 0
-5711 5692 0
-5711 5692 0
5712 -5692 -4026 0
-5712 5692 0
-5712 4026 0
5713 -4026 -4026 -5689 0
-5713 4026 0
-5713 4026 0
-5713 5689 0
-5714 4038 5710 5711 5712 5713 0
5714 -4038 0
5714 -5710 0
5714 -5711 0
5714 -5712 0
5714 -5713 0
5715 -2639 -2621 0
-5715 2639 0
-5715 2621 0
2622 -2621 -2621 0
-2622 2621 0
-2622 2621 0
5716 -2621 -2639 0
-5716 2621 0
-5716 2639 0
5717 -2639 -2639 -2000 0
-5717 2639 0
-5717 2639 0
-5717 2000 0
-5718 2625 5715 2622 5716 5717 0
5718 -2625 0
5718 -5715 0
5718 -2622 0
5718 -5716 0
5718 -5717 0
5719 -2639 -2003 0
-5719 2639 0
-5719 2003 0
5720 -2621 -2003 0
-5720 2621 0
-5720 2003 0
5721 -2621 -2011 0
-5721 2621 0
-5721 2011 0
5722 -2639 -2011 -2000 0
-5722 2639 0
-5722 2011 0
-5722 2000 0
-134 2628 5719 5720 5721 5722 0
134 -2628 0
134 -5719 0
134 -5720 0
134 -5721 0
134 -5722 0
5723 -2639 -2006 0
-5723 2639 0
-5723 2006 0
5724 -2621 -2009 0
-5724 2621 0
-5724 2009 0
5725 -2621 -2006 0
-5725 2621 0
-5725 2006 0
5726 -2639 -2009 -2000 0
-5726 2639 0
-5726 2009 0
-5726 2000 0
-132 2633 5723 5724 5725 5726 0
132 -2633 0
132 -5723 0
132 -5724 0
132 -5725 0
132 -5726 0
5727 -2008 -2006 0
-5727 2008 0
-5727 2006 0
5728 -1998 -2006 0
-5728 1998 0
-5728 2006 0
5729 -1998 -2009 0
-5729 1998 0
-5729 2009 0
5730 -2008 -2009 -2000 0
-5730 2008 0
-5730 2009 0
-5730 2000 0
-135 2005 5727 5728 5729 5730 0
135 -2005 0
135 -5727 0
135 -5728 0
135 -5729 0
135 -5730 0
5731 -2011 -1998 0
-5731 2011 0
-5731 1998 0
5732 -2003 -2008 0
-5732 2003 0
-5732 2008 0
5733 -2003 -1998 0
-5733 2003 0
-5733 1998 0
5734 -2011 -2008 -2000 0
-5734 2011 0
-5734 2008 0
-5734 2000 0
-133 2002 5731 5732 5733 5734 0
133 -2002 0
133 -5731 0
133 -5732 0
133 -5733 0
133 -5734 0
5735 -2011 -2003 0
-5735 2011 0
-5735 2003 0
5736 -2003 -2003 0
-5736 2003 0
-5736 2003 0
5737 -2003 -2011 0
-5737 2003 0
-5737 2011 0
5738 -2011 -2011 -2000 0
-5738 2011 0
-5738 2011 0
-5738 2000 0
-5739 2014 5735 5736 5737 5738 0
5739 -2014 0
5739 -5735 0
5739 -5736 0
5739 -5737 0
5739 -5738 0
5740 -4856 -4856 0
-5740 4856 0
-5740 4856 0
-5741 4863 5740 0
5741 -4863 0
5741 -5740 0
5742 -4856 -4868 0
-5742 4856 0
-5742 4868 0
-649 4870 5742 0
649 -4870 0
649 -5742 0
5743 -4856 -4874 0
-5743 4856 0
-5743 4874 0
-647 4877 5743 0
647 -4877 0
647 -5743 0
5744 -4879 -4874 0
-5744 4879 0
-5744 4874 0
-650 4884 5744 0
650 -4884 0
650 -5744 0
5745 -4868 -4879 0
-5745 4868 0
-5745 4879 0
-648 4889 5745 0
648 -4889 0
648 -5745 0
5746 -4868 -4868 0
-5746 4868 0
-5746 4868 0
-5747 4895 5746 0
5747 -4895 0
5747 -5746 0
5748 -1908 -1900 0
-5748 1908 0
-5748 1900 0
3900 -1900 -1900 0
-3900 1900 0
-3900 1900 0
5749 -1900 -1908 0
-5749 1900 0
-5749 1908 0
5750 -1908 -1908 -1897 0
-5750 1908 0
-5750 1908 0
-5750 1897 0
-5751 1911 5748 3900 5749 5750 0
5751 -1911 0
5751 -5748 0
5751 -3900 0
5751 -5749 0
5751 -5750 0
5752 -1908 -3499 0
-5752 1908 0
-5752 3499 0
5753 -1900 -3499 0
-5753 1900 0
-5753 3499 0
5754 -1900 -3517 0
-5754 1900 0
-5754 3517 0
5755 -1908 -3517 -1897 0
-5755 1908 0
-5755 3517 0
-5755 1897 0
-29 3506 5752 5753 5754 5755 0
29 -3506 0
29 -5752 0
29 -5753 0
29 -5754 0
29 -5755 0
5756 -1908 -1895 0
-5756 1908 0
-5756 1895 0
5757 -1900 -1905 0
-5757 1900 0
-5757 1905 0
5758 -1900 -1895 0
-5758 1900 0
-5758 1895 0
5759 -1908 -1905 -1897 0
-5759 1908 0
-5759 1905 0
-5759 1897 0
-27 1899 5756 5757 5758 5759 0
27 -1899 0
27 -5756 0
27 -5757 0
27 -5758 0
27 -5759 0
5760 -1906 -1895 0
-5760 1906 0
-5760 1895 0
5761 -1903 -1895 0
-5761 1903 0
-5761 1895 0
5762 -1903 -1905 0
-5762 1903 0
-5762 1905 0
5763 -1906 -1905 -1897 0
-5763 1906 0
-5763 1905 0
-5763 1897 0
-30 1902 5760 5761 5762 5763 0
30 -1902 0
30 -5760 0
30 -5761 0
30 -5762 0
30 -5763 0
5764 -3517 -1903 0
-5764 3517 0
-5764 1903 0
5765 -3499 -1906 0
-5765 3499 0
-5765 1906 0
5766 -3499 -1903 0
-5766 3499 0
-5766 1903 0
5767 -3517 -1906 -1897 0
-5767 3517 0
-5767 1906 0
-5767 1897 0
-28 3511 5764 5765 5766 5767 0
28 -3511 0
28 -5764 0
28 -5765 0
28 -5766 0
28 -5767 0
5768 -3517 -3499 0
-5768 3517 0
-5768 3499 0
3500 -3499 -3499 0
-3500 3499 0
-3500 3499 0
5769 -3499 -3517 0
-5769 3499 0
-5769 3517 0
5770 -3517 -3517 -1897 0
-5770 3517 0
-5770 3517 0
-5770 1897 0
-5771 3503 5768 3500 5769 5770 0
5771 -3503 0
5771 -5768 0
5771 -3500 0
5771 -5769 0
5771 -5770 0
5772 -1421 -1421 0
-5772 1421 0
-5772 1421 0
-5773 1407 5772 0
5773 -1407 0
5773 -5772 0
5774 -1421 -1416 0
-5774 1421 0
-5774 1416 0
-839 1401 5774 0
839 -1401 0
839 -5774 0
5775 -1421 -1418 0
-5775 1421 0
-5775 1418 0
-837 1400 5775 0
837 -1400 0
837 -5775 0
5776 -1428 -1418 0
-5776 1428 0
-5776 1418 0
-840 1423 5776 0
840 -1423 0
840 -5776 0
5777 -1416 -1428 0
-5777 1416 0
-5777 1428 0
-838 1425 5777 0
838 -1425 0
838 -5777 0
5778 -1416 -1416 0
-5778 1416 0
-5778 1416 0
-5779 1405 5778 0
5779 -1405 0
5779 -5778 0
5780 -3602 -3602 0
-5780 3602 0
-5780 3602 0
-5781 3608 5780 0
5781 -3608 0
5781 -5780 0
5782 -3602 -3594 0
-5782 3602 0
-5782 3594 0
-934 3578 5782 0
934 -3578 0
934 -5782 0
5783 -3602 -3592 0
-5783 3602 0
-5783 3592 0
-932 3581 5783 0
932 -3581 0
932 -5783 0
5784 -3597 -3592 0
-5784 3597 0
-5784 3592 0
-935 3587 5784 0
935 -3587 0
935 -5784 0
5785 -3594 -3597 0
-5785 3594 0
-5785 3597 0
-933 3585 5785 0
933 -3585 0
933 -5785 0
5786 -3594 -3594 0
-5786 3594 0
-5786 3594 0
-5787 3574 5786 0
5787 -3574 0
5787 -5786 0
5788 -4149 -4149 0
-5788 4149 0
-5788 4149 0
-5789 4155 5788 0
5789 -4155 0
5789 -5788 0
5790 -4149 -3827 0
-5790 4149 0
-5790 3827 0
-439 4160 5790 0
439 -4160 0
439 -5790 0
5791 -4149 -3825 0
-5791 4149 0
-5791 3825 0
-437 4165 5791 0
437 -4165 0
437 -5791 0
5792 -3824 -3825 0
-5792 3824 0
-5792 3825 0
-440 3821 5792 0
440 -3821 0
440 -5792 0
5793 -3827 -3824 0
-5793 3827 0
-5793 3824 0
-438 3818 5793 0
438 -3818 0
438 -5793 0
5794 -3827 -3827 0
-5794 3827 0
-5794 3827 0
-5795 3830 5794 0
5795 -3830 0
5795 -5794 0
5796 -4198 -4198 0
-5796 4198 0
-5796 4198 0
-5797 4184 5796 0
5797 -4184 0
5797 -5796 0
5798 -4198 -3690 0
-5798 4198 0
-5798 3690 0
-499 4187 5798 0
499 -4187 0
499 -5798 0
5799 -4198 -3688 0
-5799 4198 0
-5799 3688 0
-497 4192 5799 0
497 -4192 0
497 -5799 0
5800 -3687 -3688 0
-5800 3687 0
-5800 3688 0
-500 3684 5800 0
500 -3684 0
500 -5800 0
5801 -3690 -3687 0
-5801 3690 0
-5801 3687 0
-498 3681 5801 0
498 -3681 0
498 -5801 0
5802 -3690 -3690 0
-5802 3690 0
-5802 3690 0
-5803 3693 5802 0
5803 -3693 0
5803 -5802 0
5804 -5805 -5806 0
-5804 5805 0
-5804 5806 0
5807 -5806 -5806 0
-5807 5806 0
-5807 5806 0
5808 -5806 -5805 0
-5808 5806 0
-5808 5805 0
5809 -5805 -5805 -5810 0
-5809 5805 0
-5809 5805 0
-5809 5810 0
-5811 5812 5804 5807 5808 5809 0
5811 -5812 0
5811 -5804 0
5811 -5807 0
5811 -5808 0
5811 -5809 0
5813 -5805 -5814 0
-5813 5805 0
-5813 5814 0
5815 -5806 -5814 0
-5815 5806 0
-5815 5814 0
5816 -5806 -5817 0
-5816 5806 0
-5816 5817 0
5818 -5805 -5817 -5810 0
-5818 5805 0
-5818 5817 0
-5818 5810 0
-304 5819 5813 5815 5816 5818 0
304 -5819 0
304 -5813 0
304 -5815 0
304 -5816 0
304 -5818 0
5820 -5805 -5821 0
-5820 5805 0
-5820 5821 0
5822 -5806 -5823 0
-5822 5806 0
-5822 5823 0
5824 -5806 -5821 0
-5824 5806 0
-5824 5821 0
5825 -5805 -5823 -5810 0
-5825 5805 0
-5825 5823 0
-5825 5810 0
-302 5826 5820 5822 5824 5825 0
302 -5826 0
302 -5820 0
302 -5822 0
302 -5824 0
302 -5825 0
5827 -5828 -5821 0
-5827 5828 0
-5827 5821 0
5829 -5830 -5821 0
-5829 5830 0
-5829 5821 0
5831 -5830 -5823 0
-5831 5830 0
-5831 5823 0
5832 -5828 -5823 -5810 0
-5832 5828 0
-5832 5823 0
-5832 5810 0
-305 5833 5827 5829 5831 5832 0
305 -5833 0
305 -5827 0
305 -5829 0
305 -5831 0
305 -5832 0
5834 -5817 -5830 0
-5834 5817 0
-5834 5830 0
5835 -5814 -5828 0
-5835 5814 0
-5835 5828 0
5836 -5814 -5830 0
-5836 5814 0
-5836 5830 0
5837 -5817 -5828 -5810 0
-5837 5817 0
-5837 5828 0
-5837 5810 0
-303 5838 5834 5835 5836 5837 0
303 -5838 0
303 -5834 0
303 -5835 0
303 -5836 0
303 -5837 0
5839 -5817 -5814 0
-5839 5817 0
-5839 5814 0
5840 -5814 -5814 0
-5840 5814 0
-5840 5814 0
5841 -5814 -5817 0
-5841 5814 0
-5841 5817 0
5842 -5817 -5817 -5810 0
-5842 5817 0
-5842 5817 0
-5842 5810 0
-5843 5844 5839 5840 5841 5842 0
5843 -5844 0
5843 -5839 0
5843 -5840 0
5843 -5841 0
5843 -5842 0
5845 -1908 -1908 0
-5845 1908 0
-5845 1908 0
-5846 1911 5845 0
5846 -1911 0
5846 -5845 0
5847 -1908 -3517 0
-5847 1908 0
-5847 3517 0
-179 3506 5847 0
179 -3506 0
179 -5847 0
5848 -1908 -1905 0
-5848 1908 0
-5848 1905 0
-177 1899 5848 0
177 -1899 0
177 -5848 0
5849 -1906 -1905 0
-5849 1906 0
-5849 1905 0
-180 1902 5849 0
180 -1902 0
180 -5849 0
5850 -3517 -1906 0
-5850 3517 0
-5850 1906 0
-178 3511 5850 0
178 -3511 0
178 -5850 0
5851 -3517 -3517 0
-5851 3517 0
-5851 3517 0
-5852 3503 5851 0
5852 -3503 0
5852 -5851 0
5853 -1323 -1323 0
-5853 1323 0
-5853 1323 0
-5854 1330 5853 0
5854 -1330 0
5854 -5853 0
5855 -1323 -1335 0
-5855 1323 0
-5855 1335 0
-1089 1337 5855 0
1089 -1337 0
1089 -5855 0
5856 -1323 -1341 0
-5856 1323 0
-5856 1341 0
-1087 1344 5856 0
1087 -1344 0
1087 -5856 0
5857 -1346 -1341 0
-5857 1346 0
-5857 1341 0
-1090 1351 5857 0
1090 -1351 0
1090 -5857 0
5858 -1335 -1346 0
-5858 1335 0
-5858 1346 0
-1088 1356 5858 0
1088 -1356 0
1088 -5858 0
5859 -1335 -1335 0
-5859 1335 0
-5859 1335 0
-5860 1362 5859 0
5860 -1362 0
5860 -5859 0
5861 -2701 -2701 0
-5861 2701 0
-5861 2701 0
-5862 2708 5861 0
5862 -2708 0
5862 -5861 0
5863 -2701 -2713 0
-5863 2701 0
-5863 2713 0
-1189 2715 5863 0
1189 -2715 0
1189 -5863 0
5864 -2701 -2719 0
-5864 2701 0
-5864 2719 0
-1187 2722 5864 0
1187 -2722 0
1187 -5864 0
5865 -2724 -2719 0
-5865 2724 0
-5865 2719 0
-1190 2729 5865 0
1190 -2729 0
1190 -5865 0
5866 -2713 -2724 0
-5866 2713 0
-5866 2724 0
-1188 2734 5866 0
1188 -2734 0
1188 -5866 0
5867 -2713 -2713 0
-5867 2713 0
-5867 2713 0
-5868 2740 5867 0
5868 -2740 0
5868 -5867 0
5869 -3814 -4150 0
-5869 3814 0
-5869 4150 0
4151 -4150 -4150 0
-4151 4150 0
-4151 4150 0
5870 -4150 -3814 0
-5870 4150 0
-5870 3814 0
5871 -3814 -3814 -4155 0
-5871 3814 0
-5871 3814 0
-5871 4155 0
-5872 3816 5869 4151 5870 5871 0
5872 -3816 0
5872 -5869 0
5872 -4151 0
5872 -5870 0
5872 -5871 0
5873 -3814 -4160 0
-5873 3814 0
-5873 4160 0
5874 -4150 -4160 0
-5874 4150 0
-5874 4160 0
5875 -4150 -3818 0
-5875 4150 0
-5875 3818 0
5876 -3814 -3818 -4155 0
-5876 3814 0
-5876 3818 0
-5876 4155 0
-204 3819 5873 5874 5875 5876 0
204 -3819 0
204 -5873 0
204 -5874 0
204 -5875 0
204 -5876 0
5877 -3814 -4165 0
-5877 3814 0
-5877 4165 0
5878 -4150 -3821 0
-5878 4150 0
-5878 3821 0
5879 -4150 -4165 0
-5879 4150 0
-5879 4165 0
5880 -3814 -3821 -4155 0
-5880 3814 0
-5880 3821 0
-5880 4155 0
-202 3822 5877 5878 5879 5880 0
202 -3822 0
202 -5877 0
202 -5878 0
202 -5879 0
202 -5880 0
5881 -3824 -4165 0
-5881 3824 0
-5881 4165 0
5882 -4149 -4165 0
-5882 4149 0
-5882 4165 0
5883 -4149 -3821 0
-5883 4149 0
-5883 3821 0
5884 -3824 -3821 -4155 0
-5884 3824 0
-5884 3821 0
-5884 4155 0
-205 3825 5881 5882 5883 5884 0
205 -3825 0
205 -5881 0
205 -5882 0
205 -5883 0
205 -5884 0
5885 -3818 -4149 0
-5885 3818 0
-5885 4149 0
5886 -4160 -3824 0
-5886 4160 0
-5886 3824 0
5887 -4160 -4149 0
-5887 4160 0
-5887 4149 0
5888 -3818 -3824 -4155 0
-5888 3818 0
-5888 3824 0
-5888 4155 0
-203 3827 5885 5886 5887 5888 0
203 -3827 0
203 -5885 0
203 -5886 0
203 -5887 0
203 -5888 0
5889 -3818 -4160 0
-5889 3818 0
-5889 4160 0
5890 -4160 -4160 0
-5890 4160 0
-5890 4160 0
5891 -4160 -3818 0
-5891 4160 0
-5891 3818 0
5892 -3818 -3818 -4155 0
-5892 3818 0
-5892 3818 0
-5892 4155 0
-5893 3830 5889 5890 5891 5892 0
5893 -3830 0
5893 -5889 0
5893 -5890 0
5893 -5891 0
5893 -5892 0
5894 -3720 -3720 0
-5894 3720 0
-5894 3720 0
-5895 3727 5894 0
5895 -3727 0
5895 -5894 0
5896 -3720 -3732 0
-5896 3720 0
-5896 3732 0
-1079 3734 5896 0
1079 -3734 0
1079 -5896 0
5897 -3720 -3738 0
-5897 3720 0
-5897 3738 0
-1077 3741 5897 0
1077 -3741 0
1077 -5897 0
5898 -3743 -3738 0
-5898 3743 0
-5898 3738 0
-1080 3748 5898 0
1080 -3748 0
1080 -5898 0
5899 -3732 -3743 0
-5899 3732 0
-5899 3743 0
-1078 3753 5899 0
1078 -3753 0
1078 -5899 0
5900 -3732 -3732 0
-5900 3732 0
-5900 3732 0
-5901 3759 5900 0
5901 -3759 0
5901 -5900 0
5902 -3349 -3325 0
-5902 3349 0
-5902 3325 0
3326 -3325 -3325 0
-3326 3325 0
-3326 3325 0
5903 -3325 -3349 0
-5903 3325 0
-5903 3349 0
5904 -3349 -3349 -3331 0
-5904 3349 0
-5904 3349 0
-5904 3331 0
-5905 3329 5902 3326 5903 5904 0
5905 -3329 0
5905 -5902 0
5905 -3326 0
5905 -5903 0
5905 -5904 0
5906 -3349 -3338 0
-5906 3349 0
-5906 3338 0
5907 -3325 -3338 0
-5907 3325 0
-5907 3338 0
5908 -3325 -3357 0
-5908 3325 0
-5908 3357 0
5909 -3349 -3357 -3331 0
-5909 3349 0
-5909 3357 0
-5909 3331 0
-864 3333 5906 5907 5908 5909 0
864 -3333 0
864 -5906 0
864 -5907 0
864 -5908 0
864 -5909 0
5910 -3349 -3345 0
-5910 3349 0
-5910 3345 0
5911 -3325 -3352 0
-5911 3325 0
-5911 3352 0
5912 -3325 -3345 0
-5912 3325 0
-5912 3345 0
5913 -3349 -3352 -3331 0
-5913 3349 0
-5913 3352 0
-5913 3331 0
-862 3340 5910 5911 5912 5913 0
862 -3340 0
862 -5910 0
862 -5911 0
862 -5912 0
862 -5913 0
5914 -3347 -3345 0
-5914 3347 0
-5914 3345 0
5915 -3324 -3345 0
-5915 3324 0
-5915 3345 0
5916 -3324 -3352 0
-5916 3324 0
-5916 3352 0
5917 -3347 -3352 -3331 0
-5917 3347 0
-5917 3352 0
-5917 3331 0
-865 3342 5914 5915 5916 5917 0
865 -3342 0
865 -5914 0
865 -5915 0
865 -5916 0
865 -5917 0
5918 -3357 -3324 0
-5918 3357 0
-5918 3324 0
5919 -3338 -3347 0
-5919 3338 0
-5919 3347 0
5920 -3338 -3324 0
-5920 3338 0
-5920 3324 0
5921 -3357 -3347 -3331 0
-5921 3357 0
-5921 3347 0
-5921 3331 0
-863 3336 5918 5919 5920 5921 0
863 -3336 0
863 -5918 0
863 -5919 0
863 -5920 0
863 -5921 0
5922 -3357 -3338 0
-5922 3357 0
-5922 3338 0
5153 -3338 -3338 0
-5153 3338 0
-5153 3338 0
5923 -3338 -3357 0
-5923 3338 0
-5923 3357 0
5924 -3357 -3357 -3331 0
-5924 3357 0
-5924 3357 0
-5924 3331 0
-5925 3363 5922 5153 5923 5924 0
5925 -3363 0
5925 -5922 0
5925 -5153 0
5925 -5923 0
5925 -5924 0
5926 -1500 -1500 0
-5926 1500 0
-5926 1500 0
-5927 1507 5926 0
5927 -1507 0
5927 -5926 0
5928 -1500 -1512 0
-5928 1500 0
-5928 1512 0
-894 1514 5928 0
894 -1514 0
894 -5928 0
5929 -1500 -1518 0
-5929 1500 0
-5929 1518 0
-892 1521 5929 0
892 -1521 0
892 -5929 0
5930 -1523 -1518 0
-5930 1523 0
-5930 1518 0
-895 1528 5930 0
895 -1528 0
895 -5930 0
5931 -1512 -1523 0
-5931 1512 0
-5931 1523 0
-893 1533 5931 0
893 -1533 0
893 -5931 0
5932 -1512 -1512 0
-5932 1512 0
-5932 1512 0
-5933 1539 5932 0
5933 -1539 0
5933 -5932 0
5934 -3646 -3646 0
-5934 3646 0
-5934 3646 0
-5935 3632 5934 0
5935 -3632 0
5935 -5934 0
5936 -3646 -1318 0
-5936 3646 0
-5936 1318 0
-544 3635 5936 0
544 -3635 0
544 -5936 0
5937 -3646 -1316 0
-5937 3646 0
-5937 1316 0
-542 3640 5937 0
542 -3640 0
542 -5937 0
5938 -1315 -1316 0
-5938 1315 0
-5938 1316 0
-545 1312 5938 0
545 -1312 0
545 -5938 0
5939 -1318 -1315 0
-5939 1318 0
-5939 1315 0
-543 1309 5939 0
543 -1309 0
543 -5939 0
5940 -1318 -1318 0
-5940 1318 0
-5940 1318 0
-5941 1321 5940 0
5941 -1321 0
5941 -5940 0
5942 -2265 -2265 0
-5942 2265 0
-5942 2265 0
-5943 2271 5942 0
5943 -2271 0
5943 -5942 0
5944 -2265 -1454 0
-5944 2265 0
-5944 1454 0
-119 2276 5944 0
119 -2276 0
119 -5944 0
5945 -2265 -1452 0
-5945 2265 0
-5945 1452 0
-117 2281 5945 0
117 -2281 0
117 -5945 0
5946 -1451 -1452 0
-5946 1451 0
-5946 1452 0
-120 1448 5946 0
120 -1448 0
120 -5946 0
5947 -1454 -1451 0
-5947 1454 0
-5947 1451 0
-118 1445 5947 0
118 -1445 0
118 -5947 0
5948 -1454 -1454 0
-5948 1454 0
-5948 1454 0
-5949 1457 5948 0
5949 -1457 0
5949 -5948 0
5950 -1525 -1501 0
-5950 1525 0
-5950 1501 0
1502 -1501 -1501 0
-1502 1501 0
-1502 1501 0
5951 -1501 -1525 0
-5951 1501 0
-5951 1525 0
5952 -1525 -1525 -1507 0
-5952 1525 0
-5952 1525 0
-5952 1507 0
-5953 1505 5950 1502 5951 5952 0
5953 -1505 0
5953 -5950 0
5953 -1502 0
5953 -5951 0
5953 -5952 0
5954 -1525 -1514 0
-5954 1525 0
-5954 1514 0
5955 -1501 -1514 0
-5955 1501 0
-5955 1514 0
5956 -1501 -1533 0
-5956 1501 0
-5956 1533 0
5957 -1525 -1533 -1507 0
-5957 1525 0
-5957 1533 0
-5957 1507 0
-609 1509 5954 5955 5956 5957 0
609 -1509 0
609 -5954 0
609 -5955 0
609 -5956 0
609 -5957 0
5958 -1525 -1521 0
-5958 1525 0
-5958 1521 0
5959 -1501 -1528 0
-5959 1501 0
-5959 1528 0
5960 -1501 -1521 0
-5960 1501 0
-5960 1521 0
5961 -1525 -1528 -1507 0
-5961 1525 0
-5961 1528 0
-5961 1507 0
-607 1516 5958 5959 5960 5961 0
607 -1516 0
607 -5958 0
607 -5959 0
607 -5960 0
607 -5961 0
5962 -1523 -1521 0
-5962 1523 0
-5962 1521 0
5963 -1500 -1521 0
-5963 1500 0
-5963 1521 0
5964 -1500 -1528 0
-5964 1500 0
-5964 1528 0
5965 -1523 -1528 -1507 0
-5965 1523 0
-5965 1528 0
-5965 1507 0
-610 1518 5962 5963 5964 5965 0
610 -1518 0
610 -5962 0
610 -5963 0
610 -5964 0
610 -5965 0
5966 -1533 -1500 0
-5966 1533 0
-5966 1500 0
5967 -1514 -1523 0
-5967 1514 0
-5967 1523 0
5968 -1514 -1500 0
-5968 1514 0
-5968 1500 0
5969 -1533 -1523 -1507 0
-5969 1533 0
-5969 1523 0
-5969 1507 0
-608 1512 5966 5967 5968 5969 0
608 -1512 0
608 -5966 0
608 -5967 0
608 -5968 0
608 -5969 0
5970 -1533 -1514 0
-5970 1533 0
-5970 1514 0
5971 -1514 -1514 0
-5971 1514 0
-5971 1514 0
5972 -1514 -1533 0
-5972 1514 0
-5972 1533 0
5973 -1533 -1533 -1507 0
-5973 1533 0
-5973 1533 0
-5973 1507 0
-5974 1539 5970 5971 5972 5973 0
5974 -1539 0
5974 -5970 0
5974 -5971 0
5974 -5972 0
5974 -5973 0
5975 -5443 -5443 0
-5975 5443 0
-5975 5443 0
-5976 5450 5975 0
5976 -5450 0
5976 -5975 0
5977 -5443 -5455 0
-5977 5443 0
-5977 5455 0
-1114 5457 5977 0
1114 -5457 0
1114 -5977 0
5978 -5443 -5461 0
-5978 5443 0
-5978 5461 0
-1112 5464 5978 0
1112 -5464 0
1112 -5978 0
5979 -5466 -5461 0
-5979 5466 0
-5979 5461 0
-1115 5471 5979 0
1115 -5471 0
1115 -5979 0
5980 -5455 -5466 0
-5980 5455 0
-5980 5466 0
-1113 5476 5980 0
1113 -5476 0
1113 -5980 0
5981 -5455 -5455 0
-5981 5455 0
-5981 5455 0
-5982 5482 5981 0
5982 -5482 0
5982 -5981 0
5983 -3253 -4801 0
-5983 3253 0
-5983 4801 0
4802 -4801 -4801 0
-4802 4801 0
-4802 4801 0
5984 -4801 -3253 0
-5984 4801 0
-5984 3253 0
5985 -3253 -3253 -4806 0
-5985 3253 0
-5985 3253 0
-5985 4806 0
-5986 3255 5983 4802 5984 5985 0
5986 -3255 0
5986 -5983 0
5986 -4802 0
5986 -5984 0
5986 -5985 0
5987 -3253 -4811 0
-5987 3253 0
-5987 4811 0
5988 -4801 -4811 0
-5988 4801 0
-5988 4811 0
5989 -4801 -3257 0
-5989 4801 0
-5989 3257 0
5990 -3253 -3257 -4806 0
-5990 3253 0
-5990 3257 0
-5990 4806 0
-174 3258 5987 5988 5989 5990 0
174 -3258 0
174 -5987 0
174 -5988 0
174 -5989 0
174 -5990 0
5991 -3253 -4816 0
-5991 3253 0
-5991 4816 0
5992 -4801 -3260 0
-5992 4801 0
-5992 3260 0
5993 -4801 -4816 0
-5993 4801 0
-5993 4816 0
5994 -3253 -3260 -4806 0
-5994 3253 0
-5994 3260 0
-5994 4806 0
-172 3261 5991 5992 5993 5994 0
172 -3261 0
172 -5991 0
172 -5992 0
172 -5993 0
172 -5994 0
5995 -3263 -4816 0
-5995 3263 0
-5995 4816 0
5996 -4800 -4816 0
-5996 4800 0
-5996 4816 0
5997 -4800 -3260 0
-5997 4800 0
-5997 3260 0
5998 -3263 -3260 -4806 0
-5998 3263 0
-5998 3260 0
-5998 4806 0
-175 3264 5995 5996 5997 5998 0
175 -3264 0
175 -5995 0
175 -5996 0
175 -5997 0
175 -5998 0
5999 -3257 -4800 0
-5999 3257 0
-5999 4800 0
6000 -4811 -3263 0
-6000 4811 0
-6000 3263 0
6001 -4811 -4800 0
-6001 4811 0
-6001 4800 0
6002 -3257 -3263 -4806 0
-6002 3257 0
-6002 3263 0
-6002 4806 0
-173 3266 5999 6000 6001 6002 0
173 -3266 0
173 -5999 0
173 -6000 0
173 -6001 0
173 -6002 0
6003 -3257 -4811 0
-6003 3257 0
-6003 4811 0
6004 -4811 -4811 0
-6004 4811 0
-6004 4811 0
6005 -4811 -3257 0
-6005 4811 0
-6005 3257 0
6006 -3257 -3257 -4806 0
-6006 3257 0
-6006 3257 0
-6006 4806 0
-6007 3269 6003 6004 6005 6006 0
6007 -3269 0
6007 -6003 0
6007 -6004 0
6007 -6005 0
6007 -6006 0
6008 -3009 -3009 0
-6008 3009 0
-6008 3009 0
-6009 3016 6008 0
6009 -3016 0
6009 -6008 0
6010 -3009 -3021 0
-6010 3009 0
-6010 3021 0
-1109 3023 6010 0
1109 -3023 0
1109 -6010 0
6011 -3009 -3027 0
-6011 3009 0
-6011 3027 0
-1107 3030 6011 0
1107 -3030 0
1107 -6011 0
6012 -3032 -3027 0
-6012 3032 0
-6012 3027 0
-1110 3037 6012 0
1110 -3037 0
1110 -6012 0
6013 -3021 -3032 0
-6013 3021 0
-6013 3032 0
-1108 3042 6013 0
1108 -3042 0
1108 -6013 0
6014 -3021 -3021 0
-6014 3021 0
-6014 3021 0
-6015 3048 6014 0
6015 -3048 0
6015 -6014 0
6016 -3458 -3458 0
-6016 3458 0
-6016 3458 0
-6017 3465 6016 0
6017 -3465 0
6017 -6016 0
6018 -3458 -3470 0
-6018 3458 0
-6018 3470 0
-684 3472 6018 0
684 -3472 0
684 -6018 0
6019 -3458 -3476 0
-6019 3458 0
-6019 3476 0
-682 3479 6019 0
682 -3479 0
682 -6019 0
6020 -3481 -3476 0
-6020 3481 0
-6020 3476 0
-685 3486 6020 0
685 -3486 0
685 -6020 0
6021 -3470 -3481 0
-6021 3470 0
-6021 3481 0
-683 3491 6021 0
683 -3491 0
683 -6021 0
6022 -3470 -3470 0
-6022 3470 0
-6022 3470 0
-6023 3497 6022 0
6023 -3497 0
6023 -6022 0
6024 -6025 -6026 0
-6024 6025 0
-6024 6026 0
6027 -6026 -6026 0
-6027 6026 0
-6027 6026 0
6028 -6026 -6025 0
-6028 6026 0
-6028 6025 0
6029 -6025 -6025 -6030 0
-6029 6025 0
-6029 6025 0
-6029 6030 0
-6031 6032 6024 6027 6028 6029 0
6031 -6032 0
6031 -6024 0
6031 -6027 0
6031 -6028 0
6031 -6029 0
6033 -6025 -6034 0
-6033 6025 0
-6033 6034 0
6035 -6026 -6034 0
-6035 6026 0
-6035 6034 0
6036 -6026 -6037 0
-6036 6026 0
-6036 6037 0
6038 -6025 -6037 -6030 0
-6038 6025 0
-6038 6037 0
-6038 6030 0
-309 6039 6033 6035 6036 6038 0
309 -6039 0
309 -6033 0
309 -6035 0
309 -6036 0
309 -6038 0
6040 -6025 -6041 0
-6040 6025 0
-6040 6041 0
6042 -6026 -6043 0
-6042 6026 0
-6042 6043 0
6044 -6026 -6041 0
-6044 6026 0
-6044 6041 0
6045 -6025 -6043 -6030 0
-6045 6025 0
-6045 6043 0
-6045 6030 0
-307 6046 6040 6042 6044 6045 0
307 -6046 0
307 -6040 0
307 -6042 0
307 -6044 0
307 -6045 0
6047 -6048 -6041 0
-6047 6048 0
-6047 6041 0
6049 -6050 -6041 0
-6049 6050 0
-6049 6041 0
6051 -6050 -6043 0
-6051 6050 0
-6051 6043 0
6052 -6048 -6043 -6030 0
-6052 6048 0
-6052 6043 0
-6052 6030 0
-310 6053 6047 6049 6051 6052 0
310 -6053 0
310 -6047 0
310 -6049 0
310 -6051 0
310 -6052 0
6054 -6037 -6050 0
-6054 6037 0
-6054 6050 0
6055 -6034 -6048 0
-6055 6034 0
-6055 6048 0
6056 -6034 -6050 0
-6056 6034 0
-6056 6050 0
6057 -6037 -6048 -6030 0
-6057 6037 0
-6057 6048 0
-6057 6030 0
-308 6058 6054 6055 6056 6057 0
308 -6058 0
308 -6054 0
308 -6055 0
308 -6056 0
308 -6057 0
6059 -6037 -6034 0
-6059 6037 0
-6059 6034 0
6060 -6034 -6034 0
-6060 6034 0
-6060 6034 0
6061 -6034 -6037 0
-6061 6034 0
-6061 6037 0
6062 -6037 -6037 -6030 0
-6062 6037 0
-6062 6037 0
-6062 6030 0
-6063 6064 6059 6060 6061 6062 0
6063 -6064 0
6063 -6059 0
6063 -6060 0
6063 -6061 0
6063 -6062 0
6065 -3170 -3170 0
-6065 3170 0
-6065 3170 0
-6066 3150 6065 0
6066 -3150 0
6066 -6065 0
6067 -3170 -3178 0
-6067 3170 0
-6067 3178 0
-954 3154 6067 0
954 -3154 0
954 -6067 0
6068 -3170 -3173 0
-6068 3170 0
-6068 3173 0
-952 3161 6068 0
952 -3161 0
952 -6068 0
6069 -3168 -3173 0
-6069 3168 0
-6069 3173 0
-955 3163 6069 0
955 -3163 0
955 -6069 0
6070 -3178 -3168 0
-6070 3178 0
-6070 3168 0
-953 3157 6070 0
953 -3157 0
953 -6070 0
6071 -3178 -3178 0
-6071 3178 0
-6071 3178 0
-6072 3184 6071 0
6072 -3184 0
6072 -6071 0
6073 -3590 -3583 0
-6073 3590 0
-6073 3583 0
3850 -3583 -3583 0
-3850 3583 0
-3850 3583 0
6074 -3583 -3590 0
-6074 3583 0
-6074 3590 0
6075 -3590 -3590 -3608 0
-6075 3590 0
-6075 3590 0
-6075 3608 0
-6076 3576 6073 3850 6074 6075 0
6076 -3576 0
6076 -6073 0
6076 -3850 0
6076 -6074 0
6076 -6075 0
6077 -3590 -3578 0
-6077 3590 0
-6077 3578 0
6078 -3583 -3578 0
-6078 3583 0
-6078 3578 0
6079 -3583 -3585 0
-6079 3583 0
-6079 3585 0
6080 -3590 -3585 -3608 0
-6080 3590 0
-6080 3585 0
-6080 3608 0
-429 3570 6077 6078 6079 6080 0
429 -3570 0
429 -6077 0
429 -6078 0
429 -6079 0
429 -6080 0
6081 -3590 -3581 0
-6081 3590 0
-6081 3581 0
6082 -3583 -3587 0
-6082 3583 0
-6082 3587 0
6083 -3583 -3581 0
-6083 3583 0
-6083 3581 0
6084 -3590 -3587 -3608 0
-6084 3590 0
-6084 3587 0
-6084 3608 0
-427 3569 6081 6082 6083 6084 0
427 -3569 0
427 -6081 0
427 -6082 0
427 -6083 0
427 -6084 0
6085 -3597 -3581 0
-6085 3597 0
-6085 3581 0
6086 -3602 -3581 0
-6086 3602 0
-6086 3581 0
6087 -3602 -3587 0
-6087 3602 0
-6087 3587 0
6088 -3597 -3587 -3608 0
-6088 3597 0
-6088 3587 0
-6088 3608 0
-430 3592 6085 6086 6087 6088 0
430 -3592 0
430 -6085 0
430 -6086 0
430 -6087 0
430 -6088 0
6089 -3585 -3602 0
-6089 3585 0
-6089 3602 0
6090 -3578 -3597 0
-6090 3578 0
-6090 3597 0
6091 -3578 -3602 0
-6091 3578 0
-6091 3602 0
6092 -3585 -3597 -3608 0
-6092 3585 0
-6092 3597 0
-6092 3608 0
-428 3594 6089 6090 6091 6092 0
428 -3594 0
428 -6089 0
428 -6090 0
428 -6091 0
428 -6092 0
6093 -3585 -3578 0
-6093 3585 0
-6093 3578 0
3604 -3578 -3578 0
-3604 3578 0
-3604 3578 0
6094 -3578 -3585 0
-6094 3578 0
-6094 3585 0
6095 -3585 -3585 -3608 0
-6095 3585 0
-6095 3585 0
-6095 3608 0
-6096 3574 6093 3604 6094 6095 0
6096 -3574 0
6096 -6093 0
6096 -3604 0
6096 -6094 0
6096 -6095 0
6097 -1400 -1400 0
-6097 1400 0
-6097 1400 0
-6098 1407 6097 0
6098 -1407 0
6098 -6097 0
6099 -1400 -1412 0
-6099 1400 0
-6099 1412 0
-859 1414 6099 0
859 -1414 0
859 -6099 0
6100 -1400 -1418 0
-6100 1400 0
-6100 1418 0
-857 1421 6100 0
857 -1421 0
857 -6100 0
6101 -1423 -1418 0
-6101 1423 0
-6101 1418 0
-860 1428 6101 0
860 -1428 0
860 -6101 0
6102 -1412 -1423 0
-6102 1412 0
-6102 1423 0
-858 1433 6102 0
858 -1433 0
858 -6102 0
6103 -1412 -1412 0
-6103 1412 0
-6103 1412 0
-6104 1439 6103 0
6104 -1439 0
6104 -6103 0
6105 -5249 -6106 0
-6105 5249 0
-6105 6106 0
6107 -6106 -6106 0
-6107 6106 0
-6107 6106 0
6108 -6106 -5249 0
-6108 6106 0
-6108 5249 0
6109 -5249 -5249 -6110 0
-6109 5249 0
-6109 5249 0
-6109 6110 0
-6111 5251 6105 6107 6108 6109 0
6111 -5251 0
6111 -6105 0
6111 -6107 0
6111 -6108 0
6111 -6109 0
6112 -5249 -6113 0
-6112 5249 0
-6112 6113 0
6114 -6106 -6113 0
-6114 6106 0
-6114 6113 0
6115 -6106 -5253 0
-6115 6106 0
-6115 5253 0
6116 -5249 -5253 -6110 0
-6116 5249 0
-6116 5253 0
-6116 6110 0
-354 5254 6112 6114 6115 6116 0
354 -5254 0
354 -6112 0
354 -6114 0
354 -6115 0
354 -6116 0
6117 -5249 -6118 0
-6117 5249 0
-6117 6118 0
6119 -6106 -5256 0
-6119 6106 0
-6119 5256 0
6120 -6106 -6118 0
-6120 6106 0
-6120 6118 0
6121 -5249 -5256 -6110 0
-6121 5249 0
-6121 5256 0
-6121 6110 0
-352 5257 6117 6119 6120 6121 0
352 -5257 0
352 -6117 0
352 -6119 0
352 -6120 0
352 -6121 0
6122 -5259 -6118 0
-6122 5259 0
-6122 6118 0
6123 -6124 -6118 0
-6123 6124 0
-6123 6118 0
6125 -6124 -5256 0
-6125 6124 0
-6125 5256 0
6126 -5259 -5256 -6110 0
-6126 5259 0
-6126 5256 0
-6126 6110 0
-355 5260 6122 6123 6125 6126 0
355 -5260 0
355 -6122 0
355 -6123 0
355 -6125 0
355 -6126 0
6127 -5253 -6124 0
-6127 5253 0
-6127 6124 0
6128 -6113 -5259 0
-6128 6113 0
-6128 5259 0
6129 -6113 -6124 0
-6129 6113 0
-6129 6124 0
6130 -5253 -5259 -6110 0
-6130 5253 0
-6130 5259 0
-6130 6110 0
-353 5262 6127 6128 6129 6130 0
353 -5262 0
353 -6127 0
353 -6128 0
353 -6129 0
353 -6130 0
6131 -5253 -6113 0
-6131 5253 0
-6131 6113 0
6132 -6113 -6113 0
-6132 6113 0
-6132 6113 0
6133 -6113 -5253 0
-6133 6113 0
-6133 5253 0
6134 -5253 -5253 -6110 0
-6134 5253 0
-6134 5253 0
-6134 6110 0
-6135 5265 6131 6132 6133 6134 0
6135 -5265 0
6135 -6131 0
6135 -6132 0
6135 -6133 0
6135 -6134 0
6136 -5564 -5564 0
-6136 5564 0
-6136 5564 0
-6137 5571 6136 0
6137 -5571 0
6137 -6136 0
6138 -5564 -5576 0
-6138 5564 0
-6138 5576 0
-1009 5578 6138 0
1009 -5578 0
1009 -6138 0
6139 -5564 -5582 0
-6139 5564 0
-6139 5582 0
-1007 5585 6139 0
1007 -5585 0
1007 -6139 0
6140 -5587 -5582 0
-6140 5587 0
-6140 5582 0
-1010 5592 6140 0
1010 -5592 0
1010 -6140 0
6141 -5576 -5587 0
-6141 5576 0
-6141 5587 0
-1008 5597 6141 0
1008 -5597 0
1008 -6141 0
6142 -5576 -5576 0
-6142 5576 0
-6142 5576 0
-6143 5603 6142 0
6143 -5603 0
6143 -6142 0
6144 -3283 -3283 0
-6144 3283 0
-6144 3283 0
-6145 3290 6144 0
6145 -3290 0
6145 -6144 0
6146 -3283 -3295 0
-6146 3283 0
-6146 3295 0
-1184 3297 6146 0
1184 -3297 0
1184 -6146 0
6147 -3283 -3301 0
-6147 3283 0
-6147 3301 0
-1182 3304 6147 0
1182 -3304 0
1182 -6147 0
6148 -3306 -3301 0
-6148 3306 0
-6148 3301 0
-1185 3311 6148 0
1185 -3311 0
1185 -6148 0
6149 -3295 -3306 0
-6149 3295 0
-6149 3306 0
-1183 3316 6149 0
1183 -3316 0
1183 -6149 0
6150 -3295 -3295 0
-6150 3295 0
-6150 3295 0
-6151 3322 6150 0
6151 -3322 0
6151 -6150 0
6152 -2091 -4450 0
-6152 2091 0
-6152 4450 0
4451 -4450 -4450 0
-4451 4450 0
-4451 4450 0
6153 -4450 -2091 0
-6153 4450 0
-6153 2091 0
6154 -2091 -2091 -4108 0
-6154 2091 0
-6154 2091 0
-6154 4108 0
-6155 2093 6152 4451 6153 6154 0
6155 -2093 0
6155 -6152 0
6155 -4451 0
6155 -6153 0
6155 -6154 0
6156 -2091 -4110 0
-6156 2091 0
-6156 4110 0
6157 -4450 -4110 0
-6157 4450 0
-6157 4110 0
6158 -4450 -2095 0
-6158 4450 0
-6158 2095 0
6159 -2091 -2095 -4108 0
-6159 2091 0
-6159 2095 0
-6159 4108 0
-639 2096 6156 6157 6158 6159 0
639 -2096 0
639 -6156 0
639 -6157 0
639 -6158 0
639 -6159 0
6160 -2091 -4112 0
-6160 2091 0
-6160 4112 0
6161 -4450 -2098 0
-6161 4450 0
-6161 2098 0
6162 -4450 -4112 0
-6162 4450 0
-6162 4112 0
6163 -2091 -2098 -4108 0
-6163 2091 0
-6163 2098 0
-6163 4108 0
-637 2099 6160 6161 6162 6163 0
637 -2099 0
637 -6160 0
637 -6161 0
637 -6162 0
637 -6163 0
6164 -2101 -4112 0
-6164 2101 0
-6164 4112 0
6165 -4106 -4112 0
-6165 4106 0
-6165 4112 0
6166 -4106 -2098 0
-6166 4106 0
-6166 2098 0
6167 -2101 -2098 -4108 0
-6167 2101 0
-6167 2098 0
-6167 4108 0
-640 2102 6164 6165 6166 6167 0
640 -2102 0
640 -6164 0
640 -6165 0
640 -6166 0
640 -6167 0
6168 -2095 -4106 0
-6168 2095 0
-6168 4106 0
6169 -4110 -2101 0
-6169 4110 0
-6169 2101 0
6170 -4110 -4106 0
-6170 4110 0
-6170 4106 0
6171 -2095 -2101 -4108 0
-6171 2095 0
-6171 2101 0
-6171 4108 0
-638 2104 6168 6169 6170 6171 0
638 -2104 0
638 -6168 0
638 -6169 0
638 -6170 0
638 -6171 0
6172 -2095 -4110 0
-6172 2095 0
-6172 4110 0
6173 -4110 -4110 0
-6173 4110 0
-6173 4110 0
6174 -4110 -2095 0
-6174 4110 0
-6174 2095 0
6175 -2095 -2095 -4108 0
-6175 2095 0
-6175 2095 0
-6175 4108 0
-6176 2107 6172 6173 6174 6175 0
6176 -2107 0
6176 -6172 0
6176 -6173 0
6176 -6174 0
6176 -6175 0
6177 -4800 -4800 0
-6177 4800 0
-6177 4800 0
-6178 4806 6177 0
6178 -4806 0
6178 -6177 0
6179 -4800 -3266 0
-6179 4800 0
-6179 3266 0
-634 4811 6179 0
634 -4811 0
634 -6179 0
6180 -4800 -3264 0
-6180 4800 0
-6180 3264 0
-632 4816 6180 0
632 -4816 0
632 -6180 0
6181 -3263 -3264 0
-6181 3263 0
-6181 3264 0
-635 3260 6181 0
635 -3260 0
635 -6181 0
6182 -3266 -3263 0
-6182 3266 0
-6182 3263 0
-633 3257 6182 0
633 -3257 0
633 -6182 0
6183 -3266 -3266 0
-6183 3266 0
-6183 3266 0
-6184 3269 6183 0
6184 -3269 0
6184 -6183 0
6185 -4211 -4211 0
-6185 4211 0
-6185 4211 0
-6186 4218 6185 0
6186 -4218 0
6186 -6185 0
6187 -4211 -4223 0
-6187 4211 0
-6187 4223 0
-1119 4225 6187 0
1119 -4225 0
1119 -6187 0
6188 -4211 -4229 0
-6188 4211 0
-6188 4229 0
-1117 4232 6188 0
1117 -4232 0
1117 -6188 0
6189 -4234 -4229 0
-6189 4234 0
-6189 4229 0
-1120 4239 6189 0
1120 -4239 0
1120 -6189 0
6190 -4223 -4234 0
-6190 4223 0
-6190 4234 0
-1118 4244 6190 0
1118 -4244 0
1118 -6190 0
6191 -4223 -4223 0
-6191 4223 0
-6191 4223 0
-6192 4250 6191 0
6192 -4250 0
6192 -6191 0
6193 -3093 -6194 0
-6193 3093 0
-6193 6194 0
6195 -6194 -6194 0
-6195 6194 0
-6195 6194 0
6196 -6194 -3093 0
-6196 6194 0
-6196 3093 0
6197 -3093 -3093 -6198 0
-6197 3093 0
-6197 3093 0
-6197 6198 0
-6199 3095 6193 6195 6196 6197 0
6199 -3095 0
6199 -6193 0
6199 -6195 0
6199 -6196 0
6199 -6197 0
6200 -3093 -6201 0
-6200 3093 0
-6200 6201 0
6202 -6194 -6201 0
-6202 6194 0
-6202 6201 0
6203 -6194 -3097 0
-6203 6194 0
-6203 3097 0
6204 -3093 -3097 -6198 0
-6204 3093 0
-6204 3097 0
-6204 6198 0
-749 3098 6200 6202 6203 6204 0
749 -3098 0
749 -6200 0
749 -6202 0
749 -6203 0
749 -6204 0
6205 -3093 -6206 0
-6205 3093 0
-6205 6206 0
6207 -6194 -3100 0
-6207 6194 0
-6207 3100 0
6208 -6194 -6206 0
-6208 6194 0
-6208 6206 0
6209 -3093 -3100 -6198 0
-6209 3093 0
-6209 3100 0
-6209 6198 0
-747 3101 6205 6207 6208 6209 0
747 -3101 0
747 -6205 0
747 -6207 0
747 -6208 0
747 -6209 0
6210 -3103 -6206 0
-6210 3103 0
-6210 6206 0
6211 -6212 -6206 0
-6211 6212 0
-6211 6206 0
6213 -6212 -3100 0
-6213 6212 0
-6213 3100 0
6214 -3103 -3100 -6198 0
-6214 3103 0
-6214 3100 0
-6214 6198 0
-750 3104 6210 6211 6213 6214 0
750 -3104 0
750 -6210 0
750 -6211 0
750 -6213 0
750 -6214 0
6215 -3097 -6212 0
-6215 3097 0
-6215 6212 0
6216 -6201 -3103 0
-6216 6201 0
-6216 3103 0
6217 -6201 -6212 0
-6217 6201 0
-6217 6212 0
6218 -3097 -3103 -6198 0
-6218 3097 0
-6218 3103 0
-6218 6198 0
-748 3106 6215 6216 6217 6218 0
748 -3106 0
748 -6215 0
748 -6216 0
748 -6217 0
748 -6218 0
6219 -3097 -6201 0
-6219 3097 0
-6219 6201 0
6220 -6201 -6201 0
-6220 6201 0
-6220 6201 0
6221 -6201 -3097 0
-6221 6201 0
-6221 3097 0
6222 -3097 -3097 -6198 0
-6222 3097 0
-6222 3097 0
-6222 6198 0
-6223 3109 6219 6220 6221 6222 0
6223 -3109 0
6223 -6219 0
6223 -6220 0
6223 -6221 0
6223 -6222 0
6224 -6025 -6025 0
-6224 6025 0
-6224 6025 0
-6225 6032 6224 0
6225 -6032 0
6225 -6224 0
6226 -6025 -6037 0
-6226 6025 0
-6226 6037 0
-714 6039 6226 0
714 -6039 0
714 -6226 0
6227 -6025 -6043 0
-6227 6025 0
-6227 6043 0
-712 6046 6227 0
712 -6046 0
712 -6227 0
6228 -6048 -6043 0
-6228 6048 0
-6228 6043 0
-715 6053 6228 0
715 -6053 0
715 -6228 0
6229 -6037 -6048 0
-6229 6037 0
-6229 6048 0
-713 6058 6229 0
713 -6058 0
713 -6229 0
6230 -6037 -6037 0
-6230 6037 0
-6230 6037 0
-6231 6064 6230 0
6231 -6064 0
6231 -6230 0
6232 -5805 -5805 0
-6232 5805 0
-6232 5805 0
-6233 5812 6232 0
6233 -5812 0
6233 -6232 0
6234 -5805 -5817 0
-6234 5805 0
-6234 5817 0
-709 5819 6234 0
709 -5819 0
709 -6234 0
6235 -5805 -5823 0
-6235 5805 0
-6235 5823 0
-707 5826 6235 0
707 -5826 0
707 -6235 0
6236 -5828 -5823 0
-6236 5828 0
-6236 5823 0
-710 5833 6236 0
710 -5833 0
710 -6236 0
6237 -5817 -5828 0
-6237 5817 0
-6237 5828 0
-708 5838 6237 0
708 -5838 0
708 -6237 0
6238 -5817 -5817 0
-6238 5817 0
-6238 5817 0
-6239 5844 6238 0
6239 -5844 0
6239 -6238 0
6240 -2905 -2887 0
-6240 2905 0
-6240 2887 0
2888 -2887 -2887 0
-2888 2887 0
-2888 2887 0
6241 -2887 -2905 0
-6241 2887 0
-6241 2905 0
6242 -2905 -2905 -1366 0
-6242 2905 0
-6242 2905 0
-6242 1366 0
-6243 2891 6240 2888 6241 6242 0
6243 -2891 0
6243 -6240 0
6243 -2888 0
6243 -6241 0
6243 -6242 0
6244 -2905 -1369 0
-6244 2905 0
-6244 1369 0
6245 -2887 -1369 0
-6245 2887 0
-6245 1369 0
6246 -2887 -1377 0
-6246 2887 0
-6246 1377 0
6247 -2905 -1377 -1366 0
-6247 2905 0
-6247 1377 0
-6247 1366 0
-169 2894 6244 6245 6246 6247 0
169 -2894 0
169 -6244 0
169 -6245 0
169 -6246 0
169 -6247 0
6248 -2905 -1372 0
-6248 2905 0
-6248 1372 0
6249 -2887 -1375 0
-6249 2887 0
-6249 1375 0
6250 -2887 -1372 0
-6250 2887 0
-6250 1372 0
6251 -2905 -1375 -1366 0
-6251 2905 0
-6251 1375 0
-6251 1366 0
-167 2899 6248 6249 6250 6251 0
167 -2899 0
167 -6248 0
167 -6249 0
167 -6250 0
167 -6251 0
6252 -1374 -1372 0
-6252 1374 0
-6252 1372 0
6253 -1364 -1372 0
-6253 1364 0
-6253 1372 0
6254 -1364 -1375 0
-6254 1364 0
-6254 1375 0
6255 -1374 -1375 -1366 0
-6255 1374 0
-6255 1375 0
-6255 1366 0
-170 1371 6252 6253 6254 6255 0
170 -1371 0
170 -6252 0
170 -6253 0
170 -6254 0
170 -6255 0
6256 -1377 -1364 0
-6256 1377 0
-6256 1364 0
6257 -1369 -1374 0
-6257 1369 0
-6257 1374 0
6258 -1369 -1364 0
-6258 1369 0
-6258 1364 0
6259 -1377 -1374 -1366 0
-6259 1377 0
-6259 1374 0
-6259 1366 0
-168 1368 6256 6257 6258 6259 0
168 -1368 0
168 -6256 0
168 -6257 0
168 -6258 0
168 -6259 0
6260 -1377 -1369 0
-6260 1377 0
-6260 1369 0
6261 -1369 -1369 0
-6261 1369 0
-6261 1369 0
6262 -1369 -1377 0
-6262 1369 0
-6262 1377 0
6263 -1377 -1377 -1366 0
-6263 1377 0
-6263 1377 0
-6263 1366 0
-6264 1380 6260 6261 6262 6263 0
6264 -1380 0
6264 -6260 0
6264 -6261 0
6264 -6262 0
6264 -6263 0
6265 -5066 -5066 0
-6265 5066 0
-6265 5066 0
-6266 5073 6265 0
6266 -5073 0
6266 -6265 0
6267 -5066 -5078 0
-6267 5066 0
-6267 5078 0
-259 5080 6267 0
259 -5080 0
259 -6267 0
6268 -5066 -5084 0
-6268 5066 0
-6268 5084 0
-257 5087 6268 0
257 -5087 0
257 -6268 0
6269 -5089 -5084 0
-6269 5089 0
-6269 5084 0
-260 5094 6269 0
260 -5094 0
260 -6269 0
6270 -5078 -5089 0
-6270 5078 0
-6270 5089 0
-258 5099 6270 0
258 -5099 0
258 -6270 0
6271 -5078 -5078 0
-6271 5078 0
-6271 5078 0
-6272 5105 6271 0
6272 -5105 0
6272 -6271 0
6273 -1264 -1264 0
-6273 1264 0
-6273 1264 0
-6274 1271 6273 0
6274 -1271 0
6274 -6273 0
6275 -1264 -1276 0
-6275 1264 0
-6275 1276 0
-469 1278 6275 0
469 -1278 0
469 -6275 0
6276 -1264 -1282 0
-6276 1264 0
-6276 1282 0
-467 1285 6276 0
467 -1285 0
467 -6276 0
6277 -1287 -1282 0
-6277 1287 0
-6277 1282 0
-470 1292 6277 0
470 -1292 0
470 -6277 0
6278 -1276 -1287 0
-6278 1276 0
-6278 1287 0
-468 1297 6278 0
468 -1297 0
468 -6278 0
6279 -1276 -1276 0
-6279 1276 0
-6279 1276 0
-6280 1303 6279 0
6280 -1303 0
6280 -6279 0
6281 -2253 -5008 0
-6281 2253 0
-6281 5008 0
5009 -5008 -5008 0
-5009 5008 0
-5009 5008 0
6282 -5008 -2253 0
-6282 5008 0
-6282 2253 0
6283 -2253 -2253 -1820 0
-6283 2253 0
-6283 2253 0
-6283 1820 0
-6284 2255 6281 5009 6282 6283 0
6284 -2255 0
6284 -6281 0
6284 -5009 0
6284 -6282 0
6284 -6283 0
6285 -2253 -1823 0
-6285 2253 0
-6285 1823 0
6286 -5008 -1823 0
-6286 5008 0
-6286 1823 0
6287 -5008 -1831 0
-6287 5008 0
-6287 1831 0
6288 -2253 -1831 -1820 0
-6288 2253 0
-6288 1831 0
-6288 1820 0
-129 2257 6285 6286 6287 6288 0
129 -2257 0
129 -6285 0
129 -6286 0
129 -6287 0
129 -6288 0
6289 -2253 -1826 0
-6289 2253 0
-6289 1826 0
6290 -5008 -1829 0
-6290 5008 0
-6290 1829 0
6291 -5008 -1826 0
-6291 5008 0
-6291 1826 0
6292 -2253 -1829 -1820 0
-6292 2253 0
-6292 1829 0
-6292 1820 0
-127 2259 6289 6290 6291 6292 0
127 -2259 0
127 -6289 0
127 -6290 0
127 -6291 0
127 -6292 0
6293 -1828 -1826 0
-6293 1828 0
-6293 1826 0
6294 -1818 -1826 0
-6294 1818 0
-6294 1826 0
6295 -1818 -1829 0
-6295 1818 0
-6295 1829 0
6296 -1828 -1829 -1820 0
-6296 1828 0
-6296 1829 0
-6296 1820 0
-130 1825 6293 6294 6295 6296 0
130 -1825 0
130 -6293 0
130 -6294 0
130 -6295 0
130 -6296 0
6297 -1831 -1818 0
-6297 1831 0
-6297 1818 0
6298 -1823 -1828 0
-6298 1823 0
-6298 1828 0
6299 -1823 -1818 0
-6299 1823 0
-6299 1818 0
6300 -1831 -1828 -1820 0
-6300 1831 0
-6300 1828 0
-6300 1820 0
-128 1822 6297 6298 6299 6300 0
128 -1822 0
128 -6297 0
128 -6298 0
128 -6299 0
128 -6300 0
6301 -1831 -1823 0
-6301 1831 0
-6301 1823 0
6302 -1823 -1823 0
-6302 1823 0
-6302 1823 0
6303 -1823 -1831 0
-6303 1823 0
-6303 1831 0
6304 -1831 -1831 -1820 0
-6304 1831 0
-6304 1831 0
-6304 1820 0
-6305 1834 6301 6302 6303 6304 0
6305 -1834 0
6305 -6301 0
6305 -6302 0
6305 -6303 0
6305 -6304 0
6306 -3075 -6307 0
-6306 3075 0
-6306 6307 0
6308 -6307 -6307 0
-6308 6307 0
-6308 6307 0
6309 -6307 -3075 0
-6309 6307 0
-6309 3075 0
6310 -3075 -3075 -6311 0
-6310 3075 0
-6310 3075 0
-6310 6311 0
-6312 3077 6306 6308 6309 6310 0
6312 -3077 0
6312 -6306 0
6312 -6308 0
6312 -6309 0
6312 -6310 0
6313 -3075 -6314 0
-6313 3075 0
-6313 6314 0
6315 -6307 -6314 0
-6315 6307 0
-6315 6314 0
6316 -6307 -3079 0
-6316 6307 0
-6316 3079 0
6317 -3075 -3079 -6311 0
-6317 3075 0
-6317 3079 0
-6317 6311 0
-364 3080 6313 6315 6316 6317 0
364 -3080 0
364 -6313 0
364 -6315 0
364 -6316 0
364 -6317 0
6318 -3075 -6319 0
-6318 3075 0
-6318 6319 0
6320 -6307 -3082 0
-6320 6307 0
-6320 3082 0
6321 -6307 -6319 0
-6321 6307 0
-6321 6319 0
6322 -3075 -3082 -6311 0
-6322 3075 0
-6322 3082 0
-6322 6311 0
-362 3083 6318 6320 6321 6322 0
362 -3083 0
362 -6318 0
362 -6320 0
362 -6321 0
362 -6322 0
6323 -3085 -6319 0
-6323 3085 0
-6323 6319 0
6324 -6325 -6319 0
-6324 6325 0
-6324 6319 0
6326 -6325 -3082 0
-6326 6325 0
-6326 3082 0
6327 -3085 -3082 -6311 0
-6327 3085 0
-6327 3082 0
-6327 6311 0
-365 3086 6323 6324 6326 6327 0
365 -3086 0
365 -6323 0
365 -6324 0
365 -6326 0
365 -6327 0
6328 -3079 -6325 0
-6328 3079 0
-6328 6325 0
6329 -6314 -3085 0
-6329 6314 0
-6329 3085 0
6330 -6314 -6325 0
-6330 6314 0
-6330 6325 0
6331 -3079 -3085 -6311 0
-6331 3079 0
-6331 3085 0
-6331 6311 0
-363 3088 6328 6329 6330 6331 0
363 -3088 0
363 -6328 0
363 -6329 0
363 -6330 0
363 -6331 0
6332 -3079 -6314 0
-6332 3079 0
-6332 6314 0
6333 -6314 -6314 0
-6333 6314 0
-6333 6314 0
6334 -6314 -3079 0
-6334 6314 0
-6334 3079 0
6335 -3079 -3079 -6311 0
-6335 3079 0
-6335 3079 0
-6335 6311 0
-6336 3091 6332 6333 6334 6335 0
6336 -3091 0
6336 -6332 0
6336 -6333 0
6336 -6334 0
6336 -6335 0
6337 -2109 -6338 0
-6337 2109 0
-6337 6338 0
6339 -6338 -6338 0
-6339 6338 0
-6339 6338 0
6340 -6338 -2109 0
-6340 6338 0
-6340 2109 0
6341 -2109 -2109 -6342 0
-6341 2109 0
-6341 2109 0
-6341 6342 0
-6343 2111 6337 6339 6340 6341 0
6343 -2111 0
6343 -6337 0
6343 -6339 0
6343 -6340 0
6343 -6341 0
6344 -2109 -6345 0
-6344 2109 0
-6344 6345 0
6346 -6338 -6345 0
-6346 6338 0
-6346 6345 0
6347 -6338 -2113 0
-6347 6338 0
-6347 2113 0
6348 -2109 -2113 -6342 0
-6348 2109 0
-6348 2113 0
-6348 6342 0
-274 2114 6344 6346 6347 6348 0
274 -2114 0
274 -6344 0
274 -6346 0
274 -6347 0
274 -6348 0
6349 -2109 -6350 0
-6349 2109 0
-6349 6350 0
6351 -6338 -2116 0
-6351 6338 0
-6351 2116 0
6352 -6338 -6350 0
-6352 6338 0
-6352 6350 0
6353 -2109 -2116 -6342 0
-6353 2109 0
-6353 2116 0
-6353 6342 0
-272 2117 6349 6351 6352 6353 0
272 -2117 0
272 -6349 0
272 -6351 0
272 -6352 0
272 -6353 0
6354 -2119 -6350 0
-6354 2119 0
-6354 6350 0
6355 -6356 -6350 0
-6355 6356 0
-6355 6350 0
6357 -6356 -2116 0
-6357 6356 0
-6357 2116 0
6358 -2119 -2116 -6342 0
-6358 2119 0
-6358 2116 0
-6358 6342 0
-275 2120 6354 6355 6357 6358 0
275 -2120 0
275 -6354 0
275 -6355 0
275 -6357 0
275 -6358 0
6359 -2113 -6356 0
-6359 2113 0
-6359 6356 0
6360 -6345 -2119 0
-6360 6345 0
-6360 2119 0
6361 -6345 -6356 0
-6361 6345 0
-6361 6356 0
6362 -2113 -2119 -6342 0
-6362 2113 0
-6362 2119 0
-6362 6342 0
-273 2122 6359 6360 6361 6362 0
273 -2122 0
273 -6359 0
273 -6360 0
273 -6361 0
273 -6362 0
6363 -2113 -6345 0
-6363 2113 0
-6363 6345 0
6364 -6345 -6345 0
-6364 6345 0
-6364 6345 0
6365 -6345 -2113 0
-6365 6345 0
-6365 2113 0
6366 -2113 -2113 -6342 0
-6366 2113 0
-6366 2113 0
-6366 6342 0
-6367 2125 6363 6364 6365 6366 0
6367 -2125 0
6367 -6363 0
6367 -6364 0
6367 -6365 0
6367 -6366 0
6368 -3119 -6369 0
-6368 3119 0
-6368 6369 0
6370 -6369 -6369 0
-6370 6369 0
-6370 6369 0
6371 -6369 -3119 0
-6371 6369 0
-6371 3119 0
6372 -3119 -3119 -6373 0
-6372 3119 0
-6372 3119 0
-6372 6373 0
-6374 3121 6368 6370 6371 6372 0
6374 -3121 0
6374 -6368 0
6374 -6370 0
6374 -6371 0
6374 -6372 0
6375 -3119 -6376 0
-6375 3119 0
-6375 6376 0
6377 -6369 -6376 0
-6377 6369 0
-6377 6376 0
6378 -6369 -3123 0
-6378 6369 0
-6378 3123 0
6379 -3119 -3123 -6373 0
-6379 3119 0
-6379 3123 0
-6379 6373 0
-759 3124 6375 6377 6378 6379 0
759 -3124 0
759 -6375 0
759 -6377 0
759 -6378 0
759 -6379 0
6380 -3119 -6381 0
-6380 3119 0
-6380 6381 0
6382 -6369 -3126 0
-6382 6369 0
-6382 3126 0
6383 -6369 -6381 0
-6383 6369 0
-6383 6381 0
6384 -3119 -3126 -6373 0
-6384 3119 0
-6384 3126 0
-6384 6373 0
-757 3127 6380 6382 6383 6384 0
757 -3127 0
757 -6380 0
757 -6382 0
757 -6383 0
757 -6384 0
6385 -3129 -6381 0
-6385 3129 0
-6385 6381 0
6386 -6387 -6381 0
-6386 6387 0
-6386 6381 0
6388 -6387 -3126 0
-6388 6387 0
-6388 3126 0
6389 -3129 -3126 -6373 0
-6389 3129 0
-6389 3126 0
-6389 6373 0
-760 3130 6385 6386 6388 6389 0
760 -3130 0
760 -6385 0
760 -6386 0
760 -6388 0
760 -6389 0
6390 -3123 -6387 0
-6390 3123 0
-6390 6387 0
6391 -6376 -3129 0
-6391 6376 0
-6391 3129 0
6392 -6376 -6387 0
-6392 6376 0
-6392 6387 0
6393 -3123 -3129 -6373 0
-6393 3123 0
-6393 3129 0
-6393 6373 0
-758 3132 6390 6391 6392 6393 0
758 -3132 0
758 -6390 0
758 -6391 0
758 -6392 0
758 -6393 0
6394 -3123 -6376 0
-6394 3123 0
-6394 6376 0
6395 -6376 -6376 0
-6395 6376 0
-6395 6376 0
6396 -6376 -3123 0
-6396 6376 0
-6396 3123 0
6397 -3123 -3123 -6373 0
-6397 3123 0
-6397 3123 0
-6397 6373 0
-6398 3135 6394 6395 6396 6397 0
6398 -3135 0
6398 -6394 0
6398 -6395 0
6398 -6396 0
6398 -6397 0
6399 -1313 -1310 0
-6399 1313 0
-6399 1310 0
3715 -1310 -1310 0
-3715 1310 0
-3715 1310 0
6400 -1310 -1313 0
-6400 1310 0
-6400 1313 0
6401 -1313 -1313 -1321 0
-6401 1313 0
-6401 1313 0
-6401 1321 0
-6402 1307 6399 3715 6400 6401 0
6402 -1307 0
6402 -6399 0
6402 -3715 0
6402 -6400 0
6402 -6401 0
6403 -1313 -3635 0
-6403 1313 0
-6403 3635 0
6404 -1310 -3635 0
-6404 1310 0
-6404 3635 0
6405 -1310 -3640 0
-6405 1310 0
-6405 3640 0
6406 -1313 -3640 -1321 0
-6406 1313 0
-6406 3640 0
-6406 1321 0
-94 3628 6403 6404 6405 6406 0
94 -3628 0
94 -6403 0
94 -6404 0
94 -6405 0
94 -6406 0
6407 -1313 -1309 0
-6407 1313 0
-6407 1309 0
6408 -1310 -1312 0
-6408 1310 0
-6408 1312 0
6409 -1310 -1309 0
-6409 1310 0
-6409 1309 0
6410 -1313 -1312 -1321 0
-6410 1313 0
-6410 1312 0
-6410 1321 0
-92 1305 6407 6408 6409 6410 0
92 -1305 0
92 -6407 0
92 -6408 0
92 -6409 0
92 -6410 0
6411 -1316 -1309 0
-6411 1316 0
-6411 1309 0
6412 -1318 -1309 0
-6412 1318 0
-6412 1309 0
6413 -1318 -1312 0
-6413 1318 0
-6413 1312 0
6414 -1316 -1312 -1321 0
-6414 1316 0
-6414 1312 0
-6414 1321 0
-95 1315 6411 6412 6413 6414 0
95 -1315 0
95 -6411 0
95 -6412 0
95 -6413 0
95 -6414 0
6415 -3640 -1318 0
-6415 3640 0
-6415 1318 0
6416 -3635 -1316 0
-6416 3635 0
-6416 1316 0
6417 -3635 -1318 0
-6417 3635 0
-6417 1318 0
6418 -3640 -1316 -1321 0
-6418 3640 0
-6418 1316 0
-6418 1321 0
-93 3646 6415 6416 6417 6418 0
93 -3646 0
93 -6415 0
93 -6416 0
93 -6417 0
93 -6418 0
6419 -3640 -3635 0
-6419 3640 0
-6419 3635 0
3654 -3635 -3635 0
-3654 3635 0
-3654 3635 0
6420 -3635 -3640 0
-6420 3635 0
-6420 3640 0
6421 -3640 -3640 -1321 0
-6421 3640 0
-6421 3640 0
-6421 1321 0
-6422 3632 6419 3654 6420 6421 0
6422 -3632 0
6422 -6419 0
6422 -3654 0
6422 -6420 0
6422 -6421 0
6423 -3980 -6424 0
-6423 3980 0
-6423 6424 0
6425 -6424 -6424 0
-6425 6424 0
-6425 6424 0
6426 -6424 -3980 0
-6426 6424 0
-6426 3980 0
6427 -3980 -3980 -6428 0
-6427 3980 0
-6427 3980 0
-6427 6428 0
-6429 3982 6423 6425 6426 6427 0
6429 -3982 0
6429 -6423 0
6429 -6425 0
6429 -6426 0
6429 -6427 0
6430 -3980 -6431 0
-6430 3980 0
-6430 6431 0
6432 -6424 -6431 0
-6432 6424 0
-6432 6431 0
6433 -6424 -3984 0
-6433 6424 0
-6433 3984 0
6434 -3980 -3984 -6428 0
-6434 3980 0
-6434 3984 0
-6434 6428 0
-674 3985 6430 6432 6433 6434 0
674 -3985 0
674 -6430 0
674 -6432 0
674 -6433 0
674 -6434 0
6435 -3980 -6436 0
-6435 3980 0
-6435 6436 0
6437 -6424 -3987 0
-6437 6424 0
-6437 3987 0
6438 -6424 -6436 0
-6438 6424 0
-6438 6436 0
6439 -3980 -3987 -6428 0
-6439 3980 0
-6439 3987 0
-6439 6428 0
-672 3988 6435 6437 6438 6439 0
672 -3988 0
672 -6435 0
672 -6437 0
672 -6438 0
672 -6439 0
6440 -3990 -6436 0
-6440 3990 0
-6440 6436 0
6441 -6442 -6436 0
-6441 6442 0
-6441 6436 0
6443 -6442 -3987 0
-6443 6442 0
-6443 3987 0
6444 -3990 -3987 -6428 0
-6444 3990 0
-6444 3987 0
-6444 6428 0
-675 3991 6440 6441 6443 6444 0
675 -3991 0
675 -6440 0
675 -6441 0
675 -6443 0
675 -6444 0
6445 -3984 -6442 0
-6445 3984 0
-6445 6442 0
6446 -6431 -3990 0
-6446 6431 0
-6446 3990 0
6447 -6431 -6442 0
-6447 6431 0
-6447 6442 0
6448 -3984 -3990 -6428 0
-6448 3984 0
-6448 3990 0
-6448 6428 0
-673 3993 6445 6446 6447 6448 0
673 -3993 0
673 -6445 0
673 -6446 0
673 -6447 0
673 -6448 0
6449 -3984 -6431 0
-6449 3984 0
-6449 6431 0
6450 -6431 -6431 0
-6450 6431 0
-6450 6431 0
6451 -6431 -3984 0
-6451 6431 0
-6451 3984 0
6452 -3984 -3984 -6428 0
-6452 3984 0
-6452 3984 0
-6452 6428 0
-6453 3996 6449 6450 6451 6452 0
6453 -3996 0
6453 -6449 0
6453 -6450 0
6453 -6451 0
6453 -6452 0
6454 -6455 -6456 0
-6454 6455 0
-6454 6456 0
6457 -6456 -6456 0
-6457 6456 0
-6457 6456 0
6458 -6456 -6455 0
-6458 6456 0
-6458 6455 0
6459 -6455 -6455 -6460 0
-6459 6455 0
-6459 6455 0
-6459 6460 0
-3191 6461 6454 6457 6458 6459 0
3191 -6461 0
3191 -6454 0
3191 -6457 0
3191 -6458 0
3191 -6459 0
6462 -6455 -6463 0
-6462 6455 0
-6462 6463 0
6464 -6456 -6463 0
-6464 6456 0
-6464 6463 0
6465 -6456 -6466 0
-6465 6456 0
-6465 6466 0
6467 -6455 -6466 -6460 0
-6467 6455 0
-6467 6466 0
-6467 6460 0
-3187 6468 6462 6464 6465 6467 0
3187 -6468 0
3187 -6462 0
3187 -6464 0
3187 -6465 0
3187 -6467 0
6469 -6455 -6470 0
-6469 6455 0
-6469 6470 0
6471 -6456 -6472 0
-6471 6456 0
-6471 6472 0
6473 -6456 -6470 0
-6473 6456 0
-6473 6470 0
6474 -6455 -6472 -6460 0
-6474 6455 0
-6474 6472 0
-6474 6460 0
-3211 6475 6469 6471 6473 6474 0
3211 -6475 0
3211 -6469 0
3211 -6471 0
3211 -6473 0
3211 -6474 0
6476 -6477 -6470 0
-6476 6477 0
-6476 6470 0
6478 -6479 -6470 0
-6478 6479 0
-6478 6470 0
6480 -6479 -6472 0
-6480 6479 0
-6480 6472 0
6481 -6477 -6472 -6460 0
-6481 6477 0
-6481 6472 0
-6481 6460 0
-3209 6482 6476 6478 6480 6481 0
3209 -6482 0
3209 -6476 0
3209 -6478 0
3209 -6480 0
3209 -6481 0
6483 -6455 -6484 0
-6483 6455 0
-6483 6484 0
6485 -6456 -6484 0
-6485 6456 0
-6485 6484 0
6486 -6456 -6487 0
-6486 6456 0
-6486 6487 0
6488 -6455 -6487 -6460 0
-6488 6455 0
-6488 6487 0
-6488 6460 0
-3195 6489 6483 6485 6486 6488 0
3195 -6489 0
3195 -6483 0
3195 -6485 0
3195 -6486 0
3195 -6488 0
6490 -6455 -6491 0
-6490 6455 0
-6490 6491 0
6492 -6456 -6493 0
-6492 6456 0
-6492 6493 0
6494 -6456 -6491 0
-6494 6456 0
-6494 6491 0
6495 -6455 -6493 -6460 0
-6495 6455 0
-6495 6493 0
-6495 6460 0
-3202 6496 6490 6492 6494 6495 0
3202 -6496 0
3202 -6490 0
3202 -6492 0
3202 -6494 0
3202 -6495 0
6497 -6477 -6491 0
-6497 6477 0
-6497 6491 0
6498 -6479 -6491 0
-6498 6479 0
-6498 6491 0
6499 -6479 -6493 0
-6499 6479 0
-6499 6493 0
6500 -6477 -6493 -6460 0
-6500 6477 0
-6500 6493 0
-6500 6460 0
-3204 6501 6497 6498 6499 6500 0
3204 -6501 0
3204 -6497 0
3204 -6498 0
3204 -6499 0
3204 -6500 0
6502 -6466 -6479 0
-6502 6466 0
-6502 6479 0
6503 -6463 -6477 0
-6503 6463 0
-6503 6477 0
6504 -6463 -6479 0
-6504 6463 0
-6504 6479 0
6505 -6466 -6477 -6460 0
-6505 6466 0
-6505 6477 0
-6505 6460 0
-3186 6506 6502 6503 6504 6505 0
3186 -6506 0
3186 -6502 0
3186 -6503 0
3186 -6504 0
3186 -6505 0
6507 -6466 -6463 0
-6507 6466 0
-6507 6463 0
6508 -6463 -6463 0
-6508 6463 0
-6508 6463 0
6509 -6463 -6466 0
-6509 6463 0
-6509 6466 0
6510 -6466 -6466 -6460 0
-6510 6466 0
-6510 6466 0
-6510 6460 0
-3193 6511 6507 6508 6509 6510 0
3193 -6511 0
3193 -6507 0
3193 -6508 0
3193 -6509 0
3193 -6510 0
6512 -6466 -6484 0
-6512 6466 0
-6512 6484 0
6513 -6463 -6484 0
-6513 6463 0
-6513 6484 0
6514 -6463 -6487 0
-6514 6463 0
-6514 6487 0
6515 -6466 -6487 -6460 0
-6515 6466 0
-6515 6487 0
-6515 6460 0
-3200 6516 6512 6513 6514 6515 0
3200 -6516 0
3200 -6512 0
3200 -6513 0
3200 -6514 0
3200 -6515 0
6517 -6466 -6491 0
-6517 6466 0
-6517 6491 0
6518 -6463 -6493 0
-6518 6463 0
-6518 6493 0
6519 -6463 -6491 0
-6519 6463 0
-6519 6491 0
6520 -6466 -6493 -6460 0
-6520 6466 0
-6520 6493 0
-6520 6460 0
-3207 6521 6517 6518 6519 6520 0
3207 -6521 0
3207 -6517 0
3207 -6518 0
3207 -6519 0
3207 -6520 0
6522 -6472 -6491 0
-6522 6472 0
-6522 6491 0
6523 -6470 -6491 0
-6523 6470 0
-6523 6491 0
6524 -6470 -6493 0
-6524 6470 0
-6524 6493 0
6525 -6472 -6493 -6460 0
-6525 6472 0
-6525 6493 0
-6525 6460 0
-3214 6526 6522 6523 6524 6525 0
3214 -6526 0
3214 -6522 0
3214 -6523 0
3214 -6524 0
3214 -6525 0
6527 -6487 -6479 0
-6527 6487 0
-6527 6479 0
6528 -6484 -6477 0
-6528 6484 0
-6528 6477 0
6529 -6484 -6479 0
-6529 6484 0
-6529 6479 0
6530 -6487 -6477 -6460 0
-6530 6487 0
-6530 6477 0
-6530 6460 0
-3198 6531 6527 6528 6529 6530 0
3198 -6531 0
3198 -6527 0
3198 -6528 0
3198 -6529 0
3198 -6530 0
6532 -6487 -6470 0
-6532 6487 0
-6532 6470 0
6533 -6484 -6472 0
-6533 6484 0
-6533 6472 0
6534 -6484 -6470 0
-6534 6484 0
-6534 6470 0
6535 -6487 -6472 -6460 0
-6535 6487 0
-6535 6472 0
-6535 6460 0
-3219 6536 6532 6533 6534 6535 0
3219 -6536 0
3219 -6532 0
3219 -6533 0
3219 -6534 0
3219 -6535 0
6537 -6487 -6484 0
-6537 6487 0
-6537 6484 0
6538 -6484 -6484 0
-6538 6484 0
-6538 6484 0
6539 -6484 -6487 0
-6539 6484 0
-6539 6487 0
6540 -6487 -6487 -6460 0
-6540 6487 0
-6540 6487 0
-6540 6460 0
-3225 6541 6537 6538 6539 6540 0
3225 -6541 0
3225 -6537 0
3225 -6538 0
3225 -6539 0
3225 -6540 0
6542 -6543 -6543 0
-6542 6543 0
-6542 6543 0
-5529 6544 6542 0
5529 -6544 0
5529 -6542 0
6545 -6543 -6546 0
-6545 6543 0
-6545 6546 0
-5525 6547 6545 0
5525 -6547 0
5525 -6545 0
6548 -6543 -6549 0
-6548 6543 0
-6548 6549 0
-5543 6550 6548 0
5543 -6550 0
5543 -6548 0
6551 -6552 -6549 0
-6551 6552 0
-6551 6549 0
-5168 6553 6551 0
5168 -6553 0
5168 -6551 0
6554 -6543 -6555 0
-6554 6543 0
-6554 6555 0
-5532 6556 6554 0
5532 -6556 0
5532 -6554 0
6557 -6543 -6558 0
-6557 6543 0
-6557 6558 0
-5537 6559 6557 0
5537 -6559 0
5537 -6557 0
6560 -6552 -6558 0
-6560 6552 0
-6560 6558 0
-5165 6561 6560 0
5165 -6561 0
5165 -6560 0
6562 -6546 -6552 0
-6562 6546 0
-6562 6552 0
-5158 6563 6562 0
5158 -6563 0
5158 -6562 0
6564 -6546 -6546 0
-6564 6546 0
-6564 6546 0
-5160 6565 6564 0
5160 -6565 0
5160 -6564 0
6566 -6546 -6555 0
-6566 6546 0
-6566 6555 0
-5163 6567 6566 0
5163 -6567 0
5163 -6566 0
6568 -6546 -6558 0
-6568 6546 0
-6568 6558 0
-5166 6569 6568 0
5166 -6569 0
5166 -6568 0
6570 -6549 -6558 0
-6570 6549 0
-6570 6558 0
-5169 6571 6570 0
5169 -6571 0
5169 -6570 0
6572 -6555 -6552 0
-6572 6555 0
-6572 6552 0
-5162 6573 6572 0
5162 -6573 0
5162 -6572 0
6574 -6555 -6549 0
-6574 6555 0
-6574 6549 0
-5171 6575 6574 0
5171 -6575 0
5171 -6574 0
6576 -6555 -6555 0
-6576 6555 0
-6576 6555 0
-5174 6577 6576 0
5174 -6577 0
5174 -6576 0
6578 -6579 -6579 0
-6578 6579 0
-6578 6579 0
-1328 6580 6578 0
1328 -6580 0
1328 -6578 0
6581 -6579 -6582 0
-6581 6579 0
-6581 6582 0
-1324 6583 6581 0
1324 -6583 0
1324 -6581 0
6584 -6579 -6585 0
-6584 6579 0
-6584 6585 0
-1348 6586 6584 0
1348 -6586 0
1348 -6584 0
6587 -6588 -6585 0
-6587 6588 0
-6587 6585 0
-1346 6589 6587 0
1346 -6589 0
1346 -6587 0
6590 -6579 -6591 0
-6590 6579 0
-6590 6591 0
-1332 6592 6590 0
1332 -6592 0
1332 -6590 0
6593 -6579 -6594 0
-6593 6579 0
-6593 6594 0
-1339 6595 6593 0
1339 -6595 0
1339 -6593 0
6596 -6588 -6594 0
-6596 6588 0
-6596 6594 0
-1341 6597 6596 0
1341 -6597 0
1341 -6596 0
6598 -6582 -6588 0
-6598 6582 0
-6598 6588 0
-1323 6599 6598 0
1323 -6599 0
1323 -6598 0
6600 -6582 -6582 0
-6600 6582 0
-6600 6582 0
-1330 6601 6600 0
1330 -6601 0
1330 -6600 0
6602 -6582 -6591 0
-6602 6582 0
-6602 6591 0
-1337 6603 6602 0
1337 -6603 0
1337 -6602 0
6604 -6582 -6594 0
-6604 6582 0
-6604 6594 0
-1344 6605 6604 0
1344 -6605 0
1344 -6604 0
6606 -6585 -6594 0
-6606 6585 0
-6606 6594 0
-1351 6607 6606 0
1351 -6607 0
1351 -6606 0
6608 -6591 -6588 0
-6608 6591 0
-6608 6588 0
-1335 6609 6608 0
1335 -6609 0
1335 -6608 0
6610 -6591 -6585 0
-6610 6591 0
-6610 6585 0
-1356 6611 6610 0
1356 -6611 0
1356 -6610 0
6612 -6591 -6591 0
-6612 6591 0
-6612 6591 0
-1362 6613 6612 0
1362 -6613 0
1362 -6612 0
6614 -6475 -6468 0
-6614 6475 0
-6614 6468 0
6615 -6468 -6468 0
-6615 6468 0
-6615 6468 0
6616 -6468 -6475 0
-6616 6468 0
-6616 6475 0
6617 -6475 -6475 -6511 0
-6617 6475 0
-6617 6475 0
-6617 6511 0
-2811 6461 6614 6615 6616 6617 0
2811 -6461 0
2811 -6614 0
2811 -6615 0
2811 -6616 0
2811 -6617 0
6618 -6475 -6463 0
-6618 6475 0
-6618 6463 0
6619 -6468 -6463 0
-6619 6468 0
-6619 6463 0
6620 -6468 -6470 0
-6620 6468 0
-6620 6470 0
6621 -6475 -6470 -6511 0
-6621 6475 0
-6621 6470 0
-6621 6511 0
-2807 6456 6618 6619 6620 6621 0
2807 -6456 0
2807 -6618 0
2807 -6619 0
2807 -6620 0
2807 -6621 0
6622 -6475 -6466 0
-6622 6475 0
-6622 6466 0
6623 -6468 -6472 0
-6623 6468 0
-6623 6472 0
6624 -6468 -6466 0
-6624 6468 0
-6624 6466 0
6625 -6475 -6472 -6511 0
-6625 6475 0
-6625 6472 0
-6625 6511 0
-2825 6455 6622 6623 6624 6625 0
2825 -6455 0
2825 -6622 0
2825 -6623 0
2825 -6624 0
2825 -6625 0
6626 -6482 -6466 0
-6626 6482 0
-6626 6466 0
6627 -6506 -6466 0
-6627 6506 0
-6627 6466 0
6628 -6506 -6472 0
-6628 6506 0
-6628 6472 0
6629 -6482 -6472 -6511 0
-6629 6482 0
-6629 6472 0
-6629 6511 0
-2613 6477 6626 6627 6628 6629 0
2613 -6477 0
2613 -6626 0
2613 -6627 0
2613 -6628 0
2613 -6629 0
6630 -6475 -6516 0
-6630 6475 0
-6630 6516 0
6631 -6468 -6516 0
-6631 6468 0
-6631 6516 0
6632 -6468 -6536 0
-6632 6468 0
-6632 6536 0
6633 -6475 -6536 -6511 0
-6633 6475 0
-6633 6536 0
-6633 6511 0
-2814 6489 6630 6631 6632 6633 0
2814 -6489 0
2814 -6630 0
2814 -6631 0
2814 -6632 0
2814 -6633 0
6634 -6475 -6521 0
-6634 6475 0
-6634 6521 0
6635 -6468 -6526 0
-6635 6468 0
-6635 6526 0
6636 -6468 -6521 0
-6636 6468 0
-6636 6521 0
6637 -6475 -6526 -6511 0
-6637 6475 0
-6637 6526 0
-6637 6511 0
-2819 6496 6634 6635 6636 6637 0
2819 -6496 0
2819 -6634 0
2819 -6635 0
2819 -6636 0
2819 -6637 0
6638 -6482 -6521 0
-6638 6482 0
-6638 6521 0
6639 -6506 -6521 0
-6639 6506 0
-6639 6521 0
6640 -6506 -6526 0
-6640 6506 0
-6640 6526 0
6641 -6482 -6526 -6511 0
-6641 6482 0
-6641 6526 0
-6641 6511 0
-2610 6501 6638 6639 6640 6641 0
2610 -6501 0
2610 -6638 0
2610 -6639 0
2610 -6640 0
2610 -6641 0
6642 -6470 -6506 0
-6642 6470 0
-6642 6506 0
6643 -6463 -6482 0
-6643 6463 0
-6643 6482 0
6644 -6463 -6506 0
-6644 6463 0
-6644 6506 0
6645 -6470 -6482 -6511 0
-6645 6470 0
-6645 6482 0
-6645 6511 0
-2603 6479 6642 6643 6644 6645 0
2603 -6479 0
2603 -6642 0
2603 -6643 0
2603 -6644 0
2603 -6645 0
6646 -6470 -6463 0
-6646 6470 0
-6646 6463 0
6508 -6463 -6463 0
-6508 6463 0
-6508 6463 0
6647 -6463 -6470 0
-6647 6463 0
-6647 6470 0
6648 -6470 -6470 -6511 0
-6648 6470 0
-6648 6470 0
-6648 6511 0
-2605 6460 6646 6508 6647 6648 0
2605 -6460 0
2605 -6646 0
2605 -6508 0
2605 -6647 0
2605 -6648 0
6649 -6470 -6516 0
-6649 6470 0
-6649 6516 0
6650 -6463 -6516 0
-6650 6463 0
-6650 6516 0
6651 -6463 -6536 0
-6651 6463 0
-6651 6536 0
6652 -6470 -6536 -6511 0
-6652 6470 0
-6652 6536 0
-6652 6511 0
-2608 6484 6649 6650 6651 6652 0
2608 -6484 0
2608 -6649 0
2608 -6650 0
2608 -6651 0
2608 -6652 0
6653 -6470 -6521 0
-6653 6470 0
-6653 6521 0
6654 -6463 -6526 0
-6654 6463 0
-6654 6526 0
6655 -6463 -6521 0
-6655 6463 0
-6655 6521 0
6656 -6470 -6526 -6511 0
-6656 6470 0
-6656 6526 0
-6656 6511 0
-2611 6491 6653 6654 6655 6656 0
2611 -6491 0
2611 -6653 0
2611 -6654 0
2611 -6655 0
2611 -6656 0
6657 -6472 -6521 0
-6657 6472 0
-6657 6521 0
6658 -6466 -6521 0
-6658 6466 0
-6658 6521 0
6659 -6466 -6526 0
-6659 6466 0
-6659 6526 0
6660 -6472 -6526 -6511 0
-6660 6472 0
-6660 6526 0
-6660 6511 0
-2614 6493 6657 6658 6659 6660 0
2614 -6493 0
2614 -6657 0
2614 -6658 0
2614 -6659 0
2614 -6660 0
6661 -6536 -6506 0
-6661 6536 0
-6661 6506 0
6662 -6516 -6482 0
-6662 6516 0
-6662 6482 0
6663 -6516 -6506 0
-6663 6516 0
-6663 6506 0
6664 -6536 -6482 -6511 0
-6664 6536 0
-6664 6482 0
-6664 6511 0
-2607 6531 6661 6662 6663 6664 0
2607 -6531 0
2607 -6661 0
2607 -6662 0
2607 -6663 0
2607 -6664 0
6665 -6536 -6466 0
-6665 6536 0
-6665 6466 0
6666 -6516 -6472 0
-6666 6516 0
-6666 6472 0
6667 -6516 -6466 0
-6667 6516 0
-6667 6466 0
6668 -6536 -6472 -6511 0
-6668 6536 0
-6668 6472 0
-6668 6511 0
-2616 6487 6665 6666 6667 6668 0
2616 -6487 0
2616 -6665 0
2616 -6666 0
2616 -6667 0
2616 -6668 0
6669 -6536 -6516 0
-6669 6536 0
-6669 6516 0
6670 -6516 -6516 0
-6670 6516 0
-6670 6516 0
6671 -6516 -6536 0
-6671 6516 0
-6671 6536 0
6672 -6536 -6536 -6511 0
-6672 6536 0
-6672 6536 0
-6672 6511 0
-2619 6541 6669 6670 6671 6672 0
2619 -6541 0
2619 -6669 0
2619 -6670 0
2619 -6671 0
2619 -6672 0
6673 -6674 -6675 0
-6673 6674 0
-6673 6675 0
6676 -6675 -6675 0
-6676 6675 0
-6676 6675 0
6677 -6675 -6674 0
-6677 6675 0
-6677 6674 0
6678 -6674 -6674 -6679 0
-6678 6674 0
-6678 6674 0
-6678 6679 0
-3725 6680 6673 6676 6677 6678 0
3725 -6680 0
3725 -6673 0
3725 -6676 0
3725 -6677 0
3725 -6678 0
6681 -6674 -6682 0
-6681 6674 0
-6681 6682 0
6683 -6675 -6682 0
-6683 6675 0
-6683 6682 0
6684 -6675 -6685 0
-6684 6675 0
-6684 6685 0
6686 -6674 -6685 -6679 0
-6686 6674 0
-6686 6685 0
-6686 6679 0
-3721 6687 6681 6683 6684 6686 0
3721 -6687 0
3721 -6681 0
3721 -6683 0
3721 -6684 0
3721 -6686 0
6688 -6674 -6689 0
-6688 6674 0
-6688 6689 0
6690 -6675 -6691 0
-6690 6675 0
-6690 6691 0
6692 -6675 -6689 0
-6692 6675 0
-6692 6689 0
6693 -6674 -6691 -6679 0
-6693 6674 0
-6693 6691 0
-6693 6679 0
-3745 6694 6688 6690 6692 6693 0
3745 -6694 0
3745 -6688 0
3745 -6690 0
3745 -6692 0
3745 -6693 0
6695 -6696 -6689 0
-6695 6696 0
-6695 6689 0
6697 -6698 -6689 0
-6697 6698 0
-6697 6689 0
6699 -6698 -6691 0
-6699 6698 0
-6699 6691 0
6700 -6696 -6691 -6679 0
-6700 6696 0
-6700 6691 0
-6700 6679 0
-3743 6701 6695 6697 6699 6700 0
3743 -6701 0
3743 -6695 0
3743 -6697 0
3743 -6699 0
3743 -6700 0
6702 -6674 -6703 0
-6702 6674 0
-6702 6703 0
6704 -6675 -6703 0
-6704 6675 0
-6704 6703 0
6705 -6675 -6706 0
-6705 6675 0
-6705 6706 0
6707 -6674 -6706 -6679 0
-6707 6674 0
-6707 6706 0
-6707 6679 0
-3729 6708 6702 6704 6705 6707 0
3729 -6708 0
3729 -6702 0
3729 -6704 0
3729 -6705 0
3729 -6707 0
6709 -6674 -6710 0
-6709 6674 0
-6709 6710 0
6711 -6675 -6712 0
-6711 6675 0
-6711 6712 0
6713 -6675 -6710 0
-6713 6675 0
-6713 6710 0
6714 -6674 -6712 -6679 0
-6714 6674 0
-6714 6712 0
-6714 6679 0
-3736 6715 6709 6711 6713 6714 0
3736 -6715 0
3736 -6709 0
3736 -6711 0
3736 -6713 0
3736 -6714 0
6716 -6696 -6710 0
-6716 6696 0
-6716 6710 0
6717 -6698 -6710 0
-6717 6698 0
-6717 6710 0
6718 -6698 -6712 0
-6718 6698 0
-6718 6712 0
6719 -6696 -6712 -6679 0
-6719 6696 0
-6719 6712 0
-6719 6679 0
-3738 6720 6716 6717 6718 6719 0
3738 -6720 0
3738 -6716 0
3738 -6717 0
3738 -6718 0
3738 -6719 0
6721 -6685 -6698 0
-6721 6685 0
-6721 6698 0
6722 -6682 -6696 0
-6722 6682 0
-6722 6696 0
6723 -6682 -6698 0
-6723 6682 0
-6723 6698 0
6724 -6685 -6696 -6679 0
-6724 6685 0
-6724 6696 0
-6724 6679 0
-3720 6725 6721 6722 6723 6724 0
3720 -6725 0
3720 -6721 0
3720 -6722 0
3720 -6723 0
3720 -6724 0
6726 -6685 -6682 0
-6726 6685 0
-6726 6682 0
6727 -6682 -6682 0
-6727 6682 0
-6727 6682 0
6728 -6682 -6685 0
-6728 6682 0
-6728 6685 0
6729 -6685 -6685 -6679 0
-6729 6685 0
-6729 6685 0
-6729 6679 0
-3727 6730 6726 6727 6728 6729 0
3727 -6730 0
3727 -6726 0
3727 -6727 0
3727 -6728 0
3727 -6729 0
6731 -6685 -6703 0
-6731 6685 0
-6731 6703 0
6732 -6682 -6703 0
-6732 6682 0
-6732 6703 0
6733 -6682 -6706 0
-6733 6682 0
-6733 6706 0
6734 -6685 -6706 -6679 0
-6734 6685 0
-6734 6706 0
-6734 6679 0
-3734 6735 6731 6732 6733 6734 0
3734 -6735 0
3734 -6731 0
3734 -6732 0
3734 -6733 0
3734 -6734 0
6736 -6685 -6710 0
-6736 6685 0
-6736 6710 0
6737 -6682 -6712 0
-6737 6682 0
-6737 6712 0
6738 -6682 -6710 0
-6738 6682 0
-6738 6710 0
6739 -6685 -6712 -6679 0
-6739 6685 0
-6739 6712 0
-6739 6679 0
-3741 6740 6736 6737 6738 6739 0
3741 -6740 0
3741 -6736 0
3741 -6737 0
3741 -6738 0
3741 -6739 0
6741 -6691 -6710 0
-6741 6691 0
-6741 6710 0
6742 -6689 -6710 0
-6742 6689 0
-6742 6710 0
6743 -6689 -6712 0
-6743 6689 0
-6743 6712 0
6744 -6691 -6712 -6679 0
-6744 6691 0
-6744 6712 0
-6744 6679 0
-3748 6745 6741 6742 6743 6744 0
3748 -6745 0
3748 -6741 0
3748 -6742 0
3748 -6743 0
3748 -6744 0
6746 -6706 -6698 0
-6746 6706 0
-6746 6698 0
6747 -6703 -6696 0
-6747 6703 0
-6747 6696 0
6748 -6703 -6698 0
-6748 6703 0
-6748 6698 0
6749 -6706 -6696 -6679 0
-6749 6706 0
-6749 6696 0
-6749 6679 0
-3732 6750 6746 6747 6748 6749 0
3732 -6750 0
3732 -6746 0
3732 -6747 0
3732 -6748 0
3732 -6749 0
6751 -6706 -6689 0
-6751 6706 0
-6751 6689 0
6752 -6703 -6691 0
-6752 6703 0
-6752 6691 0
6753 -6703 -6689 0
-6753 6703 0
-6753 6689 0
6754 -6706 -6691 -6679 0
-6754 6706 0
-6754 6691 0
-6754 6679 0
-3753 6755 6751 6752 6753 6754 0
3753 -6755 0
3753 -6751 0
3753 -6752 0
3753 -6753 0
3753 -6754 0
6756 -6706 -6703 0
-6756 6706 0
-6756 6703 0
6757 -6703 -6703 0
-6757 6703 0
-6757 6703 0
6758 -6703 -6706 0
-6758 6703 0
-6758 6706 0
6759 -6706 -6706 -6679 0
-6759 6706 0
-6759 6706 0
-6759 6679 0
-3759 6760 6756 6757 6758 6759 0
3759 -6760 0
3759 -6756 0
3759 -6757 0
3759 -6758 0
3759 -6759 0
6761 -6550 -6550 0
-6761 6550 0
-6761 6550 0
-1507 6544 6761 0
1507 -6544 0
1507 -6761 0
6762 -6550 -6763 0
-6762 6550 0
-6762 6763 0
-1501 6764 6762 0
1501 -6764 0
1501 -6762 0
6765 -6550 -6549 0
-6765 6550 0
-6765 6549 0
-1500 6543 6765 0
1500 -6543 0
1500 -6765 0
6766 -6553 -6549 0
-6766 6553 0
-6766 6549 0
-1523 6552 6766 0
1523 -6552 0
1523 -6766 0
6767 -6550 -6575 0
-6767 6550 0
-6767 6575 0
-1514 6556 6767 0
1514 -6556 0
1514 -6767 0
6768 -6550 -6571 0
-6768 6550 0
-6768 6571 0
-1521 6559 6768 0
1521 -6559 0
1521 -6768 0
6769 -6553 -6571 0
-6769 6553 0
-6769 6571 0
-1528 6561 6769 0
1528 -6561 0
1528 -6769 0
6770 -6763 -6553 0
-6770 6763 0
-6770 6553 0
-1525 6771 6770 0
1525 -6771 0
1525 -6770 0
6772 -6763 -6763 0
-6772 6763 0
-6772 6763 0
-1505 6773 6772 0
1505 -6773 0
1505 -6772 0
6774 -6763 -6575 0
-6774 6763 0
-6774 6575 0
-1509 6775 6774 0
1509 -6775 0
1509 -6774 0
6776 -6763 -6571 0
-6776 6763 0
-6776 6571 0
-1516 6777 6776 0
1516 -6777 0
1516 -6776 0
6778 -6549 -6571 0
-6778 6549 0
-6778 6571 0
-1518 6558 6778 0
1518 -6558 0
1518 -6778 0
6779 -6575 -6553 0
-6779 6575 0
-6779 6553 0
-1533 6573 6779 0
1533 -6573 0
1533 -6779 0
6780 -6575 -6549 0
-6780 6575 0
-6780 6549 0
-1512 6555 6780 0
1512 -6555 0
1512 -6780 0
6781 -6575 -6575 0
-6781 6575 0
-6781 6575 0
-1539 6577 6781 0
1539 -6577 0
1539 -6781 0
6782 -6783 -6784 0
-6782 6783 0
-6782 6784 0
6785 -6784 -6784 0
-6785 6784 0
-6785 6784 0
6786 -6784 -6783 0
-6786 6784 0
-6786 6783 0
6787 -6783 -6783 -6788 0
-6787 6783 0
-6787 6783 0
-6787 6788 0
-1464 6789 6782 6785 6786 6787 0
1464 -6789 0
1464 -6782 0
1464 -6785 0
1464 -6786 0
1464 -6787 0
6790 -6783 -6791 0
-6790 6783 0
-6790 6791 0
6792 -6784 -6791 0
-6792 6784 0
-6792 6791 0
6793 -6784 -6794 0
-6793 6784 0
-6793 6794 0
6795 -6783 -6794 -6788 0
-6795 6783 0
-6795 6794 0
-6795 6788 0
-1460 6796 6790 6792 6793 6795 0
1460 -6796 0
1460 -6790 0
1460 -6792 0
1460 -6793 0
1460 -6795 0
6797 -6783 -6798 0
-6797 6783 0
-6797 6798 0
6799 -6784 -6800 0
-6799 6784 0
-6799 6800 0
6801 -6784 -6798 0
-6801 6784 0
-6801 6798 0
6802 -6783 -6800 -6788 0
-6802 6783 0
-6802 6800 0
-6802 6788 0
-1484 6803 6797 6799 6801 6802 0
1484 -6803 0
1484 -6797 0
1484 -6799 0
1484 -6801 0
1484 -6802 0
6804 -6805 -6798 0
-6804 6805 0
-6804 6798 0
6806 -6807 -6798 0
-6806 6807 0
-6806 6798 0
6808 -6807 -6800 0
-6808 6807 0
-6808 6800 0
6809 -6805 -6800 -6788 0
-6809 6805 0
-6809 6800 0
-6809 6788 0
-1482 6810 6804 6806 6808 6809 0
1482 -6810 0
1482 -6804 0
1482 -6806 0
1482 -6808 0
1482 -6809 0
6811 -6783 -6812 0
-6811 6783 0
-6811 6812 0
6813 -6784 -6812 0
-6813 6784 0
-6813 6812 0
6814 -6784 -6815 0
-6814 6784 0
-6814 6815 0
6816 -6783 -6815 -6788 0
-6816 6783 0
-6816 6815 0
-6816 6788 0
-1468 6817 6811 6813 6814 6816 0
1468 -6817 0
1468 -6811 0
1468 -6813 0
1468 -6814 0
1468 -6816 0
6818 -6783 -6819 0
-6818 6783 0
-6818 6819 0
6820 -6784 -6821 0
-6820 6784 0
-6820 6821 0
6822 -6784 -6819 0
-6822 6784 0
-6822 6819 0
6823 -6783 -6821 -6788 0
-6823 6783 0
-6823 6821 0
-6823 6788 0
-1475 6824 6818 6820 6822 6823 0
1475 -6824 0
1475 -6818 0
1475 -6820 0
1475 -6822 0
1475 -6823 0
6825 -6805 -6819 0
-6825 6805 0
-6825 6819 0
6826 -6807 -6819 0
-6826 6807 0
-6826 6819 0
6827 -6807 -6821 0
-6827 6807 0
-6827 6821 0
6828 -6805 -6821 -6788 0
-6828 6805 0
-6828 6821 0
-6828 6788 0
-1477 6829 6825 6826 6827 6828 0
1477 -6829 0
1477 -6825 0
1477 -6826 0
1477 -6827 0
1477 -6828 0
6830 -6794 -6807 0
-6830 6794 0
-6830 6807 0
6831 -6791 -6805 0
-6831 6791 0
-6831 6805 0
6832 -6791 -6807 0
-6832 6791 0
-6832 6807 0
6833 -6794 -6805 -6788 0
-6833 6794 0
-6833 6805 0
-6833 6788 0
-1459 6834 6830 6831 6832 6833 0
1459 -6834 0
1459 -6830 0
1459 -6831 0
1459 -6832 0
1459 -6833 0
6835 -6794 -6791 0
-6835 6794 0
-6835 6791 0
6836 -6791 -6791 0
-6836 6791 0
-6836 6791 0
6837 -6791 -6794 0
-6837 6791 0
-6837 6794 0
6838 -6794 -6794 -6788 0
-6838 6794 0
-6838 6794 0
-6838 6788 0
-1466 6839 6835 6836 6837 6838 0
1466 -6839 0
1466 -6835 0
1466 -6836 0
1466 -6837 0
1466 -6838 0
6840 -6794 -6812 0
-6840 6794 0
-6840 6812 0
6841 -6791 -6812 0
-6841 6791 0
-6841 6812 0
6842 -6791 -6815 0
-6842 6791 0
-6842 6815 0
6843 -6794 -6815 -6788 0
-6843 6794 0
-6843 6815 0
-6843 6788 0
-1473 6844 6840 6841 6842 6843 0
1473 -6844 0
1473 -6840 0
1473 -6841 0
1473 -6842 0
1473 -6843 0
6845 -6794 -6819 0
-6845 6794 0
-6845 6819 0
6846 -6791 -6821 0
-6846 6791 0
-6846 6821 0
6847 -6791 -6819 0
-6847 6791 0
-6847 6819 0
6848 -6794 -6821 -6788 0
-6848 6794 0
-6848 6821 0
-6848 6788 0
-1480 6849 6845 6846 6847 6848 0
1480 -6849 0
1480 -6845 0
1480 -6846 0
1480 -6847 0
1480 -6848 0
6850 -6800 -6819 0
-6850 6800 0
-6850 6819 0
6851 -6798 -6819 0
-6851 6798 0
-6851 6819 0
6852 -6798 -6821 0
-6852 6798 0
-6852 6821 0
6853 -6800 -6821 -6788 0
-6853 6800 0
-6853 6821 0
-6853 6788 0
-1487 6854 6850 6851 6852 6853 0
1487 -6854 0
1487 -6850 0
1487 -6851 0
1487 -6852 0
1487 -6853 0
6855 -6815 -6807 0
-6855 6815 0
-6855 6807 0
6856 -6812 -6805 0
-6856 6812 0
-6856 6805 0
6857 -6812 -6807 0
-6857 6812 0
-6857 6807 0
6858 -6815 -6805 -6788 0
-6858 6815 0
-6858 6805 0
-6858 6788 0
-1471 6859 6855 6856 6857 6858 0
1471 -6859 0
1471 -6855 0
1471 -6856 0
1471 -6857 0
1471 -6858 0
6860 -6815 -6798 0
-6860 6815 0
-6860 6798 0
6861 -6812 -6800 0
-6861 6812 0
-6861 6800 0
6862 -6812 -6798 0
-6862 6812 0
-6862 6798 0
6863 -6815 -6800 -6788 0
-6863 6815 0
-6863 6800 0
-6863 6788 0
-1492 6864 6860 6861 6862 6863 0
1492 -6864 0
1492 -6860 0
1492 -6861 0
1492 -6862 0
1492 -6863 0
6865 -6815 -6812 0
-6865 6815 0
-6865 6812 0
6866 -6812 -6812 0
-6866 6812 0
-6866 6812 0
6867 -6812 -6815 0
-6867 6812 0
-6867 6815 0
6868 -6815 -6815 -6788 0
-6868 6815 0
-6868 6815 0
-6868 6788 0
-1498 6869 6865 6866 6867 6868 0
1498 -6869 0
1498 -6865 0
1498 -6866 0
1498 -6867 0
1498 -6868 0
6870 -6871 -6872 0
-6870 6871 0
-6870 6872 0
6873 -6872 -6872 0
-6873 6872 0
-6873 6872 0
6874 -6872 -6871 0
-6874 6872 0
-6874 6871 0
6875 -6871 -6871 -6876 0
-6875 6871 0
-6875 6871 0
-6875 6876 0
-3255 6877 6870 6873 6874 6875 0
3255 -6877 0
3255 -6870 0
3255 -6873 0
3255 -6874 0
3255 -6875 0
6878 -6871 -6879 0
-6878 6871 0
-6878 6879 0
6880 -6872 -6879 0
-6880 6872 0
-6880 6879 0
6881 -6872 -6882 0
-6881 6872 0
-6881 6882 0
6883 -6871 -6882 -6876 0
-6883 6871 0
-6883 6882 0
-6883 6876 0
-4801 6884 6878 6880 6881 6883 0
4801 -6884 0
4801 -6878 0
4801 -6880 0
4801 -6881 0
4801 -6883 0
6885 -6871 -6886 0
-6885 6871 0
-6885 6886 0
6887 -6872 -6888 0
-6887 6872 0
-6887 6888 0
6889 -6872 -6886 0
-6889 6872 0
-6889 6886 0
6890 -6871 -6888 -6876 0
-6890 6871 0
-6890 6888 0
-6890 6876 0
-3253 6891 6885 6887 6889 6890 0
3253 -6891 0
3253 -6885 0
3253 -6887 0
3253 -6889 0
3253 -6890 0
6892 -6893 -6886 0
-6892 6893 0
-6892 6886 0
6894 -6895 -6886 0
-6894 6895 0
-6894 6886 0
6896 -6895 -6888 0
-6896 6895 0
-6896 6888 0
6897 -6893 -6888 -6876 0
-6897 6893 0
-6897 6888 0
-6897 6876 0
-3263 6898 6892 6894 6896 6897 0
3263 -6898 0
3263 -6892 0
3263 -6894 0
3263 -6896 0
3263 -6897 0
6899 -6871 -6900 0
-6899 6871 0
-6899 6900 0
6901 -6872 -6900 0
-6901 6872 0
-6901 6900 0
6902 -6872 -6903 0
-6902 6872 0
-6902 6903 0
6904 -6871 -6903 -6876 0
-6904 6871 0
-6904 6903 0
-6904 6876 0
-3258 6905 6899 6901 6902 6904 0
3258 -6905 0
3258 -6899 0
3258 -6901 0
3258 -6902 0
3258 -6904 0
6906 -6871 -6907 0
-6906 6871 0
-6906 6907 0
6908 -6872 -6909 0
-6908 6872 0
-6908 6909 0
6910 -6872 -6907 0
-6910 6872 0
-6910 6907 0
6911 -6871 -6909 -6876 0
-6911 6871 0
-6911 6909 0
-6911 6876 0
-3261 6912 6906 6908 6910 6911 0
3261 -6912 0
3261 -6906 0
3261 -6908 0
3261 -6910 0
3261 -6911 0
6913 -6893 -6907 0
-6913 6893 0
-6913 6907 0
6914 -6895 -6907 0
-6914 6895 0
-6914 6907 0
6915 -6895 -6909 0
-6915 6895 0
-6915 6909 0
6916 -6893 -6909 -6876 0
-6916 6893 0
-6916 6909 0
-6916 6876 0
-3264 6917 6913 6914 6915 6916 0
3264 -6917 0
3264 -6913 0
3264 -6914 0
3264 -6915 0
3264 -6916 0
6918 -6882 -6895 0
-6918 6882 0
-6918 6895 0
6919 -6879 -6893 0
-6919 6879 0
-6919 6893 0
6920 -6879 -6895 0
-6920 6879 0
-6920 6895 0
6921 -6882 -6893 -6876 0
-6921 6882 0
-6921 6893 0
-6921 6876 0
-4800 6922 6918 6919 6920 6921 0
4800 -6922 0
4800 -6918 0
4800 -6919 0
4800 -6920 0
4800 -6921 0
6923 -6882 -6879 0
-6923 6882 0
-6923 6879 0
6924 -6879 -6879 0
-6924 6879 0
-6924 6879 0
6925 -6879 -6882 0
-6925 6879 0
-6925 6882 0
6926 -6882 -6882 -6876 0
-6926 6882 0
-6926 6882 0
-6926 6876 0
-4806 6927 6923 6924 6925 6926 0
4806 -6927 0
4806 -6923 0
4806 -6924 0
4806 -6925 0
4806 -6926 0
6928 -6882 -6900 0
-6928 6882 0
-6928 6900 0
6929 -6879 -6900 0
-6929 6879 0
-6929 6900 0
6930 -6879 -6903 0
-6930 6879 0
-6930 6903 0
6931 -6882 -6903 -6876 0
-6931 6882 0
-6931 6903 0
-6931 6876 0
-4811 6932 6928 6929 6930 6931 0
4811 -6932 0
4811 -6928 0
4811 -6929 0
4811 -6930 0
4811 -6931 0
6933 -6882 -6907 0
-6933 6882 0
-6933 6907 0
6934 -6879 -6909 0
-6934 6879 0
-6934 6909 0
6935 -6879 -6907 0
-6935 6879 0
-6935 6907 0
6936 -6882 -6909 -6876 0
-6936 6882 0
-6936 6909 0
-6936 6876 0
-4816 6937 6933 6934 6935 6936 0
4816 -6937 0
4816 -6933 0
4816 -6934 0
4816 -6935 0
4816 -6936 0
6938 -6888 -6907 0
-6938 6888 0
-6938 6907 0
6939 -6886 -6907 0
-6939 6886 0
-6939 6907 0
6940 -6886 -6909 0
-6940 6886 0
-6940 6909 0
6941 -6888 -6909 -6876 0
-6941 6888 0
-6941 6909 0
-6941 6876 0
-3260 6942 6938 6939 6940 6941 0
3260 -6942 0
3260 -6938 0
3260 -6939 0
3260 -6940 0
3260 -6941 0
6943 -6903 -6895 0
-6943 6903 0
-6943 6895 0
6944 -6900 -6893 0
-6944 6900 0
-6944 6893 0
6945 -6900 -6895 0
-6945 6900 0
-6945 6895 0
6946 -6903 -6893 -6876 0
-6946 6903 0
-6946 6893 0
-6946 6876 0
-3266 6947 6943 6944 6945 6946 0
3266 -6947 0
3266 -6943 0
3266 -6944 0
3266 -6945 0
3266 -6946 0
6948 -6903 -6886 0
-6948 6903 0
-6948 6886 0
6949 -6900 -6888 0
-6949 6900 0
-6949 6888 0
6950 -6900 -6886 0
-6950 6900 0
-6950 6886 0
6951 -6903 -6888 -6876 0
-6951 6903 0
-6951 6888 0
-6951 6876 0
-3257 6952 6948 6949 6950 6951 0
3257 -6952 0
3257 -6948 0
3257 -6949 0
3257 -6950 0
3257 -6951 0
6953 -6903 -6900 0
-6953 6903 0
-6953 6900 0
6954 -6900 -6900 0
-6954 6900 0
-6954 6900 0
6955 -6900 -6903 0
-6955 6900 0
-6955 6903 0
6956 -6903 -6903 -6876 0
-6956 6903 0
-6956 6903 0
-6956 6876 0
-3269 6957 6953 6954 6955 6956 0
3269 -6957 0
3269 -6953 0
3269 -6954 0
3269 -6955 0
3269 -6956 0
6958 -6959 -6960 0
-6958 6959 0
-6958 6960 0
6961 -6960 -6960 0
-6961 6960 0
-6961 6960 0
6962 -6960 -6959 0
-6962 6960 0
-6962 6959 0
6963 -6959 -6959 -6964 0
-6963 6959 0
-6963 6959 0
-6963 6964 0
-4216 6965 6958 6961 6962 6963 0
4216 -6965 0
4216 -6958 0
4216 -6961 0
4216 -6962 0
4216 -6963 0
6966 -6959 -6967 0
-6966 6959 0
-6966 6967 0
6968 -6960 -6967 0
-6968 6960 0
-6968 6967 0
6969 -6960 -6970 0
-6969 6960 0
-6969 6970 0
6971 -6959 -6970 -6964 0
-6971 6959 0
-6971 6970 0
-6971 6964 0
-4212 6972 6966 6968 6969 6971 0
4212 -6972 0
4212 -6966 0
4212 -6968 0
4212 -6969 0
4212 -6971 0
6973 -6959 -6974 0
-6973 6959 0
-6973 6974 0
6975 -6960 -6976 0
-6975 6960 0
-6975 6976 0
6977 -6960 -6974 0
-6977 6960 0
-6977 6974 0
6978 -6959 -6976 -6964 0
-6978 6959 0
-6978 6976 0
-6978 6964 0
-4236 6979 6973 6975 6977 6978 0
4236 -6979 0
4236 -6973 0
4236 -6975 0
4236 -6977 0
4236 -6978 0
6980 -6981 -6974 0
-6980 6981 0
-6980 6974 0
6982 -6983 -6974 0
-6982 6983 0
-6982 6974 0
6984 -6983 -6976 0
-6984 6983 0
-6984 6976 0
6985 -6981 -6976 -6964 0
-6985 6981 0
-6985 6976 0
-6985 6964 0
-4234 6986 6980 6982 6984 6985 0
4234 -6986 0
4234 -6980 0
4234 -6982 0
4234 -6984 0
4234 -6985 0
6987 -6959 -6988 0
-6987 6959 0
-6987 6988 0
6989 -6960 -6988 0
-6989 6960 0
-6989 6988 0
6990 -6960 -6991 0
-6990 6960 0
-6990 6991 0
6992 -6959 -6991 -6964 0
-6992 6959 0
-6992 6991 0
-6992 6964 0
-4220 6993 6987 6989 6990 6992 0
4220 -6993 0
4220 -6987 0
4220 -6989 0
4220 -6990 0
4220 -6992 0
6994 -6959 -6995 0
-6994 6959 0
-6994 6995 0
6996 -6960 -6997 0
-6996 6960 0
-6996 6997 0
6998 -6960 -6995 0
-6998 6960 0
-6998 6995 0
6999 -6959 -6997 -6964 0
-6999 6959 0
-6999 6997 0
-6999 6964 0
-4227 7000 6994 6996 6998 6999 0
4227 -7000 0
4227 -6994 0
4227 -6996 0
4227 -6998 0
4227 -6999 0
7001 -6981 -6995 0
-7001 6981 0
-7001 6995 0
7002 -6983 -6995 0
-7002 6983 0
-7002 6995 0
7003 -6983 -6997 0
-7003 6983 0
-7003 6997 0
7004 -6981 -6997 -6964 0
-7004 6981 0
-7004 6997 0
-7004 6964 0
-4229 7005 7001 7002 7003 7004 0
4229 -7005 0
4229 -7001 0
4229 -7002 0
4229 -7003 0
4229 -7004 0
7006 -6970 -6983 0
-7006 6970 0
-7006 6983 0
7007 -6967 -6981 0
-7007 6967 0
-7007 6981 0
7008 -6967 -6983 0
-7008 6967 0
-7008 6983 0
7009 -6970 -6981 -6964 0
-7009 6970 0
-7009 6981 0
-7009 6964 0
-4211 7010 7006 7007 7008 7009 0
4211 -7010 0
4211 -7006 0
4211 -7007 0
4211 -7008 0
4211 -7009 0
7011 -6970 -6967 0
-7011 6970 0
-7011 6967 0
7012 -6967 -6967 0
-7012 6967 0
-7012 6967 0
7013 -6967 -6970 0
-7013 6967 0
-7013 6970 0
7014 -6970 -6970 -6964 0
-7014 6970 0
-7014 6970 0
-7014 6964 0
-4218 7015 7011 7012 7013 7014 0
4218 -7015 0
4218 -7011 0
4218 -7012 0
4218 -7013 0
4218 -7014 0
7016 -6970 -6988 0
-7016 6970 0
-7016 6988 0
7017 -6967 -6988 0
-7017 6967 0
-7017 6988 0
7018 -6967 -6991 0
-7018 6967 0
-7018 6991 0
7019 -6970 -6991 -6964 0
-7019 6970 0
-7019 6991 0
-7019 6964 0
-4225 7020 7016 7017 7018 7019 0
4225 -7020 0
4225 -7016 0
4225 -7017 0
4225 -7018 0
4225 -7019 0
7021 -6970 -6995 0
-7021 6970 0
-7021 6995 0
7022 -6967 -6997 0
-7022 6967 0
-7022 6997 0
7023 -6967 -6995 0
-7023 6967 0
-7023 6995 0
7024 -6970 -6997 -6964 0
-7024 6970 0
-7024 6997 0
-7024 6964 0
-4232 7025 7021 7022 7023 7024 0
4232 -7025 0
4232 -7021 0
4232 -7022 0
4232 -7023 0
4232 -7024 0
7026 -6976 -6995 0
-7026 6976 0
-7026 6995 0
7027 -6974 -6995 0
-7027 6974 0
-7027 6995 0
7028 -6974 -6997 0
-7028 6974 0
-7028 6997 0
7029 -6976 -6997 -6964 0
-7029 6976 0
-7029 6997 0
-7029 6964 0
-4239 7030 7026 7027 7028 7029 0
4239 -7030 0
4239 -7026 0
4239 -7027 0
4239 -7028 0
4239 -7029 0
7031 -6991 -6983 0
-7031 6991 0
-7031 6983 0
7032 -6988 -6981 0
-7032 6988 0
-7032 6981 0
7033 -6988 -6983 0
-7033 6988 0
-7033 6983 0
7034 -6991 -6981 -6964 0
-7034 6991 0
-7034 6981 0
-7034 6964 0
-4223 7035 7031 7032 7033 7034 0
4223 -7035 0
4223 -7031 0
4223 -7032 0
4223 -7033 0
4223 -7034 0
7036 -6991 -6974 0
-7036 6991 0
-7036 6974 0
7037 -6988 -6976 0
-7037 6988 0
-7037 6976 0
7038 -6988 -6974 0
-7038 6988 0
-7038 6974 0
7039 -6991 -6976 -6964 0
-7039 6991 0
-7039 6976 0
-7039 6964 0
-4244 7040 7036 7037 7038 7039 0
4244 -7040 0
4244 -7036 0
4244 -7037 0
4244 -7038 0
4244 -7039 0
7041 -6991 -6988 0
-7041 6991 0
-7041 6988 0
7042 -6988 -6988 0
-7042 6988 0
-7042 6988 0
7043 -6988 -6991 0
-7043 6988 0
-7043 6991 0
7044 -6991 -6991 -6964 0
-7044 6991 0
-7044 6991 0
-7044 6964 0
-4250 7045 7041 7042 7043 7044 0
4250 -7045 0
4250 -7041 0
4250 -7042 0
4250 -7043 0
4250 -7044 0
7046 -6455 -6455 0
-7046 6455 0
-7046 6455 0
-2056 6461 7046 0
2056 -6461 0
2056 -7046 0
7047 -6455 -6466 0
-7047 6455 0
-7047 6466 0
-2052 6468 7047 0
2052 -6468 0
2052 -7047 0
7048 -6455 -6472 0
-7048 6455 0
-7048 6472 0
-2070 6475 7048 0
2070 -6475 0
2070 -7048 0
7049 -6477 -6472 0
-7049 6477 0
-7049 6472 0
-1954 6482 7049 0
1954 -6482 0
1954 -7049 0
7050 -6455 -6487 0
-7050 6455 0
-7050 6487 0
-2059 6489 7050 0
2059 -6489 0
2059 -7050 0
7051 -6455 -6493 0
-7051 6455 0
-7051 6493 0
-2064 6496 7051 0
2064 -6496 0
2064 -7051 0
7052 -6477 -6493 0
-7052 6477 0
-7052 6493 0
-1951 6501 7052 0
1951 -6501 0
1951 -7052 0
7053 -6466 -6477 0
-7053 6466 0
-7053 6477 0
-1944 6506 7053 0
1944 -6506 0
1944 -7053 0
7054 -6466 -6466 0
-7054 6466 0
-7054 6466 0
-1946 6511 7054 0
1946 -6511 0
1946 -7054 0
7055 -6466 -6487 0
-7055 6466 0
-7055 6487 0
-1949 6516 7055 0
1949 -6516 0
1949 -7055 0
7056 -6466 -6493 0
-7056 6466 0
-7056 6493 0
-1952 6521 7056 0
1952 -6521 0
1952 -7056 0
7057 -6472 -6493 0
-7057 6472 0
-7057 6493 0
-1955 6526 7057 0
1955 -6526 0
1955 -7057 0
7058 -6487 -6477 0
-7058 6487 0
-7058 6477 0
-1948 6531 7058 0
1948 -6531 0
1948 -7058 0
7059 -6487 -6472 0
-7059 6487 0
-7059 6472 0
-1957 6536 7059 0
1957 -6536 0
1957 -7059 0
7060 -6487 -6487 0
-7060 6487 0
-7060 6487 0
-1960 6541 7060 0
1960 -6541 0
1960 -7060 0
7061 -7062 -7062 0
-7061 7062 0
-7061 7062 0
-3771 7063 7061 0
3771 -7063 0
3771 -7061 0
7064 -7062 -7065 0
-7064 7062 0
-7064 7065 0
-3773 7066 7064 0
3773 -7066 0
3773 -7064 0
7067 -7062 -7068 0
-7067 7062 0
-7067 7068 0
-3775 7069 7067 0
3775 -7069 0
3775 -7067 0
7070 -7071 -7068 0
-7070 7071 0
-7070 7068 0
-1392 7072 7070 0
1392 -7072 0
1392 -7070 0
7073 -7062 -7074 0
-7073 7062 0
-7073 7074 0
-4381 7075 7073 0
4381 -7075 0
4381 -7073 0
7076 -7062 -7077 0
-7076 7062 0
-7076 7077 0
-3769 7078 7076 0
3769 -7078 0
3769 -7076 0
7079 -7071 -7077 0
-7079 7071 0
-7079 7077 0
-1389 7080 7079 0
1389 -7080 0
1389 -7079 0
7081 -7065 -7071 0
-7081 7065 0
-7081 7071 0
-1382 7082 7081 0
1382 -7082 0
1382 -7081 0
7083 -7065 -7065 0
-7083 7065 0
-7083 7065 0
-1384 7084 7083 0
1384 -7084 0
1384 -7083 0
7085 -7065 -7074 0
-7085 7065 0
-7085 7074 0
-1387 7086 7085 0
1387 -7086 0
1387 -7085 0
7087 -7065 -7077 0
-7087 7065 0
-7087 7077 0
-1390 7088 7087 0
1390 -7088 0
1390 -7087 0
7089 -7068 -7077 0
-7089 7068 0
-7089 7077 0
-1393 7090 7089 0
1393 -7090 0
1393 -7089 0
7091 -7074 -7071 0
-7091 7074 0
-7091 7071 0
-1386 7092 7091 0
1386 -7092 0
1386 -7091 0
7093 -7074 -7068 0
-7093 7074 0
-7093 7068 0
-1395 7094 7093 0
1395 -7094 0
1395 -7093 0
7095 -7074 -7074 0
-7095 7074 0
-7095 7074 0
-1398 7096 7095 0
1398 -7096 0
1398 -7095 0
7097 -6959 -6959 0
-7097 6959 0
-7097 6959 0
-2843 6965 7097 0
2843 -6965 0
2843 -7097 0
7098 -6959 -6970 0
-7098 6959 0
-7098 6970 0
-2839 6972 7098 0
2839 -6972 0
2839 -7098 0
7099 -6959 -6976 0
-7099 6959 0
-7099 6976 0
-2863 6979 7099 0
2863 -6979 0
2863 -7099 0
7100 -6981 -6976 0
-7100 6981 0
-7100 6976 0
-2861 6986 7100 0
2861 -6986 0
2861 -7100 0
7101 -6959 -6991 0
-7101 6959 0
-7101 6991 0
-2847 6993 7101 0
2847 -6993 0
2847 -7101 0
7102 -6959 -6997 0
-7102 6959 0
-7102 6997 0
-2854 7000 7102 0
2854 -7000 0
2854 -7102 0
7103 -6981 -6997 0
-7103 6981 0
-7103 6997 0
-2856 7005 7103 0
2856 -7005 0
2856 -7103 0
7104 -6970 -6981 0
-7104 6970 0
-7104 6981 0
-2838 7010 7104 0
2838 -7010 0
2838 -7104 0
7105 -6970 -6970 0
-7105 6970 0
-7105 6970 0
-2845 7015 7105 0
2845 -7015 0
2845 -7105 0
7106 -6970 -6991 0
-7106 6970 0
-7106 6991 0
-2852 7020 7106 0
2852 -7020 0
2852 -7106 0
7107 -6970 -6997 0
-7107 6970 0
-7107 6997 0
-2859 7025 7107 0
2859 -7025 0
2859 -7107 0
7108 -6976 -6997 0
-7108 6976 0
-7108 6997 0
-2866 7030 7108 0
2866 -7030 0
2866 -7108 0
7109 -6991 -6981 0
-7109 6991 0
-7109 6981 0
-2850 7035 7109 0
2850 -7035 0
2850 -7109 0
7110 -6991 -6976 0
-7110 6991 0
-7110 6976 0
-2871 7040 7110 0
2871 -7040 0
2871 -7110 0
7111 -6991 -6991 0
-7111 6991 0
-7111 6991 0
-2877 7045 7111 0
2877 -7045 0
2877 -7111 0
7112 -7113 -7114 0
-7112 7113 0
-7112 7114 0
7115 -7114 -7114 0
-7115 7114 0
-7115 7114 0
7116 -7114 -7113 0
-7116 7114 0
-7116 7113 0
7117 -7113 -7113 -7118 0
-7117 7113 0
-7117 7113 0
-7117 7118 0
-2625 7119 7112 7115 7116 7117 0
2625 -7119 0
2625 -7112 0
2625 -7115 0
2625 -7116 0
2625 -7117 0
7120 -7113 -7121 0
-7120 7113 0
-7120 7121 0
7122 -7114 -7121 0
-7122 7114 0
-7122 7121 0
7123 -7114 -7124 0
-7123 7114 0
-7123 7124 0
7125 -7113 -7124 -7118 0
-7125 7113 0
-7125 7124 0
-7125 7118 0
-2621 7126 7120 7122 7123 7125 0
2621 -7126 0
2621 -7120 0
2621 -7122 0
2621 -7123 0
2621 -7125 0
7127 -7113 -7128 0
-7127 7113 0
-7127 7128 0
7129 -7114 -7130 0
-7129 7114 0
-7129 7130 0
7131 -7114 -7128 0
-7131 7114 0
-7131 7128 0
7132 -7113 -7130 -7118 0
-7132 7113 0
-7132 7130 0
-7132 7118 0
-2639 7133 7127 7129 7131 7132 0
2639 -7133 0
2639 -7127 0
2639 -7129 0
2639 -7131 0
2639 -7132 0
7134 -7135 -7128 0
-7134 7135 0
-7134 7128 0
7136 -7137 -7128 0
-7136 7137 0
-7136 7128 0
7138 -7137 -7130 0
-7138 7137 0
-7138 7130 0
7139 -7135 -7130 -7118 0
-7139 7135 0
-7139 7130 0
-7139 7118 0
-2008 7140 7134 7136 7138 7139 0
2008 -7140 0
2008 -7134 0
2008 -7136 0
2008 -7138 0
2008 -7139 0
7141 -7113 -7142 0
-7141 7113 0
-7141 7142 0
7143 -7114 -7142 0
-7143 7114 0
-7143 7142 0
7144 -7114 -7145 0
-7144 7114 0
-7144 7145 0
7146 -7113 -7145 -7118 0
-7146 7113 0
-7146 7145 0
-7146 7118 0
-2628 7147 7141 7143 7144 7146 0
2628 -7147 0
2628 -7141 0
2628 -7143 0
2628 -7144 0
2628 -7146 0
7148 -7113 -7149 0
-7148 7113 0
-7148 7149 0
7150 -7114 -7151 0
-7150 7114 0
-7150 7151 0
7152 -7114 -7149 0
-7152 7114 0
-7152 7149 0
7153 -7113 -7151 -7118 0
-7153 7113 0
-7153 7151 0
-7153 7118 0
-2633 7154 7148 7150 7152 7153 0
2633 -7154 0
2633 -7148 0
2633 -7150 0
2633 -7152 0
2633 -7153 0
7155 -7135 -7149 0
-7155 7135 0
-7155 7149 0
7156 -7137 -7149 0
-7156 7137 0
-7156 7149 0
7157 -7137 -7151 0
-7157 7137 0
-7157 7151 0
7158 -7135 -7151 -7118 0
-7158 7135 0
-7158 7151 0
-7158 7118 0
-2005 7159 7155 7156 7157 7158 0
2005 -7159 0
2005 -7155 0
2005 -7156 0
2005 -7157 0
2005 -7158 0
7160 -7124 -7137 0
-7160 7124 0
-7160 7137 0
7161 -7121 -7135 0
-7161 7121 0
-7161 7135 0
7162 -7121 -7137 0
-7162 7121 0
-7162 7137 0
7163 -7124 -7135 -7118 0
-7163 7124 0
-7163 7135 0
-7163 7118 0
-1998 7164 7160 7161 7162 7163 0
1998 -7164 0
1998 -7160 0
1998 -7161 0
1998 -7162 0
1998 -7163 0
7165 -7124 -7121 0
-7165 7124 0
-7165 7121 0
7166 -7121 -7121 0
-7166 7121 0
-7166 7121 0
7167 -7121 -7124 0
-7167 7121 0
-7167 7124 0
7168 -7124 -7124 -7118 0
-7168 7124 0
-7168 7124 0
-7168 7118 0
-2000 7169 7165 7166 7167 7168 0
2000 -7169 0
2000 -7165 0
2000 -7166 0
2000 -7167 0
2000 -7168 0
7170 -7124 -7142 0
-7170 7124 0
-7170 7142 0
7171 -7121 -7142 0
-7171 7121 0
-7171 7142 0
7172 -7121 -7145 0
-7172 7121 0
-7172 7145 0
7173 -7124 -7145 -7118 0
-7173 7124 0
-7173 7145 0
-7173 7118 0
-2003 7174 7170 7171 7172 7173 0
2003 -7174 0
2003 -7170 0
2003 -7171 0
2003 -7172 0
2003 -7173 0
7175 -7124 -7149 0
-7175 7124 0
-7175 7149 0
7176 -7121 -7151 0
-7176 7121 0
-7176 7151 0
7177 -7121 -7149 0
-7177 7121 0
-7177 7149 0
7178 -7124 -7151 -7118 0
-7178 7124 0
-7178 7151 0
-7178 7118 0
-2006 7179 7175 7176 7177 7178 0
2006 -7179 0
2006 -7175 0
2006 -7176 0
2006 -7177 0
2006 -7178 0
7180 -7130 -7149 0
-7180 7130 0
-7180 7149 0
7181 -7128 -7149 0
-7181 7128 0
-7181 7149 0
7182 -7128 -7151 0
-7182 7128 0
-7182 7151 0
7183 -7130 -7151 -7118 0
-7183 7130 0
-7183 7151 0
-7183 7118 0
-2009 7184 7180 7181 7182 7183 0
2009 -7184 0
2009 -7180 0
2009 -7181 0
2009 -7182 0
2009 -7183 0
7185 -7145 -7137 0
-7185 7145 0
-7185 7137 0
7186 -7142 -7135 0
-7186 7142 0
-7186 7135 0
7187 -7142 -7137 0
-7187 7142 0
-7187 7137 0
7188 -7145 -7135 -7118 0
-7188 7145 0
-7188 7135 0
-7188 7118 0
-2002 7189 7185 7186 7187 7188 0
2002 -7189 0
2002 -7185 0
2002 -7186 0
2002 -7187 0
2002 -7188 0
7190 -7145 -7128 0
-7190 7145 0
-7190 7128 0
7191 -7142 -7130 0
-7191 7142 0
-7191 7130 0
7192 -7142 -7128 0
-7192 7142 0
-7192 7128 0
7193 -7145 -7130 -7118 0
-7193 7145 0
-7193 7130 0
-7193 7118 0
-2011 7194 7190 7191 7192 7193 0
2011 -7194 0
2011 -7190 0
2011 -7191 0
2011 -7192 0
2011 -7193 0
7195 -7145 -7142 0
-7195 7145 0
-7195 7142 0
7196 -7142 -7142 0
-7196 7142 0
-7196 7142 0
7197 -7142 -7145 0
-7197 7142 0
-7197 7145 0
7198 -7145 -7145 -7118 0
-7198 7145 0
-7198 7145 0
-7198 7118 0
-2014 7199 7195 7196 7197 7198 0
2014 -7199 0
2014 -7195 0
2014 -7196 0
2014 -7197 0
2014 -7198 0
7200 -7201 -7202 0
-7200 7201 0
-7200 7202 0
7203 -7202 -7202 0
-7203 7202 0
-7203 7202 0
7204 -7202 -7201 0
-7204 7202 0
-7204 7201 0
7205 -7201 -7201 -7206 0
-7205 7201 0
-7205 7201 0
-7205 7206 0
-3273 7207 7200 7203 7204 7205 0
3273 -7207 0
3273 -7200 0
3273 -7203 0
3273 -7204 0
3273 -7205 0
7208 -7201 -7209 0
-7208 7201 0
-7208 7209 0
7210 -7202 -7209 0
-7210 7202 0
-7210 7209 0
7211 -7202 -7212 0
-7211 7202 0
-7211 7212 0
7213 -7201 -7212 -7206 0
-7213 7201 0
-7213 7212 0
-7213 7206 0
-3373 7214 7208 7210 7211 7213 0
3373 -7214 0
3373 -7208 0
3373 -7210 0
3373 -7211 0
3373 -7213 0
7215 -7201 -7216 0
-7215 7201 0
-7215 7216 0
7217 -7202 -7218 0
-7217 7202 0
-7217 7218 0
7219 -7202 -7216 0
-7219 7202 0
-7219 7216 0
7220 -7201 -7218 -7206 0
-7220 7201 0
-7220 7218 0
-7220 7206 0
-3271 7221 7215 7217 7219 7220 0
3271 -7221 0
3271 -7215 0
3271 -7217 0
3271 -7219 0
3271 -7220 0
7222 -7223 -7216 0
-7222 7223 0
-7222 7216 0
7224 -7225 -7216 0
-7224 7225 0
-7224 7216 0
7226 -7225 -7218 0
-7226 7225 0
-7226 7218 0
7227 -7223 -7218 -7206 0
-7227 7223 0
-7227 7218 0
-7227 7206 0
-3245 7228 7222 7224 7226 7227 0
3245 -7228 0
3245 -7222 0
3245 -7224 0
3245 -7226 0
3245 -7227 0
7229 -7201 -7230 0
-7229 7201 0
-7229 7230 0
7231 -7202 -7230 0
-7231 7202 0
-7231 7230 0
7232 -7202 -7233 0
-7232 7202 0
-7232 7233 0
7234 -7201 -7233 -7206 0
-7234 7201 0
-7234 7233 0
-7234 7206 0
-3275 7235 7229 7231 7232 7234 0
3275 -7235 0
3275 -7229 0
3275 -7231 0
3275 -7232 0
3275 -7234 0
7236 -7201 -7237 0
-7236 7201 0
-7236 7237 0
7238 -7202 -7239 0
-7238 7202 0
-7238 7239 0
7240 -7202 -7237 0
-7240 7202 0
-7240 7237 0
7241 -7201 -7239 -7206 0
-7241 7201 0
-7241 7239 0
-7241 7206 0
-3277 7242 7236 7238 7240 7241 0
3277 -7242 0
3277 -7236 0
3277 -7238 0
3277 -7240 0
3277 -7241 0
7243 -7223 -7237 0
-7243 7223 0
-7243 7237 0
7244 -7225 -7237 0
-7244 7225 0
-7244 7237 0
7245 -7225 -7239 0
-7245 7225 0
-7245 7239 0
7246 -7223 -7239 -7206 0
-7246 7223 0
-7246 7239 0
-7246 7206 0
-3242 7247 7243 7244 7245 7246 0
3242 -7247 0
3242 -7243 0
3242 -7244 0
3242 -7245 0
3242 -7246 0
7248 -7212 -7225 0
-7248 7212 0
-7248 7225 0
7249 -7209 -7223 0
-7249 7209 0
-7249 7223 0
7250 -7209 -7225 0
-7250 7209 0
-7250 7225 0
7251 -7212 -7223 -7206 0
-7251 7212 0
-7251 7223 0
-7251 7206 0
-3235 7252 7248 7249 7250 7251 0
3235 -7252 0
3235 -7248 0
3235 -7249 0
3235 -7250 0
3235 -7251 0
7253 -7212 -7209 0
-7253 7212 0
-7253 7209 0
7254 -7209 -7209 0
-7254 7209 0
-7254 7209 0
7255 -7209 -7212 0
-7255 7209 0
-7255 7212 0
7256 -7212 -7212 -7206 0
-7256 7212 0
-7256 7212 0
-7256 7206 0
-3237 7257 7253 7254 7255 7256 0
3237 -7257 0
3237 -7253 0
3237 -7254 0
3237 -7255 0
3237 -7256 0
7258 -7212 -7230 0
-7258 7212 0
-7258 7230 0
7259 -7209 -7230 0
-7259 7209 0
-7259 7230 0
7260 -7209 -7233 0
-7260 7209 0
-7260 7233 0
7261 -7212 -7233 -7206 0
-7261 7212 0
-7261 7233 0
-7261 7206 0
-3240 7262 7258 7259 7260 7261 0
3240 -7262 0
3240 -7258 0
3240 -7259 0
3240 -7260 0
3240 -7261 0
7263 -7212 -7237 0
-7263 7212 0
-7263 7237 0
7264 -7209 -7239 0
-7264 7209 0
-7264 7239 0
7265 -7209 -7237 0
-7265 7209 0
-7265 7237 0
7266 -7212 -7239 -7206 0
-7266 7212 0
-7266 7239 0
-7266 7206 0
-3243 7267 7263 7264 7265 7266 0
3243 -7267 0
3243 -7263 0
3243 -7264 0
3243 -7265 0
3243 -7266 0
7268 -7218 -7237 0
-7268 7218 0
-7268 7237 0
7269 -7216 -7237 0
-7269 7216 0
-7269 7237 0
7270 -7216 -7239 0
-7270 7216 0
-7270 7239 0
7271 -7218 -7239 -7206 0
-7271 7218 0
-7271 7239 0
-7271 7206 0
-3246 7272 7268 7269 7270 7271 0
3246 -7272 0
3246 -7268 0
3246 -7269 0
3246 -7270 0
3246 -7271 0
7273 -7233 -7225 0
-7273 7233 0
-7273 7225 0
7274 -7230 -7223 0
-7274 7230 0
-7274 7223 0
7275 -7230 -7225 0
-7275 7230 0
-7275 7225 0
7276 -7233 -7223 -7206 0
-7276 7233 0
-7276 7223 0
-7276 7206 0
-3239 7277 7273 7274 7275 7276 0
3239 -7277 0
3239 -7273 0
3239 -7274 0
3239 -7275 0
3239 -7276 0
7278 -7233 -7216 0
-7278 7233 0
-7278 7216 0
7279 -7230 -7218 0
-7279 7230 0
-7279 7218 0
7280 -7230 -7216 0
-7280 7230 0
-7280 7216 0
7281 -7233 -7218 -7206 0
-7281 7233 0
-7281 7218 0
-7281 7206 0
-3248 7282 7278 7279 7280 7281 0
3248 -7282 0
3248 -7278 0
3248 -7279 0
3248 -7280 0
3248 -7281 0
7283 -7233 -7230 0
-7283 7233 0
-7283 7230 0
7284 -7230 -7230 0
-7284 7230 0
-7284 7230 0
7285 -7230 -7233 0
-7285 7230 0
-7285 7233 0
7286 -7233 -7233 -7206 0
-7286 7233 0
-7286 7233 0
-7286 7206 0
-3251 7287 7283 7284 7285 7286 0
3251 -7287 0
3251 -7283 0
3251 -7284 0
3251 -7285 0
3251 -7286 0
7288 -6543 -6764 0
-7288 6543 0
-7288 6764 0
7289 -6764 -6764 0
-7289 6764 0
-7289 6764 0
7290 -6764 -6543 0
-7290 6764 0
-7290 6543 0
7291 -6543 -6543 -6773 0
-7291 6543 0
-7291 6543 0
-7291 6773 0
-1841 6544 7288 7289 7290 7291 0
1841 -6544 0
1841 -7288 0
1841 -7289 0
1841 -7290 0
1841 -7291 0
7292 -6543 -7293 0
-7292 6543 0
-7292 7293 0
7294 -6764 -7293 0
-7294 6764 0
-7294 7293 0
7295 -6764 -6546 0
-7295 6764 0
-7295 6546 0
7296 -6543 -6546 -6773 0
-7296 6543 0
-7296 6546 0
-7296 6773 0
-1837 6547 7292 7294 7295 7296 0
1837 -6547 0
1837 -7292 0
1837 -7294 0
1837 -7295 0
1837 -7296 0
7297 -6543 -6763 0
-7297 6543 0
-7297 6763 0
7298 -6764 -6549 0
-7298 6764 0
-7298 6549 0
7299 -6764 -6763 0
-7299 6764 0
-7299 6763 0
7300 -6543 -6549 -6773 0
-7300 6543 0
-7300 6549 0
-7300 6773 0
-1861 6550 7297 7298 7299 7300 0
1861 -6550 0
1861 -7297 0
1861 -7298 0
1861 -7299 0
1861 -7300 0
7301 -6552 -6763 0
-7301 6552 0
-7301 6763 0
7302 -6771 -6763 0
-7302 6771 0
-7302 6763 0
7303 -6771 -6549 0
-7303 6771 0
-7303 6549 0
7304 -6552 -6549 -6773 0
-7304 6552 0
-7304 6549 0
-7304 6773 0
-1859 6553 7301 7302 7303 7304 0
1859 -6553 0
1859 -7301 0
1859 -7302 0
1859 -7303 0
1859 -7304 0
7305 -6543 -6775 0
-7305 6543 0
-7305 6775 0
7306 -6764 -6775 0
-7306 6764 0
-7306 6775 0
7307 -6764 -6555 0
-7307 6764 0
-7307 6555 0
7308 -6543 -6555 -6773 0
-7308 6543 0
-7308 6555 0
-7308 6773 0
-1845 6556 7305 7306 7307 7308 0
1845 -6556 0
1845 -7305 0
1845 -7306 0
1845 -7307 0
1845 -7308 0
7309 -6543 -6777 0
-7309 6543 0
-7309 6777 0
7310 -6764 -6558 0
-7310 6764 0
-7310 6558 0
7311 -6764 -6777 0
-7311 6764 0
-7311 6777 0
7312 -6543 -6558 -6773 0
-7312 6543 0
-7312 6558 0
-7312 6773 0
-1852 6559 7309 7310 7311 7312 0
1852 -6559 0
1852 -7309 0
1852 -7310 0
1852 -7311 0
1852 -7312 0
7313 -6552 -6777 0
-7313 6552 0
-7313 6777 0
7314 -6771 -6777 0
-7314 6771 0
-7314 6777 0
7315 -6771 -6558 0
-7315 6771 0
-7315 6558 0
7316 -6552 -6558 -6773 0
-7316 6552 0
-7316 6558 0
-7316 6773 0
-1854 6561 7313 7314 7315 7316 0
1854 -6561 0
1854 -7313 0
1854 -7314 0
1854 -7315 0
1854 -7316 0
7317 -6546 -6771 0
-7317 6546 0
-7317 6771 0
7318 -7293 -6552 0
-7318 7293 0
-7318 6552 0
7319 -7293 -6771 0
-7319 7293 0
-7319 6771 0
7320 -6546 -6552 -6773 0
-7320 6546 0
-7320 6552 0
-7320 6773 0
-1836 6563 7317 7318 7319 7320 0
1836 -6563 0
1836 -7317 0
1836 -7318 0
1836 -7319 0
1836 -7320 0
7321 -6546 -7293 0
-7321 6546 0
-7321 7293 0
7322 -7293 -7293 0
-7322 7293 0
-7322 7293 0
7323 -7293 -6546 0
-7323 7293 0
-7323 6546 0
7324 -6546 -6546 -6773 0
-7324 6546 0
-7324 6546 0
-7324 6773 0
-1843 6565 7321 7322 7323 7324 0
1843 -6565 0
1843 -7321 0
1843 -7322 0
1843 -7323 0
1843 -7324 0
7325 -6546 -6775 0
-7325 6546 0
-7325 6775 0
7326 -7293 -6775 0
-7326 7293 0
-7326 6775 0
7327 -7293 -6555 0
-7327 7293 0
-7327 6555 0
7328 -6546 -6555 -6773 0
-7328 6546 0
-7328 6555 0
-7328 6773 0
-1850 6567 7325 7326 7327 7328 0
1850 -6567 0
1850 -7325 0
1850 -7326 0
1850 -7327 0
1850 -7328 0
7329 -6546 -6777 0
-7329 6546 0
-7329 6777 0
7330 -7293 -6558 0
-7330 7293 0
-7330 6558 0
7331 -7293 -6777 0
-7331 7293 0
-7331 6777 0
7332 -6546 -6558 -6773 0
-7332 6546 0
-7332 6558 0
-7332 6773 0
-1857 6569 7329 7330 7331 7332 0
1857 -6569 0
1857 -7329 0
1857 -7330 0
1857 -7331 0
1857 -7332 0
7333 -6549 -6777 0
-7333 6549 0
-7333 6777 0
7334 -6763 -6777 0
-7334 6763 0
-7334 6777 0
7335 -6763 -6558 0
-7335 6763 0
-7335 6558 0
7336 -6549 -6558 -6773 0
-7336 6549 0
-7336 6558 0
-7336 6773 0
-1864 6571 7333 7334 7335 7336 0
1864 -6571 0
1864 -7333 0
1864 -7334 0
1864 -7335 0
1864 -7336 0
7337 -6555 -6771 0
-7337 6555 0
-7337 6771 0
7338 -6775 -6552 0
-7338 6775 0
-7338 6552 0
7339 -6775 -6771 0
-7339 6775 0
-7339 6771 0
7340 -6555 -6552 -6773 0
-7340 6555 0
-7340 6552 0
-7340 6773 0
-1848 6573 7337 7338 7339 7340 0
1848 -6573 0
1848 -7337 0
1848 -7338 0
1848 -7339 0
1848 -7340 0
7341 -6555 -6763 0
-7341 6555 0
-7341 6763 0
7342 -6775 -6549 0
-7342 6775 0
-7342 6549 0
7343 -6775 -6763 0
-7343 6775 0
-7343 6763 0
7344 -6555 -6549 -6773 0
-7344 6555 0
-7344 6549 0
-7344 6773 0
-1869 6575 7341 7342 7343 7344 0
1869 -6575 0
1869 -7341 0
1869 -7342 0
1869 -7343 0
1869 -7344 0
7345 -6555 -6775 0
-7345 6555 0
-7345 6775 0
7346 -6775 -6775 0
-7346 6775 0
-7346 6775 0
7347 -6775 -6555 0
-7347 6775 0
-7347 6555 0
7348 -6555 -6555 -6773 0
-7348 6555 0
-7348 6555 0
-7348 6773 0
-1875 6577 7345 7346 7347 7348 0
1875 -6577 0
1875 -7345 0
1875 -7346 0
1875 -7347 0
1875 -7348 0
7349 -6475 -6475 0
-7349 6475 0
-7349 6475 0
-3288 6461 7349 0
3288 -6461 0
3288 -7349 0
7350 -6475 -6470 0
-7350 6475 0
-7350 6470 0
-3284 6456 7350 0
3284 -6456 0
3284 -7350 0
7351 -6475 -6472 0
-7351 6475 0
-7351 6472 0
-3308 6455 7351 0
3308 -6455 0
3308 -7351 0
7352 -6482 -6472 0
-7352 6482 0
-7352 6472 0
-3306 6477 7352 0
3306 -6477 0
3306 -7352 0
7353 -6475 -6536 0
-7353 6475 0
-7353 6536 0
-3292 6489 7353 0
3292 -6489 0
3292 -7353 0
7354 -6475 -6526 0
-7354 6475 0
-7354 6526 0
-3299 6496 7354 0
3299 -6496 0
3299 -7354 0
7355 -6482 -6526 0
-7355 6482 0
-7355 6526 0
-3301 6501 7355 0
3301 -6501 0
3301 -7355 0
7356 -6470 -6482 0
-7356 6470 0
-7356 6482 0
-3283 6479 7356 0
3283 -6479 0
3283 -7356 0
7357 -6470 -6470 0
-7357 6470 0
-7357 6470 0
-3290 6460 7357 0
3290 -6460 0
3290 -7357 0
7358 -6470 -6536 0
-7358 6470 0
-7358 6536 0
-3297 6484 7358 0
3297 -6484 0
3297 -7358 0
7359 -6470 -6526 0
-7359 6470 0
-7359 6526 0
-3304 6491 7359 0
3304 -6491 0
3304 -7359 0
7360 -6472 -6526 0
-7360 6472 0
-7360 6526 0
-3311 6493 7360 0
3311 -6493 0
3311 -7360 0
7361 -6536 -6482 0
-7361 6536 0
-7361 6482 0
-3295 6531 7361 0
3295 -6531 0
3295 -7361 0
7362 -6536 -6472 0
-7362 6536 0
-7362 6472 0
-3316 6487 7362 0
3316 -6487 0
3316 -7362 0
7363 -6536 -6536 0
-7363 6536 0
-7363 6536 0
-3322 6541 7363 0
3322 -6541 0
3322 -7363 0
7364 -7201 -7201 0
-7364 7201 0
-7364 7201 0
-2036 7207 7364 0
2036 -7207 0
2036 -7364 0
7365 -7201 -7212 0
-7365 7201 0
-7365 7212 0
-4558 7214 7365 0
4558 -7214 0
4558 -7365 0
7366 -7201 -7218 0
-7366 7201 0
-7366 7218 0
-2034 7221 7366 0
2034 -7221 0
2034 -7366 0
7367 -7223 -7218 0
-7367 7223 0
-7367 7218 0
-2044 7228 7367 0
2044 -7228 0
2044 -7367 0
7368 -7201 -7233 0
-7368 7201 0
-7368 7233 0
-2039 7235 7368 0
2039 -7235 0
2039 -7368 0
7369 -7201 -7239 0
-7369 7201 0
-7369 7239 0
-2042 7242 7369 0
2042 -7242 0
2042 -7369 0
7370 -7223 -7239 0
-7370 7223 0
-7370 7239 0
-2045 7247 7370 0
2045 -7247 0
2045 -7370 0
7371 -7212 -7223 0
-7371 7212 0
-7371 7223 0
-4576 7252 7371 0
4576 -7252 0
4576 -7371 0
7372 -7212 -7212 0
-7372 7212 0
-7372 7212 0
-4562 7257 7372 0
4562 -7257 0
4562 -7372 0
7373 -7212 -7233 0
-7373 7212 0
-7373 7233 0
-4565 7262 7373 0
4565 -7262 0
4565 -7373 0
7374 -7212 -7239 0
-7374 7212 0
-7374 7239 0
-4570 7267 7374 0
4570 -7267 0
4570 -7374 0
7375 -7218 -7239 0
-7375 7218 0
-7375 7239 0
-2041 7272 7375 0
2041 -7272 0
2041 -7375 0
7376 -7233 -7223 0
-7376 7233 0
-7376 7223 0
-2047 7277 7376 0
2047 -7277 0
2047 -7376 0
7377 -7233 -7218 0
-7377 7233 0
-7377 7218 0
-2038 7282 7377 0
2038 -7282 0
2038 -7377 0
7378 -7233 -7233 0
-7378 7233 0
-7378 7233 0
-2050 7287 7378 0
2050 -7287 0
2050 -7378 0
7379 -7380 -7380 0
-7379 7380 0
-7379 7380 0
-3014 7381 7379 0
3014 -7381 0
3014 -7379 0
7382 -7380 -7383 0
-7382 7380 0
-7382 7383 0
-3010 7384 7382 0
3010 -7384 0
3010 -7382 0
7385 -7380 -7386 0
-7385 7380 0
-7385 7386 0
-3034 7387 7385 0
3034 -7387 0
3034 -7385 0
7388 -7389 -7386 0
-7388 7389 0
-7388 7386 0
-3032 7390 7388 0
3032 -7390 0
3032 -7388 0
7391 -7380 -7392 0
-7391 7380 0
-7391 7392 0
-3018 7393 7391 0
3018 -7393 0
3018 -7391 0
7394 -7380 -7395 0
-7394 7380 0
-7394 7395 0
-3025 7396 7394 0
3025 -7396 0
3025 -7394 0
7397 -7389 -7395 0
-7397 7389 0
-7397 7395 0
-3027 7398 7397 0
3027 -7398 0
3027 -7397 0
7399 -7383 -7389 0
-7399 7383 0
-7399 7389 0
-3009 7400 7399 0
3009 -7400 0
3009 -7399 0
7401 -7383 -7383 0
-7401 7383 0
-7401 7383 0
-3016 7402 7401 0
3016 -7402 0
3016 -7401 0
7403 -7383 -7392 0
-7403 7383 0
-7403 7392 0
-3023 7404 7403 0
3023 -7404 0
3023 -7403 0
7405 -7383 -7395 0
-7405 7383 0
-7405 7395 0
-3030 7406 7405 0
3030 -7406 0
3030 -7405 0
7407 -7386 -7395 0
-7407 7386 0
-7407 7395 0
-3037 7408 7407 0
3037 -7408 0
3037 -7407 0
7409 -7392 -7389 0
-7409 7392 0
-7409 7389 0
-3021 7410 7409 0
3021 -7410 0
3021 -7409 0
7411 -7392 -7386 0
-7411 7392 0
-7411 7386 0
-3042 7412 7411 0
3042 -7412 0
3042 -7411 0
7413 -7392 -7392 0
-7413 7392 0
-7413 7392 0
-3048 7414 7413 0
3048 -7414 0
3048 -7413 0
7415 -7416 -7416 0
-7415 7416 0
-7415 7416 0
-1917 7417 7415 0
1917 -7417 0
1917 -7415 0
7418 -7416 -7419 0
-7418 7416 0
-7418 7419 0
-1913 7420 7418 0
1913 -7420 0
1913 -7418 0
7421 -7416 -7422 0
-7421 7416 0
-7421 7422 0
-1931 7423 7421 0
1931 -7423 0
1931 -7421 0
7424 -7425 -7422 0
-7424 7425 0
-7424 7422 0
-1887 7426 7424 0
1887 -7426 0
1887 -7424 0
7427 -7416 -7428 0
-7427 7416 0
-7427 7428 0
-1920 7429 7427 0
1920 -7429 0
1920 -7427 0
7430 -7416 -7431 0
-7430 7416 0
-7430 7431 0
-1925 7432 7430 0
1925 -7432 0
1925 -7430 0
7433 -7425 -7431 0
-7433 7425 0
-7433 7431 0
-1884 7434 7433 0
1884 -7434 0
1884 -7433 0
7435 -7419 -7425 0
-7435 7419 0
-7435 7425 0
-1877 7436 7435 0
1877 -7436 0
1877 -7435 0
7437 -7419 -7419 0
-7437 7419 0
-7437 7419 0
-1879 7438 7437 0
1879 -7438 0
1879 -7437 0
7439 -7419 -7428 0
-7439 7419 0
-7439 7428 0
-1882 7440 7439 0
1882 -7440 0
1882 -7439 0
7441 -7419 -7431 0
-7441 7419 0
-7441 7431 0
-1885 7442 7441 0
1885 -7442 0
1885 -7441 0
7443 -7422 -7431 0
-7443 7422 0
-7443 7431 0
-1888 7444 7443 0
1888 -7444 0
1888 -7443 0
7445 -7428 -7425 0
-7445 7428 0
-7445 7425 0
-1881 7446 7445 0
1881 -7446 0
1881 -7445 0
7447 -7428 -7422 0
-7447 7428 0
-7447 7422 0
-1890 7448 7447 0
1890 -7448 0
1890 -7447 0
7449 -7428 -7428 0
-7449 7428 0
-7449 7428 0
-1893 7450 7449 0
1893 -7450 0
1893 -7449 0
7451 -7452 -7453 0
-7451 7452 0
-7451 7453 0
7454 -7453 -7453 0
-7454 7453 0
-7454 7453 0
7455 -7453 -7452 0
-7455 7453 0
-7455 7452 0
7456 -7452 -7452 -7457 0
-7456 7452 0
-7456 7452 0
-7456 7457 0
-4740 7458 7451 7454 7455 7456 0
4740 -7458 0
4740 -7451 0
4740 -7454 0
4740 -7455 0
4740 -7456 0
7459 -7452 -7460 0
-7459 7452 0
-7459 7460 0
7461 -7453 -7460 0
-7461 7453 0
-7461 7460 0
7462 -7453 -7463 0
-7462 7453 0
-7462 7463 0
7464 -7452 -7463 -7457 0
-7464 7452 0
-7464 7463 0
-7464 7457 0
-4736 7465 7459 7461 7462 7464 0
4736 -7465 0
4736 -7459 0
4736 -7461 0
4736 -7462 0
4736 -7464 0
7466 -7452 -7467 0
-7466 7452 0
-7466 7467 0
7468 -7453 -7469 0
-7468 7453 0
-7468 7469 0
7470 -7453 -7467 0
-7470 7453 0
-7470 7467 0
7471 -7452 -7469 -7457 0
-7471 7452 0
-7471 7469 0
-7471 7457 0
-4754 7472 7466 7468 7470 7471 0
4754 -7472 0
4754 -7466 0
4754 -7468 0
4754 -7470 0
4754 -7471 0
7473 -7474 -7467 0
-7473 7474 0
-7473 7467 0
7475 -7476 -7467 0
-7475 7476 0
-7475 7467 0
7477 -7476 -7469 0
-7477 7476 0
-7477 7469 0
7478 -7474 -7469 -7457 0
-7478 7474 0
-7478 7469 0
-7478 7457 0
-2026 7479 7473 7475 7477 7478 0
2026 -7479 0
2026 -7473 0
2026 -7475 0
2026 -7477 0
2026 -7478 0
7480 -7452 -7481 0
-7480 7452 0
-7480 7481 0
7482 -7453 -7481 0
-7482 7453 0
-7482 7481 0
7483 -7453 -7484 0
-7483 7453 0
-7483 7484 0
7485 -7452 -7484 -7457 0
-7485 7452 0
-7485 7484 0
-7485 7457 0
-4743 7486 7480 7482 7483 7485 0
4743 -7486 0
4743 -7480 0
4743 -7482 0
4743 -7483 0
4743 -7485 0
7487 -7452 -7488 0
-7487 7452 0
-7487 7488 0
7489 -7453 -7490 0
-7489 7453 0
-7489 7490 0
7491 -7453 -7488 0
-7491 7453 0
-7491 7488 0
7492 -7452 -7490 -7457 0
-7492 7452 0
-7492 7490 0
-7492 7457 0
-4748 7493 7487 7489 7491 7492 0
4748 -7493 0
4748 -7487 0
4748 -7489 0
4748 -7491 0
4748 -7492 0
7494 -7474 -7488 0
-7494 7474 0
-7494 7488 0
7495 -7476 -7488 0
-7495 7476 0
-7495 7488 0
7496 -7476 -7490 0
-7496 7476 0
-7496 7490 0
7497 -7474 -7490 -7457 0
-7497 7474 0
-7497 7490 0
-7497 7457 0
-2023 7498 7494 7495 7496 7497 0
2023 -7498 0
2023 -7494 0
2023 -7495 0
2023 -7496 0
2023 -7497 0
7499 -7463 -7476 0
-7499 7463 0
-7499 7476 0
7500 -7460 -7474 0
-7500 7460 0
-7500 7474 0
7501 -7460 -7476 0
-7501 7460 0
-7501 7476 0
7502 -7463 -7474 -7457 0
-7502 7463 0
-7502 7474 0
-7502 7457 0
-2016 7503 7499 7500 7501 7502 0
2016 -7503 0
2016 -7499 0
2016 -7500 0
2016 -7501 0
2016 -7502 0
7504 -7463 -7460 0
-7504 7463 0
-7504 7460 0
7505 -7460 -7460 0
-7505 7460 0
-7505 7460 0
7506 -7460 -7463 0
-7506 7460 0
-7506 7463 0
7507 -7463 -7463 -7457 0
-7507 7463 0
-7507 7463 0
-7507 7457 0
-2018 7508 7504 7505 7506 7507 0
2018 -7508 0
2018 -7504 0
2018 -7505 0
2018 -7506 0
2018 -7507 0
7509 -7463 -7481 0
-7509 7463 0
-7509 7481 0
7510 -7460 -7481 0
-7510 7460 0
-7510 7481 0
7511 -7460 -7484 0
-7511 7460 0
-7511 7484 0
7512 -7463 -7484 -7457 0
-7512 7463 0
-7512 7484 0
-7512 7457 0
-2021 7513 7509 7510 7511 7512 0
2021 -7513 0
2021 -7509 0
2021 -7510 0
2021 -7511 0
2021 -7512 0
7514 -7463 -7488 0
-7514 7463 0
-7514 7488 0
7515 -7460 -7490 0
-7515 7460 0
-7515 7490 0
7516 -7460 -7488 0
-7516 7460 0
-7516 7488 0
7517 -7463 -7490 -7457 0
-7517 7463 0
-7517 7490 0
-7517 7457 0
-2024 7518 7514 7515 7516 7517 0
2024 -7518 0
2024 -7514 0
2024 -7515 0
2024 -7516 0
2024 -7517 0
7519 -7469 -7488 0
-7519 7469 0
-7519 7488 0
7520 -7467 -7488 0
-7520 7467 0
-7520 7488 0
7521 -7467 -7490 0
-7521 7467 0
-7521 7490 0
7522 -7469 -7490 -7457 0
-7522 7469 0
-7522 7490 0
-7522 7457 0
-2027 7523 7519 7520 7521 7522 0
2027 -7523 0
2027 -7519 0
2027 -7520 0
2027 -7521 0
2027 -7522 0
7524 -7484 -7476 0
-7524 7484 0
-7524 7476 0
7525 -7481 -7474 0
-7525 7481 0
-7525 7474 0
7526 -7481 -7476 0
-7526 7481 0
-7526 7476 0
7527 -7484 -7474 -7457 0
-7527 7484 0
-7527 7474 0
-7527 7457 0
-2020 7528 7524 7525 7526 7527 0
2020 -7528 0
2020 -7524 0
2020 -7525 0
2020 -7526 0
2020 -7527 0
7529 -7484 -7467 0
-7529 7484 0
-7529 7467 0
7530 -7481 -7469 0
-7530 7481 0
-7530 7469 0
7531 -7481 -7467 0
-7531 7481 0
-7531 7467 0
7532 -7484 -7469 -7457 0
-7532 7484 0
-7532 7469 0
-7532 7457 0
-2029 7533 7529 7530 7531 7532 0
2029 -7533 0
2029 -7529 0
2029 -7530 0
2029 -7531 0
2029 -7532 0
7534 -7484 -7481 0
-7534 7484 0
-7534 7481 0
7535 -7481 -7481 0
-7535 7481 0
-7535 7481 0
7536 -7481 -7484 0
-7536 7481 0
-7536 7484 0
7537 -7484 -7484 -7457 0
-7537 7484 0
-7537 7484 0
-7537 7457 0
-2032 7538 7534 7535 7536 7537 0
2032 -7538 0
2032 -7534 0
2032 -7535 0
2032 -7536 0
2032 -7537 0
7539 -6891 -6884 0
-7539 6891 0
-7539 6884 0
7540 -6884 -6884 0
-7540 6884 0
-7540 6884 0
7541 -6884 -6891 0
-7541 6884 0
-7541 6891 0
7542 -6891 -6891 -6927 0
-7542 6891 0
-7542 6891 0
-7542 6927 0
-5689 6877 7539 7540 7541 7542 0
5689 -6877 0
5689 -7539 0
5689 -7540 0
5689 -7541 0
5689 -7542 0
7543 -6891 -6879 0
-7543 6891 0
-7543 6879 0
7544 -6884 -6879 0
-7544 6884 0
-7544 6879 0
7545 -6884 -6886 0
-7545 6884 0
-7545 6886 0
7546 -6891 -6886 -6927 0
-7546 6891 0
-7546 6886 0
-7546 6927 0
-5685 6872 7543 7544 7545 7546 0
5685 -6872 0
5685 -7543 0
5685 -7544 0
5685 -7545 0
5685 -7546 0
7547 -6891 -6882 0
-7547 6891 0
-7547 6882 0
7548 -6884 -6888 0
-7548 6884 0
-7548 6888 0
7549 -6884 -6882 0
-7549 6884 0
-7549 6882 0
7550 -6891 -6888 -6927 0
-7550 6891 0
-7550 6888 0
-7550 6927 0
-5703 6871 7547 7548 7549 7550 0
5703 -6871 0
5703 -7547 0
5703 -7548 0
5703 -7549 0
5703 -7550 0
7551 -6898 -6882 0
-7551 6898 0
-7551 6882 0
7552 -6922 -6882 0
-7552 6922 0
-7552 6882 0
7553 -6922 -6888 0
-7553 6922 0
-7553 6888 0
7554 -6898 -6888 -6927 0
-7554 6898 0
-7554 6888 0
-7554 6927 0
-4032 6893 7551 7552 7553 7554 0
4032 -6893 0
4032 -7551 0
4032 -7552 0
4032 -7553 0
4032 -7554 0
7555 -6891 -6932 0
-7555 6891 0
-7555 6932 0
7556 -6884 -6932 0
-7556 6884 0
-7556 6932 0
7557 -6884 -6952 0
-7557 6884 0
-7557 6952 0
7558 -6891 -6952 -6927 0
-7558 6891 0
-7558 6952 0
-7558 6927 0
-5692 6905 7555 7556 7557 7558 0
5692 -6905 0
5692 -7555 0
5692 -7556 0
5692 -7557 0
5692 -7558 0
7559 -6891 -6937 0
-7559 6891 0
-7559 6937 0
7560 -6884 -6942 0
-7560 6884 0
-7560 6942 0
7561 -6884 -6937 0
-7561 6884 0
-7561 6937 0
7562 -6891 -6942 -6927 0
-7562 6891 0
-7562 6942 0
-7562 6927 0
-5697 6912 7559 7560 7561 7562 0
5697 -6912 0
5697 -7559 0
5697 -7560 0
5697 -7561 0
5697 -7562 0
7563 -6898 -6937 0
-7563 6898 0
-7563 6937 0
7564 -6922 -6937 0
-7564 6922 0
-7564 6937 0
7565 -6922 -6942 0
-7565 6922 0
-7565 6942 0
7566 -6898 -6942 -6927 0
-7566 6898 0
-7566 6942 0
-7566 6927 0
-4029 6917 7563 7564 7565 7566 0
4029 -6917 0
4029 -7563 0
4029 -7564 0
4029 -7565 0
4029 -7566 0
7567 -6886 -6922 0
-7567 6886 0
-7567 6922 0
7568 -6879 -6898 0
-7568 6879 0
-7568 6898 0
7569 -6879 -6922 0
-7569 6879 0
-7569 6922 0
7570 -6886 -6898 -6927 0
-7570 6886 0
-7570 6898 0
-7570 6927 0
-4022 6895 7567 7568 7569 7570 0
4022 -6895 0
4022 -7567 0
4022 -7568 0
4022 -7569 0
4022 -7570 0
7571 -6886 -6879 0
-7571 6886 0
-7571 6879 0
6924 -6879 -6879 0
-6924 6879 0
-6924 6879 0
7572 -6879 -6886 0
-7572 6879 0
-7572 6886 0
7573 -6886 -6886 -6927 0
-7573 6886 0
-7573 6886 0
-7573 6927 0
-4024 6876 7571 6924 7572 7573 0
4024 -6876 0
4024 -7571 0
4024 -6924 0
4024 -7572 0
4024 -7573 0
7574 -6886 -6932 0
-7574 6886 0
-7574 6932 0
7575 -6879 -6932 0
-7575 6879 0
-7575 6932 0
7576 -6879 -6952 0
-7576 6879 0
-7576 6952 0
7577 -6886 -6952 -6927 0
-7577 6886 0
-7577 6952 0
-7577 6927 0
-4027 6900 7574 7575 7576 7577 0
4027 -6900 0
4027 -7574 0
4027 -7575 0
4027 -7576 0
4027 -7577 0
7578 -6886 -6937 0
-7578 6886 0
-7578 6937 0
7579 -6879 -6942 0
-7579 6879 0
-7579 6942 0
7580 -6879 -6937 0
-7580 6879 0
-7580 6937 0
7581 -6886 -6942 -6927 0
-7581 6886 0
-7581 6942 0
-7581 6927 0
-4030 6907 7578 7579 7580 7581 0
4030 -6907 0
4030 -7578 0
4030 -7579 0
4030 -7580 0
4030 -7581 0
7582 -6888 -6937 0
-7582 6888 0
-7582 6937 0
7583 -6882 -6937 0
-7583 6882 0
-7583 6937 0
7584 -6882 -6942 0
-7584 6882 0
-7584 6942 0
7585 -6888 -6942 -6927 0
-7585 6888 0
-7585 6942 0
-7585 6927 0
-4033 6909 7582 7583 7584 7585 0
4033 -6909 0
4033 -7582 0
4033 -7583 0
4033 -7584 0
4033 -7585 0
7586 -6952 -6922 0
-7586 6952 0
-7586 6922 0
7587 -6932 -6898 0
-7587 6932 0
-7587 6898 0
7588 -6932 -6922 0
-7588 6932 0
-7588 6922 0
7589 -6952 -6898 -6927 0
-7589 6952 0
-7589 6898 0
-7589 6927 0
-4026 6947 7586 7587 7588 7589 0
4026 -6947 0
4026 -7586 0
4026 -7587 0
4026 -7588 0
4026 -7589 0
7590 -6952 -6882 0
-7590 6952 0
-7590 6882 0
7591 -6932 -6888 0
-7591 6932 0
-7591 6888 0
7592 -6932 -6882 0
-7592 6932 0
-7592 6882 0
7593 -6952 -6888 -6927 0
-7593 6952 0
-7593 6888 0
-7593 6927 0
-4035 6903 7590 7591 7592 7593 0
4035 -6903 0
4035 -7590 0
4035 -7591 0
4035 -7592 0
4035 -7593 0
7594 -6952 -6932 0
-7594 6952 0
-7594 6932 0
7595 -6932 -6932 0
-7595 6932 0
-7595 6932 0
7596 -6932 -6952 0
-7596 6932 0
-7596 6952 0
7597 -6952 -6952 -6927 0
-7597 6952 0
-7597 6952 0
-7597 6927 0
-4038 6957 7594 7595 7596 7597 0
4038 -6957 0
4038 -7594 0
4038 -7595 0
4038 -7596 0
4038 -7597 0
7598 -7221 -7214 0
-7598 7221 0
-7598 7214 0
7599 -7214 -7214 0
-7599 7214 0
-7599 7214 0
7600 -7214 -7221 0
-7600 7214 0
-7600 7221 0
7601 -7221 -7221 -7257 0
-7601 7221 0
-7601 7221 0
-7601 7257 0
-3463 7207 7598 7599 7600 7601 0
3463 -7207 0
3463 -7598 0
3463 -7599 0
3463 -7600 0
3463 -7601 0
7602 -7221 -7209 0
-7602 7221 0
-7602 7209 0
7603 -7214 -7209 0
-7603 7214 0
-7603 7209 0
7604 -7214 -7216 0
-7604 7214 0
-7604 7216 0
7605 -7221 -7216 -7257 0
-7605 7221 0
-7605 7216 0
-7605 7257 0
-3459 7202 7602 7603 7604 7605 0
3459 -7202 0
3459 -7602 0
3459 -7603 0
3459 -7604 0
3459 -7605 0
7606 -7221 -7212 0
-7606 7221 0
-7606 7212 0
7607 -7214 -7218 0
-7607 7214 0
-7607 7218 0
7608 -7214 -7212 0
-7608 7214 0
-7608 7212 0
7609 -7221 -7218 -7257 0
-7609 7221 0
-7609 7218 0
-7609 7257 0
-3483 7201 7606 7607 7608 7609 0
3483 -7201 0
3483 -7606 0
3483 -7607 0
3483 -7608 0
3483 -7609 0
7610 -7228 -7212 0
-7610 7228 0
-7610 7212 0
7611 -7252 -7212 0
-7611 7252 0
-7611 7212 0
7612 -7252 -7218 0
-7612 7252 0
-7612 7218 0
7613 -7228 -7218 -7257 0
-7613 7228 0
-7613 7218 0
-7613 7257 0
-3481 7223 7610 7611 7612 7613 0
3481 -7223 0
3481 -7610 0
3481 -7611 0
3481 -7612 0
3481 -7613 0
7614 -7221 -7262 0
-7614 7221 0
-7614 7262 0
7615 -7214 -7262 0
-7615 7214 0
-7615 7262 0
7616 -7214 -7282 0
-7616 7214 0
-7616 7282 0
7617 -7221 -7282 -7257 0
-7617 7221 0
-7617 7282 0
-7617 7257 0
-3467 7235 7614 7615 7616 7617 0
3467 -7235 0
3467 -7614 0
3467 -7615 0
3467 -7616 0
3467 -7617 0
7618 -7221 -7267 0
-7618 7221 0
-7618 7267 0
7619 -7214 -7272 0
-7619 7214 0
-7619 7272 0
7620 -7214 -7267 0
-7620 7214 0
-7620 7267 0
7621 -7221 -7272 -7257 0
-7621 7221 0
-7621 7272 0
-7621 7257 0
-3474 7242 7618 7619 7620 7621 0
3474 -7242 0
3474 -7618 0
3474 -7619 0
3474 -7620 0
3474 -7621 0
7622 -7228 -7267 0
-7622 7228 0
-7622 7267 0
7623 -7252 -7267 0
-7623 7252 0
-7623 7267 0
7624 -7252 -7272 0
-7624 7252 0
-7624 7272 0
7625 -7228 -7272 -7257 0
-7625 7228 0
-7625 7272 0
-7625 7257 0
-3476 7247 7622 7623 7624 7625 0
3476 -7247 0
3476 -7622 0
3476 -7623 0
3476 -7624 0
3476 -7625 0
7626 -7216 -7252 0
-7626 7216 0
-7626 7252 0
7627 -7209 -7228 0
-7627 7209 0
-7627 7228 0
7628 -7209 -7252 0
-7628 7209 0
-7628 7252 0
7629 -7216 -7228 -7257 0
-7629 7216 0
-7629 7228 0
-7629 7257 0
-3458 7225 7626 7627 7628 7629 0
3458 -7225 0
3458 -7626 0
3458 -7627 0
3458 -7628 0
3458 -7629 0
7630 -7216 -7209 0
-7630 7216 0
-7630 7209 0
7254 -7209 -7209 0
-7254 7209 0
-7254 7209 0
7631 -7209 -7216 0
-7631 7209 0
-7631 7216 0
7632 -7216 -7216 -7257 0
-7632 7216 0
-7632 7216 0
-7632 7257 0
-3465 7206 7630 7254 7631 7632 0
3465 -7206 0
3465 -7630 0
3465 -7254 0
3465 -7631 0
3465 -7632 0
7633 -7216 -7262 0
-7633 7216 0
-7633 7262 0
7634 -7209 -7262 0
-7634 7209 0
-7634 7262 0
7635 -7209 -7282 0
-7635 7209 0
-7635 7282 0
7636 -7216 -7282 -7257 0
-7636 7216 0
-7636 7282 0
-7636 7257 0
-3472 7230 7633 7634 7635 7636 0
3472 -7230 0
3472 -7633 0
3472 -7634 0
3472 -7635 0
3472 -7636 0
7637 -7216 -7267 0
-7637 7216 0
-7637 7267 0
7638 -7209 -7272 0
-7638 7209 0
-7638 7272 0
7639 -7209 -7267 0
-7639 7209 0
-7639 7267 0
7640 -7216 -7272 -7257 0
-7640 7216 0
-7640 7272 0
-7640 7257 0
-3479 7237 7637 7638 7639 7640 0
3479 -7237 0
3479 -7637 0
3479 -7638 0
3479 -7639 0
3479 -7640 0
7641 -7218 -7267 0
-7641 7218 0
-7641 7267 0
7642 -7212 -7267 0
-7642 7212 0
-7642 7267 0
7643 -7212 -7272 0
-7643 7212 0
-7643 7272 0
7644 -7218 -7272 -7257 0
-7644 7218 0
-7644 7272 0
-7644 7257 0
-3486 7239 7641 7642 7643 7644 0
3486 -7239 0
3486 -7641 0
3486 -7642 0
3486 -7643 0
3486 -7644 0
7645 -7282 -7252 0
-7645 7282 0
-7645 7252 0
7646 -7262 -7228 0
-7646 7262 0
-7646 7228 0
7647 -7262 -7252 0
-7647 7262 0
-7647 7252 0
7648 -7282 -7228 -7257 0
-7648 7282 0
-7648 7228 0
-7648 7257 0
-3470 7277 7645 7646 7647 7648 0
3470 -7277 0
3470 -7645 0
3470 -7646 0
3470 -7647 0
3470 -7648 0
7649 -7282 -7212 0
-7649 7282 0
-7649 7212 0
7650 -7262 -7218 0
-7650 7262 0
-7650 7218 0
7651 -7262 -7212 0
-7651 7262 0
-7651 7212 0
7652 -7282 -7218 -7257 0
-7652 7282 0
-7652 7218 0
-7652 7257 0
-3491 7233 7649 7650 7651 7652 0
3491 -7233 0
3491 -7649 0
3491 -7650 0
3491 -7651 0
3491 -7652 0
7653 -7282 -7262 0
-7653 7282 0
-7653 7262 0
7654 -7262 -7262 0
-7654 7262 0
-7654 7262 0
7655 -7262 -7282 0
-7655 7262 0
-7655 7282 0
7656 -7282 -7282 -7257 0
-7656 7282 0
-7656 7282 0
-7656 7257 0
-3497 7287 7653 7654 7655 7656 0
3497 -7287 0
3497 -7653 0
3497 -7654 0
3497 -7655 0
3497 -7656 0
7657 -7658 -7658 0
-7657 7658 0
-7657 7658 0
-1566 7659 7657 0
1566 -7659 0
1566 -7657 0
7660 -7658 -7661 0
-7660 7658 0
-7660 7661 0
-1560 7662 7660 0
1560 -7662 0
1560 -7660 0
7663 -7658 -7664 0
-7663 7658 0
-7663 7664 0
-1559 7665 7663 0
1559 -7665 0
1559 -7663 0
7666 -7667 -7664 0
-7666 7667 0
-7666 7664 0
-1582 7668 7666 0
1582 -7668 0
1582 -7666 0
7669 -7658 -7670 0
-7669 7658 0
-7669 7670 0
-1573 7671 7669 0
1573 -7671 0
1573 -7669 0
7672 -7658 -7673 0
-7672 7658 0
-7672 7673 0
-1580 7674 7672 0
1580 -7674 0
1580 -7672 0
7675 -7667 -7673 0
-7675 7667 0
-7675 7673 0
-1587 7676 7675 0
1587 -7676 0
1587 -7675 0
7677 -7661 -7667 0
-7677 7661 0
-7677 7667 0
-1584 7678 7677 0
1584 -7678 0
1584 -7677 0
7679 -7661 -7661 0
-7679 7661 0
-7679 7661 0
-1564 7680 7679 0
1564 -7680 0
1564 -7679 0
7681 -7661 -7670 0
-7681 7661 0
-7681 7670 0
-1568 7682 7681 0
1568 -7682 0
1568 -7681 0
7683 -7661 -7673 0
-7683 7661 0
-7683 7673 0
-1575 7684 7683 0
1575 -7684 0
1575 -7683 0
7685 -7664 -7673 0
-7685 7664 0
-7685 7673 0
-1577 7686 7685 0
1577 -7686 0
1577 -7685 0
7687 -7670 -7667 0
-7687 7670 0
-7687 7667 0
-1592 7688 7687 0
1592 -7688 0
1592 -7687 0
7689 -7670 -7664 0
-7689 7670 0
-7689 7664 0
-1571 7690 7689 0
1571 -7690 0
1571 -7689 0
7691 -7670 -7670 0
-7691 7670 0
-7691 7670 0
-1598 7692 7691 0
1598 -7692 0
1598 -7691 0
7693 -6783 -6783 0
-7693 6783 0
-7693 6783 0
-6373 6789 7693 0
6373 -6789 0
6373 -7693 0
7694 -6783 -6794 0
-7694 6783 0
-7694 6794 0
-6369 6796 7694 0
6369 -6796 0
6369 -7694 0
7695 -6783 -6800 0
-7695 6783 0
-7695 6800 0
-6387 6803 7695 0
6387 -6803 0
6387 -7695 0
7696 -6805 -6800 0
-7696 6805 0
-7696 6800 0
-3129 6810 7696 0
3129 -6810 0
3129 -7696 0
7697 -6783 -6815 0
-7697 6783 0
-7697 6815 0
-6376 6817 7697 0
6376 -6817 0
6376 -7697 0
7698 -6783 -6821 0
-7698 6783 0
-7698 6821 0
-6381 6824 7698 0
6381 -6824 0
6381 -7698 0
7699 -6805 -6821 0
-7699 6805 0
-7699 6821 0
-3126 6829 7699 0
3126 -6829 0
3126 -7699 0
7700 -6794 -6805 0
-7700 6794 0
-7700 6805 0
-3119 6834 7700 0
3119 -6834 0
3119 -7700 0
7701 -6794 -6794 0
-7701 6794 0
-7701 6794 0
-3121 6839 7701 0
3121 -6839 0
3121 -7701 0
7702 -6794 -6815 0
-7702 6794 0
-7702 6815 0
-3124 6844 7702 0
3124 -6844 0
3124 -7702 0
7703 -6794 -6821 0
-7703 6794 0
-7703 6821 0
-3127 6849 7703 0
3127 -6849 0
3127 -7703 0
7704 -6800 -6821 0
-7704 6800 0
-7704 6821 0
-3130 6854 7704 0
3130 -6854 0
3130 -7704 0
7705 -6815 -6805 0
-7705 6815 0
-7705 6805 0
-3123 6859 7705 0
3123 -6859 0
3123 -7705 0
7706 -6815 -6800 0
-7706 6815 0
-7706 6800 0
-3132 6864 7706 0
3132 -6864 0
3132 -7706 0
7707 -6815 -6815 0
-7707 6815 0
-7707 6815 0
-3135 6869 7707 0
3135 -6869 0
3135 -7707 0
7708 -7221 -7221 0
-7708 7221 0
-7708 7221 0
-1705 7207 7708 0
1705 -7207 0
1705 -7708 0
7709 -7221 -7216 0
-7709 7221 0
-7709 7216 0
-1701 7202 7709 0
1701 -7202 0
1701 -7709 0
7710 -7221 -7218 0
-7710 7221 0
-7710 7218 0
-1725 7201 7710 0
1725 -7201 0
1725 -7710 0
7711 -7228 -7218 0
-7711 7228 0
-7711 7218 0
-1723 7223 7711 0
1723 -7223 0
1723 -7711 0
7712 -7221 -7282 0
-7712 7221 0
-7712 7282 0
-1709 7235 7712 0
1709 -7235 0
1709 -7712 0
7713 -7221 -7272 0
-7713 7221 0
-7713 7272 0
-1716 7242 7713 0
1716 -7242 0
1716 -7713 0
7714 -7228 -7272 0
-7714 7228 0
-7714 7272 0
-1718 7247 7714 0
1718 -7247 0
1718 -7714 0
7715 -7216 -7228 0
-7715 7216 0
-7715 7228 0
-1700 7225 7715 0
1700 -7225 0
1700 -7715 0
7716 -7216 -7216 0
-7716 7216 0
-7716 7216 0
-1707 7206 7716 0
1707 -7206 0
1707 -7716 0
7717 -7216 -7282 0
-7717 7216 0
-7717 7282 0
-1714 7230 7717 0
1714 -7230 0
1714 -7717 0
7718 -7216 -7272 0
-7718 7216 0
-7718 7272 0
-1721 7237 7718 0
1721 -7237 0
1721 -7718 0
7719 -7218 -7272 0
-7719 7218 0
-7719 7272 0
-1728 7239 7719 0
1728 -7239 0
1728 -7719 0
7720 -7282 -7228 0
-7720 7282 0
-7720 7228 0
-1712 7277 7720 0
1712 -7277 0
1712 -7720 0
7721 -7282 -7218 0
-7721 7282 0
-7721 7218 0
-1733 7233 7721 0
1733 -7233 0
1733 -7721 0
7722 -7282 -7282 0
-7722 7282 0
-7722 7282 0
-1739 7287 7722 0
1739 -7287 0
1739 -7722 0
7723 -7724 -7724 0
-7723 7724 0
-7723 7724 0
-5625 7725 7723 0
5625 -7725 0
5625 -7723 0
7726 -7724 -7727 0
-7726 7724 0
-7726 7727 0
-5621 7728 7726 0
5621 -7728 0
5621 -7726 0
7729 -7724 -7730 0
-7729 7724 0
-7729 7730 0
-5639 7731 7729 0
5639 -7731 0
5639 -7729 0
7732 -7733 -7730 0
-7732 7733 0
-7732 7730 0
-5117 7734 7732 0
5117 -7734 0
5117 -7732 0
7735 -7724 -7736 0
-7735 7724 0
-7735 7736 0
-5628 7737 7735 0
5628 -7737 0
5628 -7735 0
7738 -7724 -7739 0
-7738 7724 0
-7738 7739 0
-5633 7740 7738 0
5633 -7740 0
5633 -7738 0
7741 -7733 -7739 0
-7741 7733 0
-7741 7739 0
-5114 7742 7741 0
5114 -7742 0
5114 -7741 0
7743 -7727 -7733 0
-7743 7727 0
-7743 7733 0
-5107 7744 7743 0
5107 -7744 0
5107 -7743 0
7745 -7727 -7727 0
-7745 7727 0
-7745 7727 0
-5109 7746 7745 0
5109 -7746 0
5109 -7745 0
7747 -7727 -7736 0
-7747 7727 0
-7747 7736 0
-5112 7748 7747 0
5112 -7748 0
5112 -7747 0
7749 -7727 -7739 0
-7749 7727 0
-7749 7739 0
-5115 7750 7749 0
5115 -7750 0
5115 -7749 0
7751 -7730 -7739 0
-7751 7730 0
-7751 7739 0
-5118 7752 7751 0
5118 -7752 0
5118 -7751 0
7753 -7736 -7733 0
-7753 7736 0
-7753 7733 0
-5111 7754 7753 0
5111 -7754 0
5111 -7753 0
7755 -7736 -7730 0
-7755 7736 0
-7755 7730 0
-5120 7756 7755 0
5120 -7756 0
5120 -7755 0
7757 -7736 -7736 0
-7757 7736 0
-7757 7736 0
-5123 7758 7757 0
5123 -7758 0
5123 -7757 0
7759 -7760 -7761 0
-7759 7760 0
-7759 7761 0
7762 -7761 -7761 0
-7762 7761 0
-7762 7761 0
7763 -7761 -7760 0
-7763 7761 0
-7763 7760 0
7764 -7760 -7760 -7765 0
-7764 7760 0
-7764 7760 0
-7764 7765 0
-1764 7766 7759 7762 7763 7764 0
1764 -7766 0
1764 -7759 0
1764 -7762 0
1764 -7763 0
1764 -7764 0
7767 -7760 -7768 0
-7767 7760 0
-7767 7768 0
7769 -7761 -7768 0
-7769 7761 0
-7769 7768 0
7770 -7761 -7771 0
-7770 7761 0
-7770 7771 0
7772 -7760 -7771 -7765 0
-7772 7760 0
-7772 7771 0
-7772 7765 0
-1760 7773 7767 7769 7770 7772 0
1760 -7773 0
1760 -7767 0
1760 -7769 0
1760 -7770 0
1760 -7772 0
7774 -7760 -7775 0
-7774 7760 0
-7774 7775 0
7776 -7761 -7777 0
-7776 7761 0
-7776 7777 0
7778 -7761 -7775 0
-7778 7761 0
-7778 7775 0
7779 -7760 -7777 -7765 0
-7779 7760 0
-7779 7777 0
-7779 7765 0
-1784 7780 7774 7776 7778 7779 0
1784 -7780 0
1784 -7774 0
1784 -7776 0
1784 -7778 0
1784 -7779 0
7781 -7782 -7775 0
-7781 7782 0
-7781 7775 0
7783 -7784 -7775 0
-7783 7784 0
-7783 7775 0
7785 -7784 -7777 0
-7785 7784 0
-7785 7777 0
7786 -7782 -7777 -7765 0
-7786 7782 0
-7786 7777 0
-7786 7765 0
-1782 7787 7781 7783 7785 7786 0
1782 -7787 0
1782 -7781 0
1782 -7783 0
1782 -7785 0
1782 -7786 0
7788 -7760 -7789 0
-7788 7760 0
-7788 7789 0
7790 -7761 -7789 0
-7790 7761 0
-7790 7789 0
7791 -7761 -7792 0
-7791 7761 0
-7791 7792 0
7793 -7760 -7792 -7765 0
-7793 7760 0
-7793 7792 0
-7793 7765 0
-1768 7794 7788 7790 7791 7793 0
1768 -7794 0
1768 -7788 0
1768 -7790 0
1768 -7791 0
1768 -7793 0
7795 -7760 -7796 0
-7795 7760 0
-7795 7796 0
7797 -7761 -7798 0
-7797 7761 0
-7797 7798 0
7799 -7761 -7796 0
-7799 7761 0
-7799 7796 0
7800 -7760 -7798 -7765 0
-7800 7760 0
-7800 7798 0
-7800 7765 0
-1775 7801 7795 7797 7799 7800 0
1775 -7801 0
1775 -7795 0
1775 -7797 0
1775 -7799 0
1775 -7800 0
7802 -7782 -7796 0
-7802 7782 0
-7802 7796 0
7803 -7784 -7796 0
-7803 7784 0
-7803 7796 0
7804 -7784 -7798 0
-7804 7784 0
-7804 7798 0
7805 -7782 -7798 -7765 0
-7805 7782 0
-7805 7798 0
-7805 7765 0
-1777 7806 7802 7803 7804 7805 0
1777 -7806 0
1777 -7802 0
1777 -7803 0
1777 -7804 0
1777 -7805 0
7807 -7771 -7784 0
-7807 7771 0
-7807 7784 0
7808 -7768 -7782 0
-7808 7768 0
-7808 7782 0
7809 -7768 -7784 0
-7809 7768 0
-7809 7784 0
7810 -7771 -7782 -7765 0
-7810 7771 0
-7810 7782 0
-7810 7765 0
-1759 7811 7807 7808 7809 7810 0
1759 -7811 0
1759 -7807 0
1759 -7808 0
1759 -7809 0
1759 -7810 0
7812 -7771 -7768 0
-7812 7771 0
-7812 7768 0
7813 -7768 -7768 0
-7813 7768 0
-7813 7768 0
7814 -7768 -7771 0
-7814 7768 0
-7814 7771 0
7815 -7771 -7771 -7765 0
-7815 7771 0
-7815 7771 0
-7815 7765 0
-1766 7816 7812 7813 7814 7815 0
1766 -7816 0
1766 -7812 0
1766 -7813 0
1766 -7814 0
1766 -7815 0
7817 -7771 -7789 0
-7817 7771 0
-7817 7789 0
7818 -7768 -7789 0
-7818 7768 0
-7818 7789 0
7819 -7768 -7792 0
-7819 7768 0
-7819 7792 0
7820 -7771 -7792 -7765 0
-7820 7771 0
-7820 7792 0
-7820 7765 0
-1773 7821 7817 7818 7819 7820 0
1773 -7821 0
1773 -7817 0
1773 -7818 0
1773 -7819 0
1773 -7820 0
7822 -7771 -7796 0
-7822 7771 0
-7822 7796 0
7823 -7768 -7798 0
-7823 7768 0
-7823 7798 0
7824 -7768 -7796 0
-7824 7768 0
-7824 7796 0
7825 -7771 -7798 -7765 0
-7825 7771 0
-7825 7798 0
-7825 7765 0
-1780 7826 7822 7823 7824 7825 0
1780 -7826 0
1780 -7822 0
1780 -7823 0
1780 -7824 0
1780 -7825 0
7827 -7777 -7796 0
-7827 7777 0
-7827 7796 0
7828 -7775 -7796 0
-7828 7775 0
-7828 7796 0
7829 -7775 -7798 0
-7829 7775 0
-7829 7798 0
7830 -7777 -7798 -7765 0
-7830 7777 0
-7830 7798 0
-7830 7765 0
-1787 7831 7827 7828 7829 7830 0
1787 -7831 0
1787 -7827 0
1787 -7828 0
1787 -7829 0
1787 -7830 0
7832 -7792 -7784 0
-7832 7792 0
-7832 7784 0
7833 -7789 -7782 0
-7833 7789 0
-7833 7782 0
7834 -7789 -7784 0
-7834 7789 0
-7834 7784 0
7835 -7792 -7782 -7765 0
-7835 7792 0
-7835 7782 0
-7835 7765 0
-1771 7836 7832 7833 7834 7835 0
1771 -7836 0
1771 -7832 0
1771 -7833 0
1771 -7834 0
1771 -7835 0
7837 -7792 -7775 0
-7837 7792 0
-7837 7775 0
7838 -7789 -7777 0
-7838 7789 0
-7838 7777 0
7839 -7789 -7775 0
-7839 7789 0
-7839 7775 0
7840 -7792 -7777 -7765 0
-7840 7792 0
-7840 7777 0
-7840 7765 0
-1792 7841 7837 7838 7839 7840 0
1792 -7841 0
1792 -7837 0
1792 -7838 0
1792 -7839 0
1792 -7840 0
7842 -7792 -7789 0
-7842 7792 0
-7842 7789 0
7843 -7789 -7789 0
-7843 7789 0
-7843 7789 0
7844 -7789 -7792 0
-7844 7789 0
-7844 7792 0
7845 -7792 -7792 -7765 0
-7845 7792 0
-7845 7792 0
-7845 7765 0
-1798 7846 7842 7843 7844 7845 0
1798 -7846 0
1798 -7842 0
1798 -7843 0
1798 -7844 0
1798 -7845 0
7847 -7848 -7848 0
-7847 7848 0
-7847 7848 0
-2923 7849 7847 0
2923 -7849 0
2923 -7847 0
7850 -7848 -7851 0
-7850 7848 0
-7850 7851 0
-2919 7852 7850 0
2919 -7852 0
2919 -7850 0
7853 -7848 -7854 0
-7853 7848 0
-7853 7854 0
-2943 7855 7853 0
2943 -7855 0
2943 -7853 0
7856 -7857 -7854 0
-7856 7857 0
-7856 7854 0
-2941 7858 7856 0
2941 -7858 0
2941 -7856 0
7859 -7848 -7860 0
-7859 7848 0
-7859 7860 0
-2927 7861 7859 0
2927 -7861 0
2927 -7859 0
7862 -7848 -7863 0
-7862 7848 0
-7862 7863 0
-2934 7864 7862 0
2934 -7864 0
2934 -7862 0
7865 -7857 -7863 0
-7865 7857 0
-7865 7863 0
-2936 7866 7865 0
2936 -7866 0
2936 -7865 0
7867 -7851 -7857 0
-7867 7851 0
-7867 7857 0
-2918 7868 7867 0
2918 -7868 0
2918 -7867 0
7869 -7851 -7851 0
-7869 7851 0
-7869 7851 0
-2925 7870 7869 0
2925 -7870 0
2925 -7869 0
7871 -7851 -7860 0
-7871 7851 0
-7871 7860 0
-2932 7872 7871 0
2932 -7872 0
2932 -7871 0
7873 -7851 -7863 0
-7873 7851 0
-7873 7863 0
-2939 7874 7873 0
2939 -7874 0
2939 -7873 0
7875 -7854 -7863 0
-7875 7854 0
-7875 7863 0
-2946 7876 7875 0
2946 -7876 0
2946 -7875 0
7877 -7860 -7857 0
-7877 7860 0
-7877 7857 0
-2930 7878 7877 0
2930 -7878 0
2930 -7877 0
7879 -7860 -7854 0
-7879 7860 0
-7879 7854 0
-2951 7880 7879 0
2951 -7880 0
2951 -7879 0
7881 -7860 -7860 0
-7881 7860 0
-7881 7860 0
-2957 7882 7881 0
2957 -7882 0
2957 -7881 0
7883 -7855 -7855 0
-7883 7855 0
-7883 7855 0
-5569 7849 7883 0
5569 -7849 0
5569 -7883 0
7884 -7855 -7880 0
-7884 7855 0
-7884 7880 0
-5565 7861 7884 0
5565 -7861 0
5565 -7884 0
7885 -7855 -7876 0
-7885 7855 0
-7885 7876 0
-5589 7864 7885 0
5589 -7864 0
5589 -7885 0
7886 -7858 -7876 0
-7886 7858 0
-7886 7876 0
-5587 7866 7886 0
5587 -7866 0
5587 -7886 0
7887 -7855 -7888 0
-7887 7855 0
-7887 7888 0
-5573 7889 7887 0
5573 -7889 0
5573 -7887 0
7890 -7855 -7854 0
-7890 7855 0
-7890 7854 0
-5580 7848 7890 0
5580 -7848 0
5580 -7890 0
7891 -7858 -7854 0
-7891 7858 0
-7891 7854 0
-5582 7857 7891 0
5582 -7857 0
5582 -7891 0
7892 -7880 -7858 0
-7892 7880 0
-7892 7858 0
-5564 7878 7892 0
5564 -7878 0
5564 -7892 0
7893 -7880 -7880 0
-7893 7880 0
-7893 7880 0
-5571 7882 7893 0
5571 -7882 0
5571 -7893 0
7894 -7880 -7888 0
-7894 7880 0
-7894 7888 0
-5578 7895 7894 0
5578 -7895 0
5578 -7894 0
7896 -7880 -7854 0
-7896 7880 0
-7896 7854 0
-5585 7860 7896 0
5585 -7860 0
5585 -7896 0
7897 -7876 -7854 0
-7897 7876 0
-7897 7854 0
-5592 7863 7897 0
5592 -7863 0
5592 -7897 0
7898 -7888 -7858 0
-7898 7888 0
-7898 7858 0
-5576 7899 7898 0
5576 -7899 0
5576 -7898 0
7900 -7888 -7876 0
-7900 7888 0
-7900 7876 0
-5597 7901 7900 0
5597 -7901 0
5597 -7900 0
7902 -7888 -7888 0
-7902 7888 0
-7902 7888 0
-5603 7903 7902 0
5603 -7903 0
5603 -7902 0
7904 -7665 -7665 0
-7904 7665 0
-7904 7665 0
-2140 7659 7904 0
2140 -7659 0
2140 -7904 0
7905 -7665 -7906 0
-7905 7665 0
-7905 7906 0
-2136 7907 7905 0
2136 -7907 0
2136 -7905 0
7908 -7665 -7664 0
-7908 7665 0
-7908 7664 0
-2160 7658 7908 0
2160 -7658 0
2160 -7908 0
7909 -7668 -7664 0
-7909 7668 0
-7909 7664 0
-2158 7667 7909 0
2158 -7667 0
2158 -7909 0
7910 -7665 -7690 0
-7910 7665 0
-7910 7690 0
-2144 7671 7910 0
2144 -7671 0
2144 -7910 0
7911 -7665 -7686 0
-7911 7665 0
-7911 7686 0
-2151 7674 7911 0
2151 -7674 0
2151 -7911 0
7912 -7668 -7686 0
-7912 7668 0
-7912 7686 0
-2153 7676 7912 0
2153 -7676 0
2153 -7912 0
7913 -7906 -7668 0
-7913 7906 0
-7913 7668 0
-2135 7914 7913 0
2135 -7914 0
2135 -7913 0
7915 -7906 -7906 0
-7915 7906 0
-7915 7906 0
-2142 7916 7915 0
2142 -7916 0
2142 -7915 0
7917 -7906 -7690 0
-7917 7906 0
-7917 7690 0
-2149 7918 7917 0
2149 -7918 0
2149 -7917 0
7919 -7906 -7686 0
-7919 7906 0
-7919 7686 0
-2156 7920 7919 0
2156 -7920 0
2156 -7919 0
7921 -7664 -7686 0
-7921 7664 0
-7921 7686 0
-2163 7673 7921 0
2163 -7673 0
2163 -7921 0
7922 -7690 -7668 0
-7922 7690 0
-7922 7668 0
-2147 7688 7922 0
2147 -7688 0
2147 -7922 0
7923 -7690 -7664 0
-7923 7690 0
-7923 7664 0
-2168 7670 7923 0
2168 -7670 0
2168 -7923 0
7924 -7690 -7690 0
-7924 7690 0
-7924 7690 0
-2174 7692 7924 0
2174 -7692 0
2174 -7924 0
7925 -7926 -7926 0
-7925 7926 0
-7925 7926 0
-5039 7927 7925 0
5039 -7927 0
5039 -7925 0
7928 -7926 -7929 0
-7928 7926 0
-7928 7929 0
-5035 7930 7928 0
5035 -7930 0
5035 -7928 0
7931 -7926 -7932 0
-7931 7926 0
-7931 7932 0
-5053 7933 7931 0
5053 -7933 0
5053 -7931 0
7934 -7935 -7932 0
-7934 7935 0
-7934 7932 0
-1751 7936 7934 0
1751 -7936 0
1751 -7934 0
7937 -7926 -7938 0
-7937 7926 0
-7937 7938 0
-5042 7939 7937 0
5042 -7939 0
5042 -7937 0
7940 -7926 -7941 0
-7940 7926 0
-7940 7941 0
-5047 7942 7940 0
5047 -7942 0
5047 -7940 0
7943 -7935 -7941 0
-7943 7935 0
-7943 7941 0
-1748 7944 7943 0
1748 -7944 0
1748 -7943 0
7945 -7929 -7935 0
-7945 7929 0
-7945 7935 0
-1741 7946 7945 0
1741 -7946 0
1741 -7945 0
7947 -7929 -7929 0
-7947 7929 0
-7947 7929 0
-1743 7948 7947 0
1743 -7948 0
1743 -7947 0
7949 -7929 -7938 0
-7949 7929 0
-7949 7938 0
-1746 7950 7949 0
1746 -7950 0
1746 -7949 0
7951 -7929 -7941 0
-7951 7929 0
-7951 7941 0
-1749 7952 7951 0
1749 -7952 0
1749 -7951 0
7953 -7932 -7941 0
-7953 7932 0
-7953 7941 0
-1752 7954 7953 0
1752 -7954 0
1752 -7953 0
7955 -7938 -7935 0
-7955 7938 0
-7955 7935 0
-1745 7956 7955 0
1745 -7956 0
1745 -7955 0
7957 -7938 -7932 0
-7957 7938 0
-7957 7932 0
-1754 7958 7957 0
1754 -7958 0
1754 -7957 0
7959 -7938 -7938 0
-7959 7938 0
-7959 7938 0
-1757 7960 7959 0
1757 -7960 0
1757 -7959 0
7961 -7423 -7423 0
-7961 7423 0
-7961 7423 0
-2763 7417 7961 0
2763 -7417 0
2763 -7961 0
7962 -7423 -7963 0
-7962 7423 0
-7962 7963 0
-2759 7964 7962 0
2759 -7964 0
2759 -7962 0
7965 -7423 -7422 0
-7965 7423 0
-7965 7422 0
-2783 7416 7965 0
2783 -7416 0
2783 -7965 0
7966 -7426 -7422 0
-7966 7426 0
-7966 7422 0
-2781 7425 7966 0
2781 -7425 0
2781 -7966 0
7967 -7423 -7448 0
-7967 7423 0
-7967 7448 0
-2767 7429 7967 0
2767 -7429 0
2767 -7967 0
7968 -7423 -7444 0
-7968 7423 0
-7968 7444 0
-2774 7432 7968 0
2774 -7432 0
2774 -7968 0
7969 -7426 -7444 0
-7969 7426 0
-7969 7444 0
-2776 7434 7969 0
2776 -7434 0
2776 -7969 0
7970 -7963 -7426 0
-7970 7963 0
-7970 7426 0
-2758 7971 7970 0
2758 -7971 0
2758 -7970 0
7972 -7963 -7963 0
-7972 7963 0
-7972 7963 0
-2765 7973 7972 0
2765 -7973 0
2765 -7972 0
7974 -7963 -7448 0
-7974 7963 0
-7974 7448 0
-2772 7975 7974 0
2772 -7975 0
2772 -7974 0
7976 -7963 -7444 0
-7976 7963 0
-7976 7444 0
-2779 7977 7976 0
2779 -7977 0
2779 -7976 0
7978 -7422 -7444 0
-7978 7422 0
-7978 7444 0
-2786 7431 7978 0
2786 -7431 0
2786 -7978 0
7979 -7448 -7426 0
-7979 7448 0
-7979 7426 0
-2770 7446 7979 0
2770 -7446 0
2770 -7979 0
7980 -7448 -7422 0
-7980 7448 0
-7980 7422 0
-2791 7428 7980 0
2791 -7428 0
2791 -7980 0
7981 -7448 -7448 0
-7981 7448 0
-7981 7448 0
-2797 7450 7981 0
2797 -7450 0
2797 -7981 0
7982 -7848 -7889 0
-7982 7848 0
-7982 7889 0
7983 -7889 -7889 0
-7983 7889 0
-7983 7889 0
7984 -7889 -7848 0
-7984 7889 0
-7984 7848 0
7985 -7848 -7848 -7903 0
-7985 7848 0
-7985 7848 0
-7985 7903 0
-2567 7849 7982 7983 7984 7985 0
2567 -7849 0
2567 -7982 0
2567 -7983 0
2567 -7984 0
2567 -7985 0
7986 -7848 -7987 0
-7986 7848 0
-7986 7987 0
7988 -7889 -7987 0
-7988 7889 0
-7988 7987 0
7989 -7889 -7851 0
-7989 7889 0
-7989 7851 0
7990 -7848 -7851 -7903 0
-7990 7848 0
-7990 7851 0
-7990 7903 0
-2563 7852 7986 7988 7989 7990 0
2563 -7852 0
2563 -7986 0
2563 -7988 0
2563 -7989 0
2563 -7990 0
7991 -7848 -7888 0
-7991 7848 0
-7991 7888 0
7992 -7889 -7854 0
-7992 7889 0
-7992 7854 0
7993 -7889 -7888 0
-7993 7889 0
-7993 7888 0
7994 -7848 -7854 -7903 0
-7994 7848 0
-7994 7854 0
-7994 7903 0
-2587 7855 7991 7992 7993 7994 0
2587 -7855 0
2587 -7991 0
2587 -7992 0
2587 -7993 0
2587 -7994 0
7995 -7857 -7888 0
-7995 7857 0
-7995 7888 0
7996 -7899 -7888 0
-7996 7899 0
-7996 7888 0
7997 -7899 -7854 0
-7997 7899 0
-7997 7854 0
7998 -7857 -7854 -7903 0
-7998 7857 0
-7998 7854 0
-7998 7903 0
-2585 7858 7995 7996 7997 7998 0
2585 -7858 0
2585 -7995 0
2585 -7996 0
2585 -7997 0
2585 -7998 0
7999 -7848 -7895 0
-7999 7848 0
-7999 7895 0
8000 -7889 -7895 0
-8000 7889 0
-8000 7895 0
8001 -7889 -7860 0
-8001 7889 0
-8001 7860 0
8002 -7848 -7860 -7903 0
-8002 7848 0
-8002 7860 0
-8002 7903 0
-2571 7861 7999 8000 8001 8002 0
2571 -7861 0
2571 -7999 0
2571 -8000 0
2571 -8001 0
2571 -8002 0
8003 -7848 -7901 0
-8003 7848 0
-8003 7901 0
8004 -7889 -7863 0
-8004 7889 0
-8004 7863 0
8005 -7889 -7901 0
-8005 7889 0
-8005 7901 0
8006 -7848 -7863 -7903 0
-8006 7848 0
-8006 7863 0
-8006 7903 0
-2578 7864 8003 8004 8005 8006 0
2578 -7864 0
2578 -8003 0
2578 -8004 0
2578 -8005 0
2578 -8006 0
8007 -7857 -7901 0
-8007 7857 0
-8007 7901 0
8008 -7899 -7901 0
-8008 7899 0
-8008 7901 0
8009 -7899 -7863 0
-8009 7899 0
-8009 7863 0
8010 -7857 -7863 -7903 0
-8010 7857 0
-8010 7863 0
-8010 7903 0
-2580 7866 8007 8008 8009 8010 0
2580 -7866 0
2580 -8007 0
2580 -8008 0
2580 -8009 0
2580 -8010 0
8011 -7851 -7899 0
-8011 7851 0
-8011 7899 0
8012 -7987 -7857 0
-8012 7987 0
-8012 7857 0
8013 -7987 -7899 0
-8013 7987 0
-8013 7899 0
8014 -7851 -7857 -7903 0
-8014 7851 0
-8014 7857 0
-8014 7903 0
-2562 7868 8011 8012 8013 8014 0
2562 -7868 0
2562 -8011 0
2562 -8012 0
2562 -8013 0
2562 -8014 0
8015 -7851 -7987 0
-8015 7851 0
-8015 7987 0
8016 -7987 -7987 0
-8016 7987 0
-8016 7987 0
8017 -7987 -7851 0
-8017 7987 0
-8017 7851 0
8018 -7851 -7851 -7903 0
-8018 7851 0
-8018 7851 0
-8018 7903 0
-2569 7870 8015 8016 8017 8018 0
2569 -7870 0
2569 -8015 0
2569 -8016 0
2569 -8017 0
2569 -8018 0
8019 -7851 -7895 0
-8019 7851 0
-8019 7895 0
8020 -7987 -7895 0
-8020 7987 0
-8020 7895 0
8021 -7987 -7860 0
-8021 7987 0
-8021 7860 0
8022 -7851 -7860 -7903 0
-8022 7851 0
-8022 7860 0
-8022 7903 0
-2576 7872 8019 8020 8021 8022 0
2576 -7872 0
2576 -8019 0
2576 -8020 0
2576 -8021 0
2576 -8022 0
8023 -7851 -7901 0
-8023 7851 0
-8023 7901 0
8024 -7987 -7863 0
-8024 7987 0
-8024 7863 0
8025 -7987 -7901 0
-8025 7987 0
-8025 7901 0
8026 -7851 -7863 -7903 0
-8026 7851 0
-8026 7863 0
-8026 7903 0
-2583 7874 8023 8024 8025 8026 0
2583 -7874 0
2583 -8023 0
2583 -8024 0
2583 -8025 0
2583 -8026 0
8027 -7854 -7901 0
-8027 7854 0
-8027 7901 0
8028 -7888 -7901 0
-8028 7888 0
-8028 7901 0
8029 -7888 -7863 0
-8029 7888 0
-8029 7863 0
8030 -7854 -7863 -7903 0
-8030 7854 0
-8030 7863 0
-8030 7903 0
-2590 7876 8027 8028 8029 8030 0
2590 -7876 0
2590 -8027 0
2590 -8028 0
2590 -8029 0
2590 -8030 0
8031 -7860 -7899 0
-8031 7860 0
-8031 7899 0
8032 -7895 -7857 0
-8032 7895 0
-8032 7857 0
8033 -7895 -7899 0
-8033 7895 0
-8033 7899 0
8034 -7860 -7857 -7903 0
-8034 7860 0
-8034 7857 0
-8034 7903 0
-2574 7878 8031 8032 8033 8034 0
2574 -7878 0
2574 -8031 0
2574 -8032 0
2574 -8033 0
2574 -8034 0
8035 -7860 -7888 0
-8035 7860 0
-8035 7888 0
8036 -7895 -7854 0
-8036 7895 0
-8036 7854 0
8037 -7895 -7888 0
-8037 7895 0
-8037 7888 0
8038 -7860 -7854 -7903 0
-8038 7860 0
-8038 7854 0
-8038 7903 0
-2595 7880 8035 8036 8037 8038 0
2595 -7880 0
2595 -8035 0
2595 -8036 0
2595 -8037 0
2595 -8038 0
8039 -7860 -7895 0
-8039 7860 0
-8039 7895 0
8040 -7895 -7895 0
-8040 7895 0
-8040 7895 0
8041 -7895 -7860 0
-8041 7895 0
-8041 7860 0
8042 -7860 -7860 -7903 0
-8042 7860 0
-8042 7860 0
-8042 7903 0
-2601 7882 8039 8040 8041 8042 0
2601 -7882 0
2601 -8039 0
2601 -8040 0
2601 -8041 0
2601 -8042 0
8043 -8044 -8044 0
-8043 8044 0
-8043 8044 0
-1271 8045 8043 0
1271 -8045 0
1271 -8043 0
8046 -8044 -8047 0
-8046 8044 0
-8046 8047 0
-1265 8048 8046 0
1265 -8048 0
1265 -8046 0
8049 -8044 -8050 0
-8049 8044 0
-8049 8050 0
-1264 8051 8049 0
1264 -8051 0
1264 -8049 0
8052 -8053 -8050 0
-8052 8053 0
-8052 8050 0
-1287 8054 8052 0
1287 -8054 0
1287 -8052 0
8055 -8044 -8056 0
-8055 8044 0
-8055 8056 0
-1278 8057 8055 0
1278 -8057 0
1278 -8055 0
8058 -8044 -8059 0
-8058 8044 0
-8058 8059 0
-1285 8060 8058 0
1285 -8060 0
1285 -8058 0
8061 -8053 -8059 0
-8061 8053 0
-8061 8059 0
-1292 8062 8061 0
1292 -8062 0
1292 -8061 0
8063 -8047 -8053 0
-8063 8047 0
-8063 8053 0
-1289 8064 8063 0
1289 -8064 0
1289 -8063 0
8065 -8047 -8047 0
-8065 8047 0
-8065 8047 0
-1269 8066 8065 0
1269 -8066 0
1269 -8065 0
8067 -8047 -8056 0
-8067 8047 0
-8067 8056 0
-1273 8068 8067 0
1273 -8068 0
1273 -8067 0
8069 -8047 -8059 0
-8069 8047 0
-8069 8059 0
-1280 8070 8069 0
1280 -8070 0
1280 -8069 0
8071 -8050 -8059 0
-8071 8050 0
-8071 8059 0
-1282 8072 8071 0
1282 -8072 0
1282 -8071 0
8073 -8056 -8053 0
-8073 8056 0
-8073 8053 0
-1297 8074 8073 0
1297 -8074 0
1297 -8073 0
8075 -8056 -8050 0
-8075 8056 0
-8075 8050 0
-1276 8076 8075 0
1276 -8076 0
1276 -8075 0
8077 -8056 -8056 0
-8077 8056 0
-8077 8056 0
-1303 8078 8077 0
1303 -8078 0
1303 -8077 0
8079 -7665 -7662 0
-8079 7665 0
-8079 7662 0
8080 -7662 -7662 0
-8080 7662 0
-8080 7662 0
8081 -7662 -7665 0
-8081 7662 0
-8081 7665 0
8082 -7665 -7665 -7680 0
-8082 7665 0
-8082 7665 0
-8082 7680 0
-6030 7659 8079 8080 8081 8082 0
6030 -7659 0
6030 -8079 0
6030 -8080 0
6030 -8081 0
6030 -8082 0
8083 -7665 -8084 0
-8083 7665 0
-8083 8084 0
8085 -7662 -8084 0
-8085 7662 0
-8085 8084 0
8086 -7662 -7906 0
-8086 7662 0
-8086 7906 0
8087 -7665 -7906 -7680 0
-8087 7665 0
-8087 7906 0
-8087 7680 0
-6026 7907 8083 8085 8086 8087 0
6026 -7907 0
6026 -8083 0
6026 -8085 0
6026 -8086 0
6026 -8087 0
8088 -7665 -7661 0
-8088 7665 0
-8088 7661 0
8089 -7662 -7664 0
-8089 7662 0
-8089 7664 0
8090 -7662 -7661 0
-8090 7662 0
-8090 7661 0
8091 -7665 -7664 -7680 0
-8091 7665 0
-8091 7664 0
-8091 7680 0
-6050 7658 8088 8089 8090 8091 0
6050 -7658 0
6050 -8088 0
6050 -8089 0
6050 -8090 0
6050 -8091 0
8092 -7668 -7661 0
-8092 7668 0
-8092 7661 0
8093 -7678 -7661 0
-8093 7678 0
-8093 7661 0
8094 -7678 -7664 0
-8094 7678 0
-8094 7664 0
8095 -7668 -7664 -7680 0
-8095 7668 0
-8095 7664 0
-8095 7680 0
-6048 7667 8092 8093 8094 8095 0
6048 -7667 0
6048 -8092 0
6048 -8093 0
6048 -8094 0
6048 -8095 0
8096 -7665 -7682 0
-8096 7665 0
-8096 7682 0
8097 -7662 -7682 0
-8097 7662 0
-8097 7682 0
8098 -7662 -7690 0
-8098 7662 0
-8098 7690 0
8099 -7665 -7690 -7680 0
-8099 7665 0
-8099 7690 0
-8099 7680 0
-6034 7671 8096 8097 8098 8099 0
6034 -7671 0
6034 -8096 0
6034 -8097 0
6034 -8098 0
6034 -8099 0
8100 -7665 -7684 0
-8100 7665 0
-8100 7684 0
8101 -7662 -7686 0
-8101 7662 0
-8101 7686 0
8102 -7662 -7684 0
-8102 7662 0
-8102 7684 0
8103 -7665 -7686 -7680 0
-8103 7665 0
-8103 7686 0
-8103 7680 0
-6041 7674 8100 8101 8102 8103 0
6041 -7674 0
6041 -8100 0
6041 -8101 0
6041 -8102 0
6041 -8103 0
8104 -7668 -7684 0
-8104 7668 0
-8104 7684 0
8105 -7678 -7684 0
-8105 7678 0
-8105 7684 0
8106 -7678 -7686 0
-8106 7678 0
-8106 7686 0
8107 -7668 -7686 -7680 0
-8107 7668 0
-8107 7686 0
-8107 7680 0
-6043 7676 8104 8105 8106 8107 0
6043 -7676 0
6043 -8104 0
6043 -8105 0
6043 -8106 0
6043 -8107 0
8108 -7906 -7678 0
-8108 7906 0
-8108 7678 0
8109 -8084 -7668 0
-8109 8084 0
-8109 7668 0
8110 -8084 -7678 0
-8110 8084 0
-8110 7678 0
8111 -7906 -7668 -7680 0
-8111 7906 0
-8111 7668 0
-8111 7680 0
-6025 7914 8108 8109 8110 8111 0
6025 -7914 0
6025 -8108 0
6025 -8109 0
6025 -8110 0
6025 -8111 0
8112 -7906 -8084 0
-8112 7906 0
-8112 8084 0
8113 -8084 -8084 0
-8113 8084 0
-8113 8084 0
8114 -8084 -7906 0
-8114 8084 0
-8114 7906 0
8115 -7906 -7906 -7680 0
-8115 7906 0
-8115 7906 0
-8115 7680 0
-6032 7916 8112 8113 8114 8115 0
6032 -7916 0
6032 -8112 0
6032 -8113 0
6032 -8114 0
6032 -8115 0
8116 -7906 -7682 0
-8116 7906 0
-8116 7682 0
8117 -8084 -7682 0
-8117 8084 0
-8117 7682 0
8118 -8084 -7690 0
-8118 8084 0
-8118 7690 0
8119 -7906 -7690 -7680 0
-8119 7906 0
-8119 7690 0
-8119 7680 0
-6039 7918 8116 8117 8118 8119 0
6039 -7918 0
6039 -8116 0
6039 -8117 0
6039 -8118 0
6039 -8119 0
8120 -7906 -7684 0
-8120 7906 0
-8120 7684 0
8121 -8084 -7686 0
-8121 8084 0
-8121 7686 0
8122 -8084 -7684 0
-8122 8084 0
-8122 7684 0
8123 -7906 -7686 -7680 0
-8123 7906 0
-8123 7686 0
-8123 7680 0
-6046 7920 8120 8121 8122 8123 0
6046 -7920 0
6046 -8120 0
6046 -8121 0
6046 -8122 0
6046 -8123 0
8124 -7664 -7684 0
-8124 7664 0
-8124 7684 0
8125 -7661 -7684 0
-8125 7661 0
-8125 7684 0
8126 -7661 -7686 0
-8126 7661 0
-8126 7686 0
8127 -7664 -7686 -7680 0
-8127 7664 0
-8127 7686 0
-8127 7680 0
-6053 7673 8124 8125 8126 8127 0
6053 -7673 0
6053 -8124 0
6053 -8125 0
6053 -8126 0
6053 -8127 0
8128 -7690 -7678 0
-8128 7690 0
-8128 7678 0
8129 -7682 -7668 0
-8129 7682 0
-8129 7668 0
8130 -7682 -7678 0
-8130 7682 0
-8130 7678 0
8131 -7690 -7668 -7680 0
-8131 7690 0
-8131 7668 0
-8131 7680 0
-6037 7688 8128 8129 8130 8131 0
6037 -7688 0
6037 -8128 0
6037 -8129 0
6037 -8130 0
6037 -8131 0
8132 -7690 -7661 0
-8132 7690 0
-8132 7661 0
8133 -7682 -7664 0
-8133 7682 0
-8133 7664 0
8134 -7682 -7661 0
-8134 7682 0
-8134 7661 0
8135 -7690 -7664 -7680 0
-8135 7690 0
-8135 7664 0
-8135 7680 0
-6058 7670 8132 8133 8134 8135 0
6058 -7670 0
6058 -8132 0
6058 -8133 0
6058 -8134 0
6058 -8135 0
8136 -7690 -7682 0
-8136 7690 0
-8136 7682 0
8137 -7682 -7682 0
-8137 7682 0
-8137 7682 0
8138 -7682 -7690 0
-8138 7682 0
-8138 7690 0
8139 -7690 -7690 -7680 0
-8139 7690 0
-8139 7690 0
-8139 7680 0
-6064 7692 8136 8137 8138 8139 0
6064 -7692 0
6064 -8136 0
6064 -8137 0
6064 -8138 0
6064 -8139 0
8140 -7864 -7864 0
-8140 7864 0
-8140 7864 0
-2303 7849 8140 0
2303 -7849 0
2303 -8140 0
8141 -7864 -7874 0
-8141 7864 0
-8141 7874 0
-2297 7852 8141 0
2297 -7852 0
2297 -8141 0
8142 -7864 -7876 0
-8142 7864 0
-8142 7876 0
-2296 7855 8142 0
2296 -7855 0
2296 -8142 0
8143 -7866 -7876 0
-8143 7866 0
-8143 7876 0
-2319 7858 8143 0
2319 -7858 0
2319 -8143 0
8144 -7864 -7901 0
-8144 7864 0
-8144 7901 0
-2310 7889 8144 0
2310 -7889 0
2310 -8144 0
8145 -7864 -7863 0
-8145 7864 0
-8145 7863 0
-2317 7848 8145 0
2317 -7848 0
2317 -8145 0
8146 -7866 -7863 0
-8146 7866 0
-8146 7863 0
-2324 7857 8146 0
2324 -7857 0
2324 -8146 0
8147 -7874 -7866 0
-8147 7874 0
-8147 7866 0
-2321 7868 8147 0
2321 -7868 0
2321 -8147 0
8148 -7874 -7874 0
-8148 7874 0
-8148 7874 0
-2301 7870 8148 0
2301 -7870 0
2301 -8148 0
8149 -7874 -7901 0
-8149 7874 0
-8149 7901 0
-2305 7987 8149 0
2305 -7987 0
2305 -8149 0
8150 -7874 -7863 0
-8150 7874 0
-8150 7863 0
-2312 7851 8150 0
2312 -7851 0
2312 -8150 0
8151 -7876 -7863 0
-8151 7876 0
-8151 7863 0
-2314 7854 8151 0
2314 -7854 0
2314 -8151 0
8152 -7901 -7866 0
-8152 7901 0
-8152 7866 0
-2329 7899 8152 0
2329 -7899 0
2329 -8152 0
8153 -7901 -7876 0
-8153 7901 0
-8153 7876 0
-2308 7888 8153 0
2308 -7888 0
2308 -8153 0
8154 -7901 -7901 0
-8154 7901 0
-8154 7901 0
-2335 7903 8154 0
2335 -7903 0
2335 -8154 0
8155 -8156 -8156 0
-8155 8156 0
-8155 8156 0
-4701 8157 8155 0
4701 -8157 0
4701 -8155 0
8158 -8156 -8159 0
-8158 8156 0
-8158 8159 0
-4697 8160 8158 0
4697 -8160 0
4697 -8158 0
8161 -8156 -8162 0
-8161 8156 0
-8161 8162 0
-4715 8163 8161 0
4715 -8163 0
4715 -8161 0
8164 -8165 -8162 0
-8164 8165 0
-8164 8162 0
-1610 8166 8164 0
1610 -8166 0
1610 -8164 0
8167 -8156 -8168 0
-8167 8156 0
-8167 8168 0
-4704 8169 8167 0
4704 -8169 0
4704 -8167 0
8170 -8156 -8171 0
-8170 8156 0
-8170 8171 0
-4709 8172 8170 0
4709 -8172 0
4709 -8170 0
8173 -8165 -8171 0
-8173 8165 0
-8173 8171 0
-1607 8174 8173 0
1607 -8174 0
1607 -8173 0
8175 -8159 -8165 0
-8175 8159 0
-8175 8165 0
-1600 8176 8175 0
1600 -8176 0
1600 -8175 0
8177 -8159 -8159 0
-8177 8159 0
-8177 8159 0
-1602 8178 8177 0
1602 -8178 0
1602 -8177 0
8179 -8159 -8168 0
-8179 8159 0
-8179 8168 0
-1605 8180 8179 0
1605 -8180 0
1605 -8179 0
8181 -8159 -8171 0
-8181 8159 0
-8181 8171 0
-1608 8182 8181 0
1608 -8182 0
1608 -8181 0
8183 -8162 -8171 0
-8183 8162 0
-8183 8171 0
-1611 8184 8183 0
1611 -8184 0
1611 -8183 0
8185 -8168 -8165 0
-8185 8168 0
-8185 8165 0
-1604 8186 8185 0
1604 -8186 0
1604 -8185 0
8187 -8168 -8162 0
-8187 8168 0
-8187 8162 0
-1613 8188 8187 0
1613 -8188 0
1613 -8187 0
8189 -8168 -8168 0
-8189 8168 0
-8189 8168 0
-1616 8190 8189 0
1616 -8190 0
1616 -8189 0
8191 -7078 -7078 0
-8191 7078 0
-8191 7078 0
-4155 7063 8191 0
4155 -7063 0
4155 -8191 0
8192 -7078 -7088 0
-8192 7078 0
-8192 7088 0
-4150 7066 8192 0
4150 -7066 0
4150 -8192 0
8193 -7078 -7090 0
-8193 7078 0
-8193 7090 0
-4149 7069 8193 0
4149 -7069 0
4149 -8193 0
8194 -7080 -7090 0
-8194 7080 0
-8194 7090 0
-3824 7072 8194 0
3824 -7072 0
3824 -8194 0
8195 -7078 -8196 0
-8195 7078 0
-8195 8196 0
-4160 8197 8195 0
4160 -8197 0
4160 -8195 0
8198 -7078 -7077 0
-8198 7078 0
-8198 7077 0
-4165 7062 8198 0
4165 -7062 0
4165 -8198 0
8199 -7080 -7077 0
-8199 7080 0
-8199 7077 0
-3821 7071 8199 0
3821 -7071 0
3821 -8199 0
8200 -7088 -7080 0
-8200 7088 0
-8200 7080 0
-3814 7082 8200 0
3814 -7082 0
3814 -8200 0
8201 -7088 -7088 0
-8201 7088 0
-8201 7088 0
-3816 7084 8201 0
3816 -7084 0
3816 -8201 0
8202 -7088 -8196 0
-8202 7088 0
-8202 8196 0
-3819 8203 8202 0
3819 -8203 0
3819 -8202 0
8204 -7088 -7077 0
-8204 7088 0
-8204 7077 0
-3822 7065 8204 0
3822 -7065 0
3822 -8204 0
8205 -7090 -7077 0
-8205 7090 0
-8205 7077 0
-3825 7068 8205 0
3825 -7068 0
3825 -8205 0
8206 -8196 -7080 0
-8206 8196 0
-8206 7080 0
-3818 8207 8206 0
3818 -8207 0
3818 -8206 0
8208 -8196 -7090 0
-8208 8196 0
-8208 7090 0
-3827 8209 8208 0
3827 -8209 0
3827 -8208 0
8210 -8196 -8196 0
-8210 8196 0
-8210 8196 0
-3830 8211 8210 0
3830 -8211 0
3830 -8210 0
8212 -8213 -8214 0
-8212 8213 0
-8212 8214 0
8215 -8214 -8214 0
-8215 8214 0
-8215 8214 0
8216 -8214 -8213 0
-8216 8214 0
-8216 8213 0
8217 -8213 -8213 -8218 0
-8217 8213 0
-8217 8213 0
-8217 8218 0
-4423 8219 8212 8215 8216 8217 0
4423 -8219 0
4423 -8212 0
4423 -8215 0
4423 -8216 0
4423 -8217 0
8220 -8213 -8221 0
-8220 8213 0
-8220 8221 0
8222 -8214 -8221 0
-8222 8214 0
-8222 8221 0
8223 -8214 -8224 0
-8223 8214 0
-8223 8224 0
8225 -8213 -8224 -8218 0
-8225 8213 0
-8225 8224 0
-8225 8218 0
-4419 8226 8220 8222 8223 8225 0
4419 -8226 0
4419 -8220 0
4419 -8222 0
4419 -8223 0
4419 -8225 0
8227 -8213 -8228 0
-8227 8213 0
-8227 8228 0
8229 -8214 -8230 0
-8229 8214 0
-8229 8230 0
8231 -8214 -8228 0
-8231 8214 0
-8231 8228 0
8232 -8213 -8230 -8218 0
-8232 8213 0
-8232 8230 0
-8232 8218 0
-4437 8233 8227 8229 8231 8232 0
4437 -8233 0
4437 -8227 0
4437 -8229 0
4437 -8231 0
4437 -8232 0
8234 -8235 -8228 0
-8234 8235 0
-8234 8228 0
8236 -8237 -8228 0
-8236 8237 0
-8236 8228 0
8238 -8237 -8230 0
-8238 8237 0
-8238 8230 0
8239 -8235 -8230 -8218 0
-8239 8235 0
-8239 8230 0
-8239 8218 0
-4082 8240 8234 8236 8238 8239 0
4082 -8240 0
4082 -8234 0
4082 -8236 0
4082 -8238 0
4082 -8239 0
8241 -8213 -8242 0
-8241 8213 0
-8241 8242 0
8243 -8214 -8242 0
-8243 8214 0
-8243 8242 0
8244 -8214 -8245 0
-8244 8214 0
-8244 8245 0
8246 -8213 -8245 -8218 0
-8246 8213 0
-8246 8245 0
-8246 8218 0
-4426 8247 8241 8243 8244 8246 0
4426 -8247 0
4426 -8241 0
4426 -8243 0
4426 -8244 0
4426 -8246 0
8248 -8213 -8249 0
-8248 8213 0
-8248 8249 0
8250 -8214 -8251 0
-8250 8214 0
-8250 8251 0
8252 -8214 -8249 0
-8252 8214 0
-8252 8249 0
8253 -8213 -8251 -8218 0
-8253 8213 0
-8253 8251 0
-8253 8218 0
-4431 8254 8248 8250 8252 8253 0
4431 -8254 0
4431 -8248 0
4431 -8250 0
4431 -8252 0
4431 -8253 0
8255 -8235 -8249 0
-8255 8235 0
-8255 8249 0
8256 -8237 -8249 0
-8256 8237 0
-8256 8249 0
8257 -8237 -8251 0
-8257 8237 0
-8257 8251 0
8258 -8235 -8251 -8218 0
-8258 8235 0
-8258 8251 0
-8258 8218 0
-4079 8259 8255 8256 8257 8258 0
4079 -8259 0
4079 -8255 0
4079 -8256 0
4079 -8257 0
4079 -8258 0
8260 -8224 -8237 0
-8260 8224 0
-8260 8237 0
8261 -8221 -8235 0
-8261 8221 0
-8261 8235 0
8262 -8221 -8237 0
-8262 8221 0
-8262 8237 0
8263 -8224 -8235 -8218 0
-8263 8224 0
-8263 8235 0
-8263 8218 0
-4072 8264 8260 8261 8262 8263 0
4072 -8264 0
4072 -8260 0
4072 -8261 0
4072 -8262 0
4072 -8263 0
8265 -8224 -8221 0
-8265 8224 0
-8265 8221 0
8266 -8221 -8221 0
-8266 8221 0
-8266 8221 0
8267 -8221 -8224 0
-8267 8221 0
-8267 8224 0
8268 -8224 -8224 -8218 0
-8268 8224 0
-8268 8224 0
-8268 8218 0
-4074 8269 8265 8266 8267 8268 0
4074 -8269 0
4074 -8265 0
4074 -8266 0
4074 -8267 0
4074 -8268 0
8270 -8224 -8242 0
-8270 8224 0
-8270 8242 0
8271 -8221 -8242 0
-8271 8221 0
-8271 8242 0
8272 -8221 -8245 0
-8272 8221 0
-8272 8245 0
8273 -8224 -8245 -8218 0
-8273 8224 0
-8273 8245 0
-8273 8218 0
-4077 8274 8270 8271 8272 8273 0
4077 -8274 0
4077 -8270 0
4077 -8271 0
4077 -8272 0
4077 -8273 0
8275 -8224 -8249 0
-8275 8224 0
-8275 8249 0
8276 -8221 -8251 0
-8276 8221 0
-8276 8251 0
8277 -8221 -8249 0
-8277 8221 0
-8277 8249 0
8278 -8224 -8251 -8218 0
-8278 8224 0
-8278 8251 0
-8278 8218 0
-4080 8279 8275 8276 8277 8278 0
4080 -8279 0
4080 -8275 0
4080 -8276 0
4080 -8277 0
4080 -8278 0
8280 -8230 -8249 0
-8280 8230 0
-8280 8249 0
8281 -8228 -8249 0
-8281 8228 0
-8281 8249 0
8282 -8228 -8251 0
-8282 8228 0
-8282 8251 0
8283 -8230 -8251 -8218 0
-8283 8230 0
-8283 8251 0
-8283 8218 0
-4083 8284 8280 8281 8282 8283 0
4083 -8284 0
4083 -8280 0
4083 -8281 0
4083 -8282 0
4083 -8283 0
8285 -8245 -8237 0
-8285 8245 0
-8285 8237 0
8286 -8242 -8235 0
-8286 8242 0
-8286 8235 0
8287 -8242 -8237 0
-8287 8242 0
-8287 8237 0
8288 -8245 -8235 -8218 0
-8288 8245 0
-8288 8235 0
-8288 8218 0
-4076 8289 8285 8286 8287 8288 0
4076 -8289 0
4076 -8285 0
4076 -8286 0
4076 -8287 0
4076 -8288 0
8290 -8245 -8228 0
-8290 8245 0
-8290 8228 0
8291 -8242 -8230 0
-8291 8242 0
-8291 8230 0
8292 -8242 -8228 0
-8292 8242 0
-8292 8228 0
8293 -8245 -8230 -8218 0
-8293 8245 0
-8293 8230 0
-8293 8218 0
-4085 8294 8290 8291 8292 8293 0
4085 -8294 0
4085 -8290 0
4085 -8291 0
4085 -8292 0
4085 -8293 0
8295 -8245 -8242 0
-8295 8245 0
-8295 8242 0
8296 -8242 -8242 0
-8296 8242 0
-8296 8242 0
8297 -8242 -8245 0
-8297 8242 0
-8297 8245 0
8298 -8245 -8245 -8218 0
-8298 8245 0
-8298 8245 0
-8298 8218 0
-4088 8299 8295 8296 8297 8298 0
4088 -8299 0
4088 -8295 0
4088 -8296 0
4088 -8297 0
4088 -8298 0
8300 -7113 -7113 0
-8300 7113 0
-8300 7113 0
-3152 7119 8300 0
3152 -7119 0
3152 -8300 0
8301 -7113 -7124 0
-8301 7113 0
-8301 7124 0
-3146 7126 8301 0
3146 -7126 0
3146 -8301 0
8302 -7113 -7130 0
-8302 7113 0
-8302 7130 0
-3145 7133 8302 0
3145 -7133 0
3145 -8302 0
8303 -7135 -7130 0
-8303 7135 0
-8303 7130 0
-3168 7140 8303 0
3168 -7140 0
3168 -8303 0
8304 -7113 -7145 0
-8304 7113 0
-8304 7145 0
-3159 7147 8304 0
3159 -7147 0
3159 -8304 0
8305 -7113 -7151 0
-8305 7113 0
-8305 7151 0
-3166 7154 8305 0
3166 -7154 0
3166 -8305 0
8306 -7135 -7151 0
-8306 7135 0
-8306 7151 0
-3173 7159 8306 0
3173 -7159 0
3173 -8306 0
8307 -7124 -7135 0
-8307 7124 0
-8307 7135 0
-3170 7164 8307 0
3170 -7164 0
3170 -8307 0
8308 -7124 -7124 0
-8308 7124 0
-8308 7124 0
-3150 7169 8308 0
3150 -7169 0
3150 -8308 0
8309 -7124 -7145 0
-8309 7124 0
-8309 7145 0
-3154 7174 8309 0
3154 -7174 0
3154 -8309 0
8310 -7124 -7151 0
-8310 7124 0
-8310 7151 0
-3161 7179 8310 0
3161 -7179 0
3161 -8310 0
8311 -7130 -7151 0
-8311 7130 0
-8311 7151 0
-3163 7184 8311 0
3163 -7184 0
3163 -8311 0
8312 -7145 -7135 0
-8312 7145 0
-8312 7135 0
-3178 7189 8312 0
3178 -7189 0
3178 -8312 0
8313 -7145 -7130 0
-8313 7145 0
-8313 7130 0
-3157 7194 8313 0
3157 -7194 0
3157 -8313 0
8314 -7145 -7145 0
-8314 7145 0
-8314 7145 0
-3184 7199 8314 0
3184 -7199 0
3184 -8314 0
8315 -7069 -7066 0
-8315 7069 0
-8315 7066 0
8316 -7066 -7066 0
-8316 7066 0
-8316 7066 0
8317 -7066 -7069 0
-8317 7066 0
-8317 7069 0
8318 -7069 -7069 -7084 0
-8318 7069 0
-8318 7069 0
-8318 7084 0
-5071 7063 8315 8316 8317 8318 0
5071 -7063 0
5071 -8315 0
5071 -8316 0
5071 -8317 0
5071 -8318 0
8319 -7069 -7086 0
-8319 7069 0
-8319 7086 0
8320 -7066 -7086 0
-8320 7066 0
-8320 7086 0
8321 -7066 -7094 0
-8321 7066 0
-8321 7094 0
8322 -7069 -7094 -7084 0
-8322 7069 0
-8322 7094 0
-8322 7084 0
-5067 7075 8319 8320 8321 8322 0
5067 -7075 0
5067 -8319 0
5067 -8320 0
5067 -8321 0
5067 -8322 0
8323 -7069 -7088 0
-8323 7069 0
-8323 7088 0
8324 -7066 -7090 0
-8324 7066 0
-8324 7090 0
8325 -7066 -7088 0
-8325 7066 0
-8325 7088 0
8326 -7069 -7090 -7084 0
-8326 7069 0
-8326 7090 0
-8326 7084 0
-5091 7078 8323 8324 8325 8326 0
5091 -7078 0
5091 -8323 0
5091 -8324 0
5091 -8325 0
5091 -8326 0
8327 -7072 -7088 0
-8327 7072 0
-8327 7088 0
8328 -7082 -7088 0
-8328 7082 0
-8328 7088 0
8329 -7082 -7090 0
-8329 7082 0
-8329 7090 0
8330 -7072 -7090 -7084 0
-8330 7072 0
-8330 7090 0
-8330 7084 0
-5089 7080 8327 8328 8329 8330 0
5089 -7080 0
5089 -8327 0
5089 -8328 0
5089 -8329 0
5089 -8330 0
8331 -7069 -8203 0
-8331 7069 0
-8331 8203 0
8332 -7066 -8203 0
-8332 7066 0
-8332 8203 0
8333 -7066 -8209 0
-8333 7066 0
-8333 8209 0
8334 -7069 -8209 -7084 0
-8334 7069 0
-8334 8209 0
-8334 7084 0
-5075 8197 8331 8332 8333 8334 0
5075 -8197 0
5075 -8331 0
5075 -8332 0
5075 -8333 0
5075 -8334 0
8335 -7069 -7065 0
-8335 7069 0
-8335 7065 0
8336 -7066 -7068 0
-8336 7066 0
-8336 7068 0
8337 -7066 -7065 0
-8337 7066 0
-8337 7065 0
8338 -7069 -7068 -7084 0
-8338 7069 0
-8338 7068 0
-8338 7084 0
-5082 7062 8335 8336 8337 8338 0
5082 -7062 0
5082 -8335 0
5082 -8336 0
5082 -8337 0
5082 -8338 0
8339 -7072 -7065 0
-8339 7072 0
-8339 7065 0
8340 -7082 -7065 0
-8340 7082 0
-8340 7065 0
8341 -7082 -7068 0
-8341 7082 0
-8341 7068 0
8342 -7072 -7068 -7084 0
-8342 7072 0
-8342 7068 0
-8342 7084 0
-5084 7071 8339 8340 8341 8342 0
5084 -7071 0
5084 -8339 0
5084 -8340 0
5084 -8341 0
5084 -8342 0
8343 -7094 -7082 0
-8343 7094 0
-8343 7082 0
8344 -7086 -7072 0
-8344 7086 0
-8344 7072 0
8345 -7086 -7082 0
-8345 7086 0
-8345 7082 0
8346 -7094 -7072 -7084 0
-8346 7094 0
-8346 7072 0
-8346 7084 0
-5066 7092 8343 8344 8345 8346 0
5066 -7092 0
5066 -8343 0
5066 -8344 0
5066 -8345 0
5066 -8346 0
8347 -7094 -7086 0
-8347 7094 0
-8347 7086 0
8348 -7086 -7086 0
-8348 7086 0
-8348 7086 0
8349 -7086 -7094 0
-8349 7086 0
-8349 7094 0
8350 -7094 -7094 -7084 0
-8350 7094 0
-8350 7094 0
-8350 7084 0
-5073 7096 8347 8348 8349 8350 0
5073 -7096 0
5073 -8347 0
5073 -8348 0
5073 -8349 0
5073 -8350 0
8351 -7094 -8203 0
-8351 7094 0
-8351 8203 0
8352 -7086 -8203 0
-8352 7086 0
-8352 8203 0
8353 -7086 -8209 0
-8353 7086 0
-8353 8209 0
8354 -7094 -8209 -7084 0
-8354 7094 0
-8354 8209 0
-8354 7084 0
-5080 8355 8351 8352 8353 8354 0
5080 -8355 0
5080 -8351 0
5080 -8352 0
5080 -8353 0
5080 -8354 0
8356 -7094 -7065 0
-8356 7094 0
-8356 7065 0
8357 -7086 -7068 0
-8357 7086 0
-8357 7068 0
8358 -7086 -7065 0
-8358 7086 0
-8358 7065 0
8359 -7094 -7068 -7084 0
-8359 7094 0
-8359 7068 0
-8359 7084 0
-5087 7074 8356 8357 8358 8359 0
5087 -7074 0
5087 -8356 0
5087 -8357 0
5087 -8358 0
5087 -8359 0
8360 -7090 -7065 0
-8360 7090 0
-8360 7065 0
8361 -7088 -7065 0
-8361 7088 0
-8361 7065 0
8362 -7088 -7068 0
-8362 7088 0
-8362 7068 0
8363 -7090 -7068 -7084 0
-8363 7090 0
-8363 7068 0
-8363 7084 0
-5094 7077 8360 8361 8362 8363 0
5094 -7077 0
5094 -8360 0
5094 -8361 0
5094 -8362 0
5094 -8363 0
8364 -8209 -7082 0
-8364 8209 0
-8364 7082 0
8365 -8203 -7072 0
-8365 8203 0
-8365 7072 0
8366 -8203 -7082 0
-8366 8203 0
-8366 7082 0
8367 -8209 -7072 -7084 0
-8367 8209 0
-8367 7072 0
-8367 7084 0
-5078 8207 8364 8365 8366 8367 0
5078 -8207 0
5078 -8364 0
5078 -8365 0
5078 -8366 0
5078 -8367 0
8368 -8209 -7088 0
-8368 8209 0
-8368 7088 0
8369 -8203 -7090 0
-8369 8203 0
-8369 7090 0
8370 -8203 -7088 0
-8370 8203 0
-8370 7088 0
8371 -8209 -7090 -7084 0
-8371 8209 0
-8371 7090 0
-8371 7084 0
-5099 8196 8368 8369 8370 8371 0
5099 -8196 0
5099 -8368 0
5099 -8369 0
5099 -8370 0
5099 -8371 0
8372 -8209 -8203 0
-8372 8209 0
-8372 8203 0
8373 -8203 -8203 0
-8373 8203 0
-8373 8203 0
8374 -8203 -8209 0
-8374 8203 0
-8374 8209 0
8375 -8209 -8209 -7084 0
-8375 8209 0
-8375 8209 0
-8375 7084 0
-5105 8211 8372 8373 8374 8375 0
5105 -8211 0
5105 -8372 0
5105 -8373 0
5105 -8374 0
5105 -8375 0
8376 -7926 -8377 0
-8376 7926 0
-8376 8377 0
8378 -8377 -8377 0
-8378 8377 0
-8378 8377 0
8379 -8377 -7926 0
-8379 8377 0
-8379 7926 0
8380 -7926 -7926 -8381 0
-8380 7926 0
-8380 7926 0
-8380 8381 0
-5367 7927 8376 8378 8379 8380 0
5367 -7927 0
5367 -8376 0
5367 -8378 0
5367 -8379 0
5367 -8380 0
8382 -7926 -8383 0
-8382 7926 0
-8382 8383 0
8384 -8377 -8383 0
-8384 8377 0
-8384 8383 0
8385 -8377 -7929 0
-8385 8377 0
-8385 7929 0
8386 -7926 -7929 -8381 0
-8386 7926 0
-8386 7929 0
-8386 8381 0
-5363 7930 8382 8384 8385 8386 0
5363 -7930 0
5363 -8382 0
5363 -8384 0
5363 -8385 0
5363 -8386 0
8387 -7926 -8388 0
-8387 7926 0
-8387 8388 0
8389 -8377 -7932 0
-8389 8377 0
-8389 7932 0
8390 -8377 -8388 0
-8390 8377 0
-8390 8388 0
8391 -7926 -7932 -8381 0
-8391 7926 0
-8391 7932 0
-8391 8381 0
-5381 7933 8387 8389 8390 8391 0
5381 -7933 0
5381 -8387 0
5381 -8389 0
5381 -8390 0
5381 -8391 0
8392 -7935 -8388 0
-8392 7935 0
-8392 8388 0
8393 -8394 -8388 0
-8393 8394 0
-8393 8388 0
8395 -8394 -7932 0
-8395 8394 0
-8395 7932 0
8396 -7935 -7932 -8381 0
-8396 7935 0
-8396 7932 0
-8396 8381 0
-3620 7936 8392 8393 8395 8396 0
3620 -7936 0
3620 -8392 0
3620 -8393 0
3620 -8395 0
3620 -8396 0
8397 -7926 -8398 0
-8397 7926 0
-8397 8398 0
8399 -8377 -8398 0
-8399 8377 0
-8399 8398 0
8400 -8377 -7938 0
-8400 8377 0
-8400 7938 0
8401 -7926 -7938 -8381 0
-8401 7926 0
-8401 7938 0
-8401 8381 0
-5370 7939 8397 8399 8400 8401 0
5370 -7939 0
5370 -8397 0
5370 -8399 0
5370 -8400 0
5370 -8401 0
8402 -7926 -8403 0
-8402 7926 0
-8402 8403 0
8404 -8377 -7941 0
-8404 8377 0
-8404 7941 0
8405 -8377 -8403 0
-8405 8377 0
-8405 8403 0
8406 -7926 -7941 -8381 0
-8406 7926 0
-8406 7941 0
-8406 8381 0
-5375 7942 8402 8404 8405 8406 0
5375 -7942 0
5375 -8402 0
5375 -8404 0
5375 -8405 0
5375 -8406 0
8407 -7935 -8403 0
-8407 7935 0
-8407 8403 0
8408 -8394 -8403 0
-8408 8394 0
-8408 8403 0
8409 -8394 -7941 0
-8409 8394 0
-8409 7941 0
8410 -7935 -7941 -8381 0
-8410 7935 0
-8410 7941 0
-8410 8381 0
-3617 7944 8407 8408 8409 8410 0
3617 -7944 0
3617 -8407 0
3617 -8408 0
3617 -8409 0
3617 -8410 0
8411 -7929 -8394 0
-8411 7929 0
-8411 8394 0
8412 -8383 -7935 0
-8412 8383 0
-8412 7935 0
8413 -8383 -8394 0
-8413 8383 0
-8413 8394 0
8414 -7929 -7935 -8381 0
-8414 7929 0
-8414 7935 0
-8414 8381 0
-3610 7946 8411 8412 8413 8414 0
3610 -7946 0
3610 -8411 0
3610 -8412 0
3610 -8413 0
3610 -8414 0
8415 -7929 -8383 0
-8415 7929 0
-8415 8383 0
8416 -8383 -8383 0
-8416 8383 0
-8416 8383 0
8417 -8383 -7929 0
-8417 8383 0
-8417 7929 0
8418 -7929 -7929 -8381 0
-8418 7929 0
-8418 7929 0
-8418 8381 0
-3612 7948 8415 8416 8417 8418 0
3612 -7948 0
3612 -8415 0
3612 -8416 0
3612 -8417 0
3612 -8418 0
8419 -7929 -8398 0
-8419 7929 0
-8419 8398 0
8420 -8383 -8398 0
-8420 8383 0
-8420 8398 0
8421 -8383 -7938 0
-8421 8383 0
-8421 7938 0
8422 -7929 -7938 -8381 0
-8422 7929 0
-8422 7938 0
-8422 8381 0
-3615 7950 8419 8420 8421 8422 0
3615 -7950 0
3615 -8419 0
3615 -8420 0
3615 -8421 0
3615 -8422 0
8423 -7929 -8403 0
-8423 7929 0
-8423 8403 0
8424 -8383 -7941 0
-8424 8383 0
-8424 7941 0
8425 -8383 -8403 0
-8425 8383 0
-8425 8403 0
8426 -7929 -7941 -8381 0
-8426 7929 0
-8426 7941 0
-8426 8381 0
-3618 7952 8423 8424 8425 8426 0
3618 -7952 0
3618 -8423 0
3618 -8424 0
3618 -8425 0
3618 -8426 0
8427 -7932 -8403 0
-8427 7932 0
-8427 8403 0
8428 -8388 -8403 0
-8428 8388 0
-8428 8403 0
8429 -8388 -7941 0
-8429 8388 0
-8429 7941 0
8430 -7932 -7941 -8381 0
-8430 7932 0
-8430 7941 0
-8430 8381 0
-3621 7954 8427 8428 8429 8430 0
3621 -7954 0
3621 -8427 0
3621 -8428 0
3621 -8429 0
3621 -8430 0
8431 -7938 -8394 0
-8431 7938 0
-8431 8394 0
8432 -8398 -7935 0
-8432 8398 0
-8432 7935 0
8433 -8398 -8394 0
-8433 8398 0
-8433 8394 0
8434 -7938 -7935 -8381 0
-8434 7938 0
-8434 7935 0
-8434 8381 0
-3614 7956 8431 8432 8433 8434 0
3614 -7956 0
3614 -8431 0
3614 -8432 0
3614 -8433 0
3614 -8434 0
8435 -7938 -8388 0
-8435 7938 0
-8435 8388 0
8436 -8398 -7932 0
-8436 8398 0
-8436 7932 0
8437 -8398 -8388 0
-8437 8398 0
-8437 8388 0
8438 -7938 -7932 -8381 0
-8438 7938 0
-8438 7932 0
-8438 8381 0
-3623 7958 8435 8436 8437 8438 0
3623 -7958 0
3623 -8435 0
3623 -8436 0
3623 -8437 0
3623 -8438 0
8439 -7938 -8398 0
-8439 7938 0
-8439 8398 0
8440 -8398 -8398 0
-8440 8398 0
-8440 8398 0
8441 -8398 -7938 0
-8441 8398 0
-8441 7938 0
8442 -7938 -7938 -8381 0
-8442 7938 0
-8442 7938 0
-8442 8381 0
-3626 7960 8439 8440 8441 8442 0
3626 -7960 0
3626 -8439 0
3626 -8440 0
3626 -8441 0
3626 -8442 0
8443 -8044 -8444 0
-8443 8044 0
-8443 8444 0
8445 -8444 -8444 0
-8445 8444 0
-8445 8444 0
8446 -8444 -8044 0
-8446 8444 0
-8446 8044 0
8447 -8044 -8044 -8448 0
-8447 8044 0
-8447 8044 0
-8447 8448 0
-1664 8045 8443 8445 8446 8447 0
1664 -8045 0
1664 -8443 0
1664 -8445 0
1664 -8446 0
1664 -8447 0
8449 -8044 -8450 0
-8449 8044 0
-8449 8450 0
8451 -8444 -8450 0
-8451 8444 0
-8451 8450 0
8452 -8444 -8047 0
-8452 8444 0
-8452 8047 0
8453 -8044 -8047 -8448 0
-8453 8044 0
-8453 8047 0
-8453 8448 0
-1660 8048 8449 8451 8452 8453 0
1660 -8048 0
1660 -8449 0
1660 -8451 0
1660 -8452 0
1660 -8453 0
8454 -8044 -8455 0
-8454 8044 0
-8454 8455 0
8456 -8444 -8050 0
-8456 8444 0
-8456 8050 0
8457 -8444 -8455 0
-8457 8444 0
-8457 8455 0
8458 -8044 -8050 -8448 0
-8458 8044 0
-8458 8050 0
-8458 8448 0
-1684 8051 8454 8456 8457 8458 0
1684 -8051 0
1684 -8454 0
1684 -8456 0
1684 -8457 0
1684 -8458 0
8459 -8053 -8455 0
-8459 8053 0
-8459 8455 0
8460 -8461 -8455 0
-8460 8461 0
-8460 8455 0
8462 -8461 -8050 0
-8462 8461 0
-8462 8050 0
8463 -8053 -8050 -8448 0
-8463 8053 0
-8463 8050 0
-8463 8448 0
-1682 8054 8459 8460 8462 8463 0
1682 -8054 0
1682 -8459 0
1682 -8460 0
1682 -8462 0
1682 -8463 0
8464 -8044 -8465 0
-8464 8044 0
-8464 8465 0
8466 -8444 -8465 0
-8466 8444 0
-8466 8465 0
8467 -8444 -8056 0
-8467 8444 0
-8467 8056 0
8468 -8044 -8056 -8448 0
-8468 8044 0
-8468 8056 0
-8468 8448 0
-1668 8057 8464 8466 8467 8468 0
1668 -8057 0
1668 -8464 0
1668 -8466 0
1668 -8467 0
1668 -8468 0
8469 -8044 -8470 0
-8469 8044 0
-8469 8470 0
8471 -8444 -8059 0
-8471 8444 0
-8471 8059 0
8472 -8444 -8470 0
-8472 8444 0
-8472 8470 0
8473 -8044 -8059 -8448 0
-8473 8044 0
-8473 8059 0
-8473 8448 0
-1675 8060 8469 8471 8472 8473 0
1675 -8060 0
1675 -8469 0
1675 -8471 0
1675 -8472 0
1675 -8473 0
8474 -8053 -8470 0
-8474 8053 0
-8474 8470 0
8475 -8461 -8470 0
-8475 8461 0
-8475 8470 0
8476 -8461 -8059 0
-8476 8461 0
-8476 8059 0
8477 -8053 -8059 -8448 0
-8477 8053 0
-8477 8059 0
-8477 8448 0
-1677 8062 8474 8475 8476 8477 0
1677 -8062 0
1677 -8474 0
1677 -8475 0
1677 -8476 0
1677 -8477 0
8478 -8047 -8461 0
-8478 8047 0
-8478 8461 0
8479 -8450 -8053 0
-8479 8450 0
-8479 8053 0
8480 -8450 -8461 0
-8480 8450 0
-8480 8461 0
8481 -8047 -8053 -8448 0
-8481 8047 0
-8481 8053 0
-8481 8448 0
-1659 8064 8478 8479 8480 8481 0
1659 -8064 0
1659 -8478 0
1659 -8479 0
1659 -8480 0
1659 -8481 0
8482 -8047 -8450 0
-8482 8047 0
-8482 8450 0
8483 -8450 -8450 0
-8483 8450 0
-8483 8450 0
8484 -8450 -8047 0
-8484 8450 0
-8484 8047 0
8485 -8047 -8047 -8448 0
-8485 8047 0
-8485 8047 0
-8485 8448 0
-1666 8066 8482 8483 8484 8485 0
1666 -8066 0
1666 -8482 0
1666 -8483 0
1666 -8484 0
1666 -8485 0
8486 -8047 -8465 0
-8486 8047 0
-8486 8465 0
8487 -8450 -8465 0
-8487 8450 0
-8487 8465 0
8488 -8450 -8056 0
-8488 8450 0
-8488 8056 0
8489 -8047 -8056 -8448 0
-8489 8047 0
-8489 8056 0
-8489 8448 0
-1673 8068 8486 8487 8488 8489 0
1673 -8068 0
1673 -8486 0
1673 -8487 0
1673 -8488 0
1673 -8489 0
8490 -8047 -8470 0
-8490 8047 0
-8490 8470 0
8491 -8450 -8059 0
-8491 8450 0
-8491 8059 0
8492 -8450 -8470 0
-8492 8450 0
-8492 8470 0
8493 -8047 -8059 -8448 0
-8493 8047 0
-8493 8059 0
-8493 8448 0
-1680 8070 8490 8491 8492 8493 0
1680 -8070 0
1680 -8490 0
1680 -8491 0
1680 -8492 0
1680 -8493 0
8494 -8050 -8470 0
-8494 8050 0
-8494 8470 0
8495 -8455 -8470 0
-8495 8455 0
-8495 8470 0
8496 -8455 -8059 0
-8496 8455 0
-8496 8059 0
8497 -8050 -8059 -8448 0
-8497 8050 0
-8497 8059 0
-8497 8448 0
-1687 8072 8494 8495 8496 8497 0
1687 -8072 0
1687 -8494 0
1687 -8495 0
1687 -8496 0
1687 -8497 0
8498 -8056 -8461 0
-8498 8056 0
-8498 8461 0
8499 -8465 -8053 0
-8499 8465 0
-8499 8053 0
8500 -8465 -8461 0
-8500 8465 0
-8500 8461 0
8501 -8056 -8053 -8448 0
-8501 8056 0
-8501 8053 0
-8501 8448 0
-1671 8074 8498 8499 8500 8501 0
1671 -8074 0
1671 -8498 0
1671 -8499 0
1671 -8500 0
1671 -8501 0
8502 -8056 -8455 0
-8502 8056 0
-8502 8455 0
8503 -8465 -8050 0
-8503 8465 0
-8503 8050 0
8504 -8465 -8455 0
-8504 8465 0
-8504 8455 0
8505 -8056 -8050 -8448 0
-8505 8056 0
-8505 8050 0
-8505 8448 0
-1692 8076 8502 8503 8504 8505 0
1692 -8076 0
1692 -8502 0
1692 -8503 0
1692 -8504 0
1692 -8505 0
8506 -8056 -8465 0
-8506 8056 0
-8506 8465 0
8507 -8465 -8465 0
-8507 8465 0
-8507 8465 0
8508 -8465 -8056 0
-8508 8465 0
-8508 8056 0
8509 -8056 -8056 -8448 0
-8509 8056 0
-8509 8056 0
-8509 8448 0
-1698 8078 8506 8507 8508 8509 0
1698 -8078 0
1698 -8506 0
1698 -8507 0
1698 -8508 0
1698 -8509 0
8510 -7452 -7452 0
-8510 7452 0
-8510 7452 0
-4515 7458 8510 0
4515 -7458 0
4515 -8510 0
8511 -7452 -7463 0
-8511 7452 0
-8511 7463 0
-4511 7465 8511 0
4511 -7465 0
4511 -8511 0
8512 -7452 -7469 0
-8512 7452 0
-8512 7469 0
-4529 7472 8512 0
4529 -7472 0
4529 -8512 0
8513 -7474 -7469 0
-8513 7474 0
-8513 7469 0
-2662 7479 8513 0
2662 -7479 0
2662 -8513 0
8514 -7452 -7484 0
-8514 7452 0
-8514 7484 0
-4518 7486 8514 0
4518 -7486 0
4518 -8514 0
8515 -7452 -7490 0
-8515 7452 0
-8515 7490 0
-4523 7493 8515 0
4523 -7493 0
4523 -8515 0
8516 -7474 -7490 0
-8516 7474 0
-8516 7490 0
-2659 7498 8516 0
2659 -7498 0
2659 -8516 0
8517 -7463 -7474 0
-8517 7463 0
-8517 7474 0
-2652 7503 8517 0
2652 -7503 0
2652 -8517 0
8518 -7463 -7463 0
-8518 7463 0
-8518 7463 0
-2654 7508 8518 0
2654 -7508 0
2654 -8518 0
8519 -7463 -7484 0
-8519 7463 0
-8519 7484 0
-2657 7513 8519 0
2657 -7513 0
2657 -8519 0
8520 -7463 -7490 0
-8520 7463 0
-8520 7490 0
-2660 7518 8520 0
2660 -7518 0
2660 -8520 0
8521 -7469 -7490 0
-8521 7469 0
-8521 7490 0
-2663 7523 8521 0
2663 -7523 0
2663 -8521 0
8522 -7484 -7474 0
-8522 7484 0
-8522 7474 0
-2656 7528 8522 0
2656 -7528 0
2656 -8522 0
8523 -7484 -7469 0
-8523 7484 0
-8523 7469 0
-2665 7533 8523 0
2665 -7533 0
2665 -8523 0
8524 -7484 -7484 0
-8524 7484 0
-8524 7484 0
-2668 7538 8524 0
2668 -7538 0
2668 -8524 0
8525 -8526 -8526 0
-8525 8526 0
-8525 8526 0
-6198 8527 8525 0
6198 -8527 0
6198 -8525 0
8528 -8526 -8529 0
-8528 8526 0
-8528 8529 0
-6194 8530 8528 0
6194 -8530 0
6194 -8528 0
8531 -8526 -8532 0
-8531 8526 0
-8531 8532 0
-6212 8533 8531 0
6212 -8533 0
6212 -8531 0
8534 -8535 -8532 0
-8534 8535 0
-8534 8532 0
-3103 8536 8534 0
3103 -8536 0
3103 -8534 0
8537 -8526 -8538 0
-8537 8526 0
-8537 8538 0
-6201 8539 8537 0
6201 -8539 0
6201 -8537 0
8540 -8526 -8541 0
-8540 8526 0
-8540 8541 0
-6206 8542 8540 0
6206 -8542 0
6206 -8540 0
8543 -8535 -8541 0
-8543 8535 0
-8543 8541 0
-3100 8544 8543 0
3100 -8544 0
3100 -8543 0
8545 -8529 -8535 0
-8545 8529 0
-8545 8535 0
-3093 8546 8545 0
3093 -8546 0
3093 -8545 0
8547 -8529 -8529 0
-8547 8529 0
-8547 8529 0
-3095 8548 8547 0
3095 -8548 0
3095 -8547 0
8549 -8529 -8538 0
-8549 8529 0
-8549 8538 0
-3098 8550 8549 0
3098 -8550 0
3098 -8549 0
8551 -8529 -8541 0
-8551 8529 0
-8551 8541 0
-3101 8552 8551 0
3101 -8552 0
3101 -8551 0
8553 -8532 -8541 0
-8553 8532 0
-8553 8541 0
-3104 8554 8553 0
3104 -8554 0
3104 -8553 0
8555 -8538 -8535 0
-8555 8538 0
-8555 8535 0
-3097 8556 8555 0
3097 -8556 0
3097 -8555 0
8557 -8538 -8532 0
-8557 8538 0
-8557 8532 0
-3106 8558 8557 0
3106 -8558 0
3106 -8557 0
8559 -8538 -8538 0
-8559 8538 0
-8559 8538 0
-3109 8560 8559 0
3109 -8560 0
3109 -8559 0
8561 -7432 -7429 0
-8561 7432 0
-8561 7429 0
8562 -7429 -7429 0
-8562 7429 0
-8562 7429 0
8563 -7429 -7432 0
-8563 7429 0
-8563 7432 0
8564 -7432 -7432 -7450 0
-8564 7432 0
-8564 7432 0
-8564 7450 0
-1407 7417 8561 8562 8563 8564 0
1407 -7417 0
1407 -8561 0
1407 -8562 0
1407 -8563 0
1407 -8564 0
8565 -7432 -7440 0
-8565 7432 0
-8565 7440 0
8566 -7429 -7440 0
-8566 7429 0
-8566 7440 0
8567 -7429 -7442 0
-8567 7429 0
-8567 7442 0
8568 -7432 -7442 -7450 0
-8568 7432 0
-8568 7442 0
-8568 7450 0
-1401 7420 8565 8566 8567 8568 0
1401 -7420 0
1401 -8565 0
1401 -8566 0
1401 -8567 0
1401 -8568 0
8569 -7432 -7448 0
-8569 7432 0
-8569 7448 0
8570 -7429 -7444 0
-8570 7429 0
-8570 7444 0
8571 -7429 -7448 0
-8571 7429 0
-8571 7448 0
8572 -7432 -7444 -7450 0
-8572 7432 0
-8572 7444 0
-8572 7450 0
-1400 7423 8569 8570 8571 8572 0
1400 -7423 0
1400 -8569 0
1400 -8570 0
1400 -8571 0
1400 -8572 0
8573 -7434 -7448 0
-8573 7434 0
-8573 7448 0
8574 -7446 -7448 0
-8574 7446 0
-8574 7448 0
8575 -7446 -7444 0
-8575 7446 0
-8575 7444 0
8576 -7434 -7444 -7450 0
-8576 7434 0
-8576 7444 0
-8576 7450 0
-1423 7426 8573 8574 8575 8576 0
1423 -7426 0
1423 -8573 0
1423 -8574 0
1423 -8575 0
1423 -8576 0
8577 -7432 -7975 0
-8577 7432 0
-8577 7975 0
8578 -7429 -7975 0
-8578 7429 0
-8578 7975 0
8579 -7429 -7977 0
-8579 7429 0
-8579 7977 0
8580 -7432 -7977 -7450 0
-8580 7432 0
-8580 7977 0
-8580 7450 0
-1414 7964 8577 8578 8579 8580 0
1414 -7964 0
1414 -8577 0
1414 -8578 0
1414 -8579 0
1414 -8580 0
8581 -7432 -7428 0
-8581 7432 0
-8581 7428 0
8582 -7429 -7431 0
-8582 7429 0
-8582 7431 0
8583 -7429 -7428 0
-8583 7429 0
-8583 7428 0
8584 -7432 -7431 -7450 0
-8584 7432 0
-8584 7431 0
-8584 7450 0
-1421 7416 8581 8582 8583 8584 0
1421 -7416 0
1421 -8581 0
1421 -8582 0
1421 -8583 0
1421 -8584 0
8585 -7434 -7428 0
-8585 7434 0
-8585 7428 0
8586 -7446 -7428 0
-8586 7446 0
-8586 7428 0
8587 -7446 -7431 0
-8587 7446 0
-8587 7431 0
8588 -7434 -7431 -7450 0
-8588 7434 0
-8588 7431 0
-8588 7450 0
-1428 7425 8585 8586 8587 8588 0
1428 -7425 0
1428 -8585 0
1428 -8586 0
1428 -8587 0
1428 -8588 0
8589 -7442 -7446 0
-8589 7442 0
-8589 7446 0
8590 -7440 -7434 0
-8590 7440 0
-8590 7434 0
8591 -7440 -7446 0
-8591 7440 0
-8591 7446 0
8592 -7442 -7434 -7450 0
-8592 7442 0
-8592 7434 0
-8592 7450 0
-1425 7436 8589 8590 8591 8592 0
1425 -7436 0
1425 -8589 0
1425 -8590 0
1425 -8591 0
1425 -8592 0
8593 -7442 -7440 0
-8593 7442 0
-8593 7440 0
8594 -7440 -7440 0
-8594 7440 0
-8594 7440 0
8595 -7440 -7442 0
-8595 7440 0
-8595 7442 0
8596 -7442 -7442 -7450 0
-8596 7442 0
-8596 7442 0
-8596 7450 0
-1405 7438 8593 8594 8595 8596 0
1405 -7438 0
1405 -8593 0
1405 -8594 0
1405 -8595 0
1405 -8596 0
8597 -7442 -7975 0
-8597 7442 0
-8597 7975 0
8598 -7440 -7975 0
-8598 7440 0
-8598 7975 0
8599 -7440 -7977 0
-8599 7440 0
-8599 7977 0
8600 -7442 -7977 -7450 0
-8600 7442 0
-8600 7977 0
-8600 7450 0
-1409 8601 8597 8598 8599 8600 0
1409 -8601 0
1409 -8597 0
1409 -8598 0
1409 -8599 0
1409 -8600 0
8602 -7442 -7428 0
-8602 7442 0
-8602 7428 0
8603 -7440 -7431 0
-8603 7440 0
-8603 7431 0
8604 -7440 -7428 0
-8604 7440 0
-8604 7428 0
8605 -7442 -7431 -7450 0
-8605 7442 0
-8605 7431 0
-8605 7450 0
-1416 7419 8602 8603 8604 8605 0
1416 -7419 0
1416 -8602 0
1416 -8603 0
1416 -8604 0
1416 -8605 0
8606 -7444 -7428 0
-8606 7444 0
-8606 7428 0
8607 -7448 -7428 0
-8607 7448 0
-8607 7428 0
8608 -7448 -7431 0
-8608 7448 0
-8608 7431 0
8609 -7444 -7431 -7450 0
-8609 7444 0
-8609 7431 0
-8609 7450 0
-1418 7422 8606 8607 8608 8609 0
1418 -7422 0
1418 -8606 0
1418 -8607 0
1418 -8608 0
1418 -8609 0
8610 -7977 -7446 0
-8610 7977 0
-8610 7446 0
8611 -7975 -7434 0
-8611 7975 0
-8611 7434 0
8612 -7975 -7446 0
-8612 7975 0
-8612 7446 0
8613 -7977 -7434 -7450 0
-8613 7977 0
-8613 7434 0
-8613 7450 0
-1433 7971 8610 8611 8612 8613 0
1433 -7971 0
1433 -8610 0
1433 -8611 0
1433 -8612 0
1433 -8613 0
8614 -7977 -7448 0
-8614 7977 0
-8614 7448 0
8615 -7975 -7444 0
-8615 7975 0
-8615 7444 0
8616 -7975 -7448 0
-8616 7975 0
-8616 7448 0
8617 -7977 -7444 -7450 0
-8617 7977 0
-8617 7444 0
-8617 7450 0
-1412 7963 8614 8615 8616 8617 0
1412 -7963 0
1412 -8614 0
1412 -8615 0
1412 -8616 0
1412 -8617 0
8618 -7977 -7975 0
-8618 7977 0
-8618 7975 0
8619 -7975 -7975 0
-8619 7975 0
-8619 7975 0
8620 -7975 -7977 0
-8620 7975 0
-8620 7977 0
8621 -7977 -7977 -7450 0
-8621 7977 0
-8621 7977 0
-8621 7450 0
-1439 7973 8618 8619 8620 8621 0
1439 -7973 0
1439 -8618 0
1439 -8619 0
1439 -8620 0
1439 -8621 0
8622 -7724 -8623 0
-8622 7724 0
-8622 8623 0
8624 -8623 -8623 0
-8624 8623 0
-8624 8623 0
8625 -8623 -7724 0
-8625 8623 0
-8625 7724 0
8626 -7724 -7724 -8627 0
-8626 7724 0
-8626 7724 0
-8626 8627 0
-6110 7725 8622 8624 8625 8626 0
6110 -7725 0
6110 -8622 0
6110 -8624 0
6110 -8625 0
6110 -8626 0
8628 -7724 -8629 0
-8628 7724 0
-8628 8629 0
8630 -8623 -8629 0
-8630 8623 0
-8630 8629 0
8631 -8623 -7727 0
-8631 8623 0
-8631 7727 0
8632 -7724 -7727 -8627 0
-8632 7724 0
-8632 7727 0
-8632 8627 0
-6106 7728 8628 8630 8631 8632 0
6106 -7728 0
6106 -8628 0
6106 -8630 0
6106 -8631 0
6106 -8632 0
8633 -7724 -8634 0
-8633 7724 0
-8633 8634 0
8635 -8623 -7730 0
-8635 8623 0
-8635 7730 0
8636 -8623 -8634 0
-8636 8623 0
-8636 8634 0
8637 -7724 -7730 -8627 0
-8637 7724 0
-8637 7730 0
-8637 8627 0
-6124 7731 8633 8635 8636 8637 0
6124 -7731 0
6124 -8633 0
6124 -8635 0
6124 -8636 0
6124 -8637 0
8638 -7733 -8634 0
-8638 7733 0
-8638 8634 0
8639 -8640 -8634 0
-8639 8640 0
-8639 8634 0
8641 -8640 -7730 0
-8641 8640 0
-8641 7730 0
8642 -7733 -7730 -8627 0
-8642 7733 0
-8642 7730 0
-8642 8627 0
-5259 7734 8638 8639 8641 8642 0
5259 -7734 0
5259 -8638 0
5259 -8639 0
5259 -8641 0
5259 -8642 0
8643 -7724 -8644 0
-8643 7724 0
-8643 8644 0
8645 -8623 -8644 0
-8645 8623 0
-8645 8644 0
8646 -8623 -7736 0
-8646 8623 0
-8646 7736 0
8647 -7724 -7736 -8627 0
-8647 7724 0
-8647 7736 0
-8647 8627 0
-6113 7737 8643 8645 8646 8647 0
6113 -7737 0
6113 -8643 0
6113 -8645 0
6113 -8646 0
6113 -8647 0
8648 -7724 -8649 0
-8648 7724 0
-8648 8649 0
8650 -8623 -7739 0
-8650 8623 0
-8650 7739 0
8651 -8623 -8649 0
-8651 8623 0
-8651 8649 0
8652 -7724 -7739 -8627 0
-8652 7724 0
-8652 7739 0
-8652 8627 0
-6118 7740 8648 8650 8651 8652 0
6118 -7740 0
6118 -8648 0
6118 -8650 0
6118 -8651 0
6118 -8652 0
8653 -7733 -8649 0
-8653 7733 0
-8653 8649 0
8654 -8640 -8649 0
-8654 8640 0
-8654 8649 0
8655 -8640 -7739 0
-8655 8640 0
-8655 7739 0
8656 -7733 -7739 -8627 0
-8656 7733 0
-8656 7739 0
-8656 8627 0
-5256 7742 8653 8654 8655 8656 0
5256 -7742 0
5256 -8653 0
5256 -8654 0
5256 -8655 0
5256 -8656 0
8657 -7727 -8640 0
-8657 7727 0
-8657 8640 0
8658 -8629 -7733 0
-8658 8629 0
-8658 7733 0
8659 -8629 -8640 0
-8659 8629 0
-8659 8640 0
8660 -7727 -7733 -8627 0
-8660 7727 0
-8660 7733 0
-8660 8627 0
-5249 7744 8657 8658 8659 8660 0
5249 -7744 0
5249 -8657 0
5249 -8658 0
5249 -8659 0
5249 -8660 0
8661 -7727 -8629 0
-8661 7727 0
-8661 8629 0
8662 -8629 -8629 0
-8662 8629 0
-8662 8629 0
8663 -8629 -7727 0
-8663 8629 0
-8663 7727 0
8664 -7727 -7727 -8627 0
-8664 7727 0
-8664 7727 0
-8664 8627 0
-5251 7746 8661 8662 8663 8664 0
5251 -7746 0
5251 -8661 0
5251 -8662 0
5251 -8663 0
5251 -8664 0
8665 -7727 -8644 0
-8665 7727 0
-8665 8644 0
8666 -8629 -8644 0
-8666 8629 0
-8666 8644 0
8667 -8629 -7736 0
-8667 8629 0
-8667 7736 0
8668 -7727 -7736 -8627 0
-8668 7727 0
-8668 7736 0
-8668 8627 0
-5254 7748 8665 8666 8667 8668 0
5254 -7748 0
5254 -8665 0
5254 -8666 0
5254 -8667 0
5254 -8668 0
8669 -7727 -8649 0
-8669 7727 0
-8669 8649 0
8670 -8629 -7739 0
-8670 8629 0
-8670 7739 0
8671 -8629 -8649 0
-8671 8629 0
-8671 8649 0
8672 -7727 -7739 -8627 0
-8672 7727 0
-8672 7739 0
-8672 8627 0
-5257 7750 8669 8670 8671 8672 0
5257 -7750 0
5257 -8669 0
5257 -8670 0
5257 -8671 0
5257 -8672 0
8673 -7730 -8649 0
-8673 7730 0
-8673 8649 0
8674 -8634 -8649 0
-8674 8634 0
-8674 8649 0
8675 -8634 -7739 0
-8675 8634 0
-8675 7739 0
8676 -7730 -7739 -8627 0
-8676 7730 0
-8676 7739 0
-8676 8627 0
-5260 7752 8673 8674 8675 8676 0
5260 -7752 0
5260 -8673 0
5260 -8674 0
5260 -8675 0
5260 -8676 0
8677 -7736 -8640 0
-8677 7736 0
-8677 8640 0
8678 -8644 -7733 0
-8678 8644 0
-8678 7733 0
8679 -8644 -8640 0
-8679 8644 0
-8679 8640 0
8680 -7736 -7733 -8627 0
-8680 7736 0
-8680 7733 0
-8680 8627 0
-5253 7754 8677 8678 8679 8680 0
5253 -7754 0
5253 -8677 0
5253 -8678 0
5253 -8679 0
5253 -8680 0
8681 -7736 -8634 0
-8681 7736 0
-8681 8634 0
8682 -8644 -7730 0
-8682 8644 0
-8682 7730 0
8683 -8644 -8634 0
-8683 8644 0
-8683 8634 0
8684 -7736 -7730 -8627 0
-8684 7736 0
-8684 7730 0
-8684 8627 0
-5262 7756 8681 8682 8683 8684 0
5262 -7756 0
5262 -8681 0
5262 -8682 0
5262 -8683 0
5262 -8684 0
8685 -7736 -8644 0
-8685 7736 0
-8685 8644 0
8686 -8644 -8644 0
-8686 8644 0
-8686 8644 0
8687 -8644 -7736 0
-8687 8644 0
-8687 7736 0
8688 -7736 -7736 -8627 0
-8688 7736 0
-8688 7736 0
-8688 8627 0
-5265 7758 8685 8686 8687 8688 0
5265 -7758 0
5265 -8685 0
5265 -8686 0
5265 -8687 0
5265 -8688 0
8689 -6579 -8690 0
-8689 6579 0
-8689 8690 0
8691 -8690 -8690 0
-8691 8690 0
-8691 8690 0
8692 -8690 -6579 0
-8692 8690 0
-8692 6579 0
8693 -6579 -6579 -8694 0
-8693 6579 0
-8693 6579 0
-8693 8694 0
-4311 6580 8689 8691 8692 8693 0
4311 -6580 0
4311 -8689 0
4311 -8691 0
4311 -8692 0
4311 -8693 0
8695 -6579 -8696 0
-8695 6579 0
-8695 8696 0
8697 -8690 -8696 0
-8697 8690 0
-8697 8696 0
8698 -8690 -6582 0
-8698 8690 0
-8698 6582 0
8699 -6579 -6582 -8694 0
-8699 6579 0
-8699 6582 0
-8699 8694 0
-4307 6583 8695 8697 8698 8699 0
4307 -6583 0
4307 -8695 0
4307 -8697 0
4307 -8698 0
4307 -8699 0
8700 -6579 -8701 0
-8700 6579 0
-8700 8701 0
8702 -8690 -6585 0
-8702 8690 0
-8702 6585 0
8703 -8690 -8701 0
-8703 8690 0
-8703 8701 0
8704 -6579 -6585 -8694 0
-8704 6579 0
-8704 6585 0
-8704 8694 0
-4325 6586 8700 8702 8703 8704 0
4325 -6586 0
4325 -8700 0
4325 -8702 0
4325 -8703 0
4325 -8704 0
8705 -6588 -8701 0
-8705 6588 0
-8705 8701 0
8706 -8707 -8701 0
-8706 8707 0
-8706 8701 0
8708 -8707 -6585 0
-8708 8707 0
-8708 6585 0
8709 -6588 -6585 -8694 0
-8709 6588 0
-8709 6585 0
-8709 8694 0
-3669 6589 8705 8706 8708 8709 0
3669 -6589 0
3669 -8705 0
3669 -8706 0
3669 -8708 0
3669 -8709 0
8710 -6579 -8711 0
-8710 6579 0
-8710 8711 0
8712 -8690 -8711 0
-8712 8690 0
-8712 8711 0
8713 -8690 -6591 0
-8713 8690 0
-8713 6591 0
8714 -6579 -6591 -8694 0
-8714 6579 0
-8714 6591 0
-8714 8694 0
-4314 6592 8710 8712 8713 8714 0
4314 -6592 0
4314 -8710 0
4314 -8712 0
4314 -8713 0
4314 -8714 0
8715 -6579 -8716 0
-8715 6579 0
-8715 8716 0
8717 -8690 -6594 0
-8717 8690 0
-8717 6594 0
8718 -8690 -8716 0
-8718 8690 0
-8718 8716 0
8719 -6579 -6594 -8694 0
-8719 6579 0
-8719 6594 0
-8719 8694 0
-4319 6595 8715 8717 8718 8719 0
4319 -6595 0
4319 -8715 0
4319 -8717 0
4319 -8718 0
4319 -8719 0
8720 -6588 -8716 0
-8720 6588 0
-8720 8716 0
8721 -8707 -8716 0
-8721 8707 0
-8721 8716 0
8722 -8707 -6594 0
-8722 8707 0
-8722 6594 0
8723 -6588 -6594 -8694 0
-8723 6588 0
-8723 6594 0
-8723 8694 0
-3666 6597 8720 8721 8722 8723 0
3666 -6597 0
3666 -8720 0
3666 -8721 0
3666 -8722 0
3666 -8723 0
8724 -6582 -8707 0
-8724 6582 0
-8724 8707 0
8725 -8696 -6588 0
-8725 8696 0
-8725 6588 0
8726 -8696 -8707 0
-8726 8696 0
-8726 8707 0
8727 -6582 -6588 -8694 0
-8727 6582 0
-8727 6588 0
-8727 8694 0
-3659 6599 8724 8725 8726 8727 0
3659 -6599 0
3659 -8724 0
3659 -8725 0
3659 -8726 0
3659 -8727 0
8728 -6582 -8696 0
-8728 6582 0
-8728 8696 0
8729 -8696 -8696 0
-8729 8696 0
-8729 8696 0
8730 -8696 -6582 0
-8730 8696 0
-8730 6582 0
8731 -6582 -6582 -8694 0
-8731 6582 0
-8731 6582 0
-8731 8694 0
-3661 6601 8728 8729 8730 8731 0
3661 -6601 0
3661 -8728 0
3661 -8729 0
3661 -8730 0
3661 -8731 0
8732 -6582 -8711 0
-8732 6582 0
-8732 8711 0
8733 -8696 -8711 0
-8733 8696 0
-8733 8711 0
8734 -8696 -6591 0
-8734 8696 0
-8734 6591 0
8735 -6582 -6591 -8694 0
-8735 6582 0
-8735 6591 0
-8735 8694 0
-3664 6603 8732 8733 8734 8735 0
3664 -6603 0
3664 -8732 0
3664 -8733 0
3664 -8734 0
3664 -8735 0
8736 -6582 -8716 0
-8736 6582 0
-8736 8716 0
8737 -8696 -6594 0
-8737 8696 0
-8737 6594 0
8738 -8696 -8716 0
-8738 8696 0
-8738 8716 0
8739 -6582 -6594 -8694 0
-8739 6582 0
-8739 6594 0
-8739 8694 0
-3667 6605 8736 8737 8738 8739 0
3667 -6605 0
3667 -8736 0
3667 -8737 0
3667 -8738 0
3667 -8739 0
8740 -6585 -8716 0
-8740 6585 0
-8740 8716 0
8741 -8701 -8716 0
-8741 8701 0
-8741 8716 0
8742 -8701 -6594 0
-8742 8701 0
-8742 6594 0
8743 -6585 -6594 -8694 0
-8743 6585 0
-8743 6594 0
-8743 8694 0
-3670 6607 8740 8741 8742 8743 0
3670 -6607 0
3670 -8740 0
3670 -8741 0
3670 -8742 0
3670 -8743 0
8744 -6591 -8707 0
-8744 6591 0
-8744 8707 0
8745 -8711 -6588 0
-8745 8711 0
-8745 6588 0
8746 -8711 -8707 0
-8746 8711 0
-8746 8707 0
8747 -6591 -6588 -8694 0
-8747 6591 0
-8747 6588 0
-8747 8694 0
-3663 6609 8744 8745 8746 8747 0
3663 -6609 0
3663 -8744 0
3663 -8745 0
3663 -8746 0
3663 -8747 0
8748 -6591 -8701 0
-8748 6591 0
-8748 8701 0
8749 -8711 -6585 0
-8749 8711 0
-8749 6585 0
8750 -8711 -8701 0
-8750 8711 0
-8750 8701 0
8751 -6591 -6585 -8694 0
-8751 6591 0
-8751 6585 0
-8751 8694 0
-3672 6611 8748 8749 8750 8751 0
3672 -6611 0
3672 -8748 0
3672 -8749 0
3672 -8750 0
3672 -8751 0
8752 -6591 -8711 0
-8752 6591 0
-8752 8711 0
8753 -8711 -8711 0
-8753 8711 0
-8753 8711 0
8754 -8711 -6591 0
-8754 8711 0
-8754 6591 0
8755 -6591 -6591 -8694 0
-8755 6591 0
-8755 6591 0
-8755 8694 0
-3675 6613 8752 8753 8754 8755 0
3675 -6613 0
3675 -8752 0
3675 -8753 0
3675 -8754 0
3675 -8755 0
8756 -8051 -8051 0
-8756 8051 0
-8756 8051 0
-4901 8045 8756 0
4901 -8045 0
4901 -8756 0
8757 -8051 -8455 0
-8757 8051 0
-8757 8455 0
-4897 8444 8757 0
4897 -8444 0
4897 -8757 0
8758 -8051 -8050 0
-8758 8051 0
-8758 8050 0
-4915 8044 8758 0
4915 -8044 0
4915 -8758 0
8759 -8054 -8050 0
-8759 8054 0
-8759 8050 0
-1972 8053 8759 0
1972 -8053 0
1972 -8759 0
8760 -8051 -8076 0
-8760 8051 0
-8760 8076 0
-4904 8057 8760 0
4904 -8057 0
4904 -8760 0
8761 -8051 -8072 0
-8761 8051 0
-8761 8072 0
-4909 8060 8761 0
4909 -8060 0
4909 -8761 0
8762 -8054 -8072 0
-8762 8054 0
-8762 8072 0
-1969 8062 8762 0
1969 -8062 0
1969 -8762 0
8763 -8455 -8054 0
-8763 8455 0
-8763 8054 0
-1962 8461 8763 0
1962 -8461 0
1962 -8763 0
8764 -8455 -8455 0
-8764 8455 0
-8764 8455 0
-1964 8448 8764 0
1964 -8448 0
1964 -8764 0
8765 -8455 -8076 0
-8765 8455 0
-8765 8076 0
-1967 8465 8765 0
1967 -8465 0
1967 -8765 0
8766 -8455 -8072 0
-8766 8455 0
-8766 8072 0
-1970 8470 8766 0
1970 -8470 0
1970 -8766 0
8767 -8050 -8072 0
-8767 8050 0
-8767 8072 0
-1973 8059 8767 0
1973 -8059 0
1973 -8767 0
8768 -8076 -8054 0
-8768 8076 0
-8768 8054 0
-1966 8074 8768 0
1966 -8074 0
1966 -8768 0
8769 -8076 -8050 0
-8769 8076 0
-8769 8050 0
-1975 8056 8769 0
1975 -8056 0
1975 -8769 0
8770 -8076 -8076 0
-8770 8076 0
-8770 8076 0
-1978 8078 8770 0
1978 -8078 0
1978 -8770 0
8771 -7855 -7852 0
-8771 7855 0
-8771 7852 0
8772 -7852 -7852 0
-8772 7852 0
-8772 7852 0
8773 -7852 -7855 0
-8773 7852 0
-8773 7855 0
8774 -7855 -7855 -7870 0
-8774 7855 0
-8774 7855 0
-8774 7870 0
-2526 7849 8771 8772 8773 8774 0
2526 -7849 0
2526 -8771 0
2526 -8772 0
2526 -8773 0
2526 -8774 0
8775 -7855 -7872 0
-8775 7855 0
-8775 7872 0
8776 -7852 -7872 0
-8776 7852 0
-8776 7872 0
8777 -7852 -7880 0
-8777 7852 0
-8777 7880 0
8778 -7855 -7880 -7870 0
-8778 7855 0
-8778 7880 0
-8778 7870 0
-2522 7861 8775 8776 8777 8778 0
2522 -7861 0
2522 -8775 0
2522 -8776 0
2522 -8777 0
2522 -8778 0
8779 -7855 -7874 0
-8779 7855 0
-8779 7874 0
8780 -7852 -7876 0
-8780 7852 0
-8780 7876 0
8781 -7852 -7874 0
-8781 7852 0
-8781 7874 0
8782 -7855 -7876 -7870 0
-8782 7855 0
-8782 7876 0
-8782 7870 0
-2546 7864 8779 8780 8781 8782 0
2546 -7864 0
2546 -8779 0
2546 -8780 0
2546 -8781 0
2546 -8782 0
8783 -7858 -7874 0
-8783 7858 0
-8783 7874 0
8784 -7868 -7874 0
-8784 7868 0
-8784 7874 0
8785 -7868 -7876 0
-8785 7868 0
-8785 7876 0
8786 -7858 -7876 -7870 0
-8786 7858 0
-8786 7876 0
-8786 7870 0
-2544 7866 8783 8784 8785 8786 0
2544 -7866 0
2544 -8783 0
2544 -8784 0
2544 -8785 0
2544 -8786 0
8787 -7855 -7987 0
-8787 7855 0
-8787 7987 0
8788 -7852 -7987 0
-8788 7852 0
-8788 7987 0
8789 -7852 -7888 0
-8789 7852 0
-8789 7888 0
8790 -7855 -7888 -7870 0
-8790 7855 0
-8790 7888 0
-8790 7870 0
-2530 7889 8787 8788 8789 8790 0
2530 -7889 0
2530 -8787 0
2530 -8788 0
2530 -8789 0
2530 -8790 0
8791 -7855 -7851 0
-8791 7855 0
-8791 7851 0
8792 -7852 -7854 0
-8792 7852 0
-8792 7854 0
8793 -7852 -7851 0
-8793 7852 0
-8793 7851 0
8794 -7855 -7854 -7870 0
-8794 7855 0
-8794 7854 0
-8794 7870 0
-2537 7848 8791 8792 8793 8794 0
2537 -7848 0
2537 -8791 0
2537 -8792 0
2537 -8793 0
2537 -8794 0
8795 -7858 -7851 0
-8795 7858 0
-8795 7851 0
8796 -7868 -7851 0
-8796 7868 0
-8796 7851 0
8797 -7868 -7854 0
-8797 7868 0
-8797 7854 0
8798 -7858 -7854 -7870 0
-8798 7858 0
-8798 7854 0
-8798 7870 0
-2539 7857 8795 8796 8797 8798 0
2539 -7857 0
2539 -8795 0
2539 -8796 0
2539 -8797 0
2539 -8798 0
8799 -7880 -7868 0
-8799 7880 0
-8799 7868 0
8800 -7872 -7858 0
-8800 7872 0
-8800 7858 0
8801 -7872 -7868 0
-8801 7872 0
-8801 7868 0
8802 -7880 -7858 -7870 0
-8802 7880 0
-8802 7858 0
-8802 7870 0
-2521 7878 8799 8800 8801 8802 0
2521 -7878 0
2521 -8799 0
2521 -8800 0
2521 -8801 0
2521 -8802 0
8803 -7880 -7872 0
-8803 7880 0
-8803 7872 0
8804 -7872 -7872 0
-8804 7872 0
-8804 7872 0
8805 -7872 -7880 0
-8805 7872 0
-8805 7880 0
8806 -7880 -7880 -7870 0
-8806 7880 0
-8806 7880 0
-8806 7870 0
-2528 7882 8803 8804 8805 8806 0
2528 -7882 0
2528 -8803 0
2528 -8804 0
2528 -8805 0
2528 -8806 0
8807 -7880 -7987 0
-8807 7880 0
-8807 7987 0
8808 -7872 -7987 0
-8808 7872 0
-8808 7987 0
8809 -7872 -7888 0
-8809 7872 0
-8809 7888 0
8810 -7880 -7888 -7870 0
-8810 7880 0
-8810 7888 0
-8810 7870 0
-2535 7895 8807 8808 8809 8810 0
2535 -7895 0
2535 -8807 0
2535 -8808 0
2535 -8809 0
2535 -8810 0
8811 -7880 -7851 0
-8811 7880 0
-8811 7851 0
8812 -7872 -7854 0
-8812 7872 0
-8812 7854 0
8813 -7872 -7851 0
-8813 7872 0
-8813 7851 0
8814 -7880 -7854 -7870 0
-8814 7880 0
-8814 7854 0
-8814 7870 0
-2542 7860 8811 8812 8813 8814 0
2542 -7860 0
2542 -8811 0
2542 -8812 0
2542 -8813 0
2542 -8814 0
8815 -7876 -7851 0
-8815 7876 0
-8815 7851 0
8816 -7874 -7851 0
-8816 7874 0
-8816 7851 0
8817 -7874 -7854 0
-8817 7874 0
-8817 7854 0
8818 -7876 -7854 -7870 0
-8818 7876 0
-8818 7854 0
-8818 7870 0
-2549 7863 8815 8816 8817 8818 0
2549 -7863 0
2549 -8815 0
2549 -8816 0
2549 -8817 0
2549 -8818 0
8819 -7888 -7868 0
-8819 7888 0
-8819 7868 0
8820 -7987 -7858 0
-8820 7987 0
-8820 7858 0
8821 -7987 -7868 0
-8821 7987 0
-8821 7868 0
8822 -7888 -7858 -7870 0
-8822 7888 0
-8822 7858 0
-8822 7870 0
-2533 7899 8819 8820 8821 8822 0
2533 -7899 0
2533 -8819 0
2533 -8820 0
2533 -8821 0
2533 -8822 0
8823 -7888 -7874 0
-8823 7888 0
-8823 7874 0
8824 -7987 -7876 0
-8824 7987 0
-8824 7876 0
8825 -7987 -7874 0
-8825 7987 0
-8825 7874 0
8826 -7888 -7876 -7870 0
-8826 7888 0
-8826 7876 0
-8826 7870 0
-2554 7901 8823 8824 8825 8826 0
2554 -7901 0
2554 -8823 0
2554 -8824 0
2554 -8825 0
2554 -8826 0
8827 -7888 -7987 0
-8827 7888 0
-8827 7987 0
8016 -7987 -7987 0
-8016 7987 0
-8016 7987 0
8828 -7987 -7888 0
-8828 7987 0
-8828 7888 0
8829 -7888 -7888 -7870 0
-8829 7888 0
-8829 7888 0
-8829 7870 0
-2560 7903 8827 8016 8828 8829 0
2560 -7903 0
2560 -8827 0
2560 -8016 0
2560 -8828 0
2560 -8829 0
8830 -7423 -7420 0
-8830 7423 0
-8830 7420 0
8831 -7420 -7420 0
-8831 7420 0
-8831 7420 0
8832 -7420 -7423 0
-8832 7420 0
-8832 7423 0
8833 -7423 -7423 -7438 0
-8833 7423 0
-8833 7423 0
-8833 7438 0
-6428 7417 8830 8831 8832 8833 0
6428 -7417 0
6428 -8830 0
6428 -8831 0
6428 -8832 0
6428 -8833 0
8834 -7423 -8601 0
-8834 7423 0
-8834 8601 0
8835 -7420 -8601 0
-8835 7420 0
-8835 8601 0
8836 -7420 -7963 0
-8836 7420 0
-8836 7963 0
8837 -7423 -7963 -7438 0
-8837 7423 0
-8837 7963 0
-8837 7438 0
-6424 7964 8834 8835 8836 8837 0
6424 -7964 0
6424 -8834 0
6424 -8835 0
6424 -8836 0
6424 -8837 0
8838 -7423 -7419 0
-8838 7423 0
-8838 7419 0
8839 -7420 -7422 0
-8839 7420 0
-8839 7422 0
8840 -7420 -7419 0
-8840 7420 0
-8840 7419 0
8841 -7423 -7422 -7438 0
-8841 7423 0
-8841 7422 0
-8841 7438 0
-6442 7416 8838 8839 8840 8841 0
6442 -7416 0
6442 -8838 0
6442 -8839 0
6442 -8840 0
6442 -8841 0
8842 -7426 -7419 0
-8842 7426 0
-8842 7419 0
8843 -7436 -7419 0
-8843 7436 0
-8843 7419 0
8844 -7436 -7422 0
-8844 7436 0
-8844 7422 0
8845 -7426 -7422 -7438 0
-8845 7426 0
-8845 7422 0
-8845 7438 0
-3990 7425 8842 8843 8844 8845 0
3990 -7425 0
3990 -8842 0
3990 -8843 0
3990 -8844 0
3990 -8845 0
8846 -7423 -7440 0
-8846 7423 0
-8846 7440 0
8847 -7420 -7440 0
-8847 7420 0
-8847 7440 0
8848 -7420 -7448 0
-8848 7420 0
-8848 7448 0
8849 -7423 -7448 -7438 0
-8849 7423 0
-8849 7448 0
-8849 7438 0
-6431 7429 8846 8847 8848 8849 0
6431 -7429 0
6431 -8846 0
6431 -8847 0
6431 -8848 0
6431 -8849 0
8850 -7423 -7442 0
-8850 7423 0
-8850 7442 0
8851 -7420 -7444 0
-8851 7420 0
-8851 7444 0
8852 -7420 -7442 0
-8852 7420 0
-8852 7442 0
8853 -7423 -7444 -7438 0
-8853 7423 0
-8853 7444 0
-8853 7438 0
-6436 7432 8850 8851 8852 8853 0
6436 -7432 0
6436 -8850 0
6436 -8851 0
6436 -8852 0
6436 -8853 0
8854 -7426 -7442 0
-8854 7426 0
-8854 7442 0
8855 -7436 -7442 0
-8855 7436 0
-8855 7442 0
8856 -7436 -7444 0
-8856 7436 0
-8856 7444 0
8857 -7426 -7444 -7438 0
-8857 7426 0
-8857 7444 0
-8857 7438 0
-3987 7434 8854 8855 8856 8857 0
3987 -7434 0
3987 -8854 0
3987 -8855 0
3987 -8856 0
3987 -8857 0
8858 -7963 -7436 0
-8858 7963 0
-8858 7436 0
8859 -8601 -7426 0
-8859 8601 0
-8859 7426 0
8860 -8601 -7436 0
-8860 8601 0
-8860 7436 0
8861 -7963 -7426 -7438 0
-8861 7963 0
-8861 7426 0
-8861 7438 0
-3980 7971 8858 8859 8860 8861 0
3980 -7971 0
3980 -8858 0
3980 -8859 0
3980 -8860 0
3980 -8861 0
8862 -7963 -8601 0
-8862 7963 0
-8862 8601 0
8863 -8601 -8601 0
-8863 8601 0
-8863 8601 0
8864 -8601 -7963 0
-8864 8601 0
-8864 7963 0
8865 -7963 -7963 -7438 0
-8865 7963 0
-8865 7963 0
-8865 7438 0
-3982 7973 8862 8863 8864 8865 0
3982 -7973 0
3982 -8862 0
3982 -8863 0
3982 -8864 0
3982 -8865 0
8866 -7963 -7440 0
-8866 7963 0
-8866 7440 0
8867 -8601 -7440 0
-8867 8601 0
-8867 7440 0
8868 -8601 -7448 0
-8868 8601 0
-8868 7448 0
8869 -7963 -7448 -7438 0
-8869 7963 0
-8869 7448 0
-8869 7438 0
-3985 7975 8866 8867 8868 8869 0
3985 -7975 0
3985 -8866 0
3985 -8867 0
3985 -8868 0
3985 -8869 0
8870 -7963 -7442 0
-8870 7963 0
-8870 7442 0
8871 -8601 -7444 0
-8871 8601 0
-8871 7444 0
8872 -8601 -7442 0
-8872 8601 0
-8872 7442 0
8873 -7963 -7444 -7438 0
-8873 7963 0
-8873 7444 0
-8873 7438 0
-3988 7977 8870 8871 8872 8873 0
3988 -7977 0
3988 -8870 0
3988 -8871 0
3988 -8872 0
3988 -8873 0
8874 -7422 -7442 0
-8874 7422 0
-8874 7442 0
8875 -7419 -7442 0
-8875 7419 0
-8875 7442 0
8876 -7419 -7444 0
-8876 7419 0
-8876 7444 0
8877 -7422 -7444 -7438 0
-8877 7422 0
-8877 7444 0
-8877 7438 0
-3991 7431 8874 8875 8876 8877 0
3991 -7431 0
3991 -8874 0
3991 -8875 0
3991 -8876 0
3991 -8877 0
8878 -7448 -7436 0
-8878 7448 0
-8878 7436 0
8879 -7440 -7426 0
-8879 7440 0
-8879 7426 0
8880 -7440 -7436 0
-8880 7440 0
-8880 7436 0
8881 -7448 -7426 -7438 0
-8881 7448 0
-8881 7426 0
-8881 7438 0
-3984 7446 8878 8879 8880 8881 0
3984 -7446 0
3984 -8878 0
3984 -8879 0
3984 -8880 0
3984 -8881 0
8882 -7448 -7419 0
-8882 7448 0
-8882 7419 0
8883 -7440 -7422 0
-8883 7440 0
-8883 7422 0
8884 -7440 -7419 0
-8884 7440 0
-8884 7419 0
8885 -7448 -7422 -7438 0
-8885 7448 0
-8885 7422 0
-8885 7438 0
-3993 7428 8882 8883 8884 8885 0
3993 -7428 0
3993 -8882 0
3993 -8883 0
3993 -8884 0
3993 -8885 0
8886 -7448 -7440 0
-8886 7448 0
-8886 7440 0
8594 -7440 -7440 0
-8594 7440 0
-8594 7440 0
8887 -7440 -7448 0
-8887 7440 0
-8887 7448 0
8888 -7448 -7448 -7438 0
-8888 7448 0
-8888 7448 0
-8888 7438 0
-3996 7450 8886 8594 8887 8888 0
3996 -7450 0
3996 -8886 0
3996 -8594 0
3996 -8887 0
3996 -8888 0
8889 -7380 -8890 0
-8889 7380 0
-8889 8890 0
8891 -8890 -8890 0
-8891 8890 0
-8891 8890 0
8892 -8890 -7380 0
-8892 8890 0
-8892 7380 0
8893 -7380 -7380 -8894 0
-8893 7380 0
-8893 7380 0
-8893 8894 0
-4932 7381 8889 8891 8892 8893 0
4932 -7381 0
4932 -8889 0
4932 -8891 0
4932 -8892 0
4932 -8893 0
8895 -7380 -8896 0
-8895 7380 0
-8895 8896 0
8897 -8890 -8896 0
-8897 8890 0
-8897 8896 0
8898 -8890 -7383 0
-8898 8890 0
-8898 7383 0
8899 -7380 -7383 -8894 0
-8899 7380 0
-8899 7383 0
-8899 8894 0
-4928 7384 8895 8897 8898 8899 0
4928 -7384 0
4928 -8895 0
4928 -8897 0
4928 -8898 0
4928 -8899 0
8900 -7380 -8901 0
-8900 7380 0
-8900 8901 0
8902 -8890 -7386 0
-8902 8890 0
-8902 7386 0
8903 -8890 -8901 0
-8903 8890 0
-8903 8901 0
8904 -7380 -7386 -8894 0
-8904 7380 0
-8904 7386 0
-8904 8894 0
-4946 7387 8900 8902 8903 8904 0
4946 -7387 0
4946 -8900 0
4946 -8902 0
4946 -8903 0
4946 -8904 0
8905 -7389 -8901 0
-8905 7389 0
-8905 8901 0
8906 -8907 -8901 0
-8906 8907 0
-8906 8901 0
8908 -8907 -7386 0
-8908 8907 0
-8908 7386 0
8909 -7389 -7386 -8894 0
-8909 7389 0
-8909 7386 0
-8909 8894 0
-2347 7390 8905 8906 8908 8909 0
2347 -7390 0
2347 -8905 0
2347 -8906 0
2347 -8908 0
2347 -8909 0
8910 -7380 -8911 0
-8910 7380 0
-8910 8911 0
8912 -8890 -8911 0
-8912 8890 0
-8912 8911 0
8913 -8890 -7392 0
-8913 8890 0
-8913 7392 0
8914 -7380 -7392 -8894 0
-8914 7380 0
-8914 7392 0
-8914 8894 0
-4935 7393 8910 8912 8913 8914 0
4935 -7393 0
4935 -8910 0
4935 -8912 0
4935 -8913 0
4935 -8914 0
8915 -7380 -8916 0
-8915 7380 0
-8915 8916 0
8917 -8890 -7395 0
-8917 8890 0
-8917 7395 0
8918 -8890 -8916 0
-8918 8890 0
-8918 8916 0
8919 -7380 -7395 -8894 0
-8919 7380 0
-8919 7395 0
-8919 8894 0
-4940 7396 8915 8917 8918 8919 0
4940 -7396 0
4940 -8915 0
4940 -8917 0
4940 -8918 0
4940 -8919 0
8920 -7389 -8916 0
-8920 7389 0
-8920 8916 0
8921 -8907 -8916 0
-8921 8907 0
-8921 8916 0
8922 -8907 -7395 0
-8922 8907 0
-8922 7395 0
8923 -7389 -7395 -8894 0
-8923 7389 0
-8923 7395 0
-8923 8894 0
-2344 7398 8920 8921 8922 8923 0
2344 -7398 0
2344 -8920 0
2344 -8921 0
2344 -8922 0
2344 -8923 0
8924 -7383 -8907 0
-8924 7383 0
-8924 8907 0
8925 -8896 -7389 0
-8925 8896 0
-8925 7389 0
8926 -8896 -8907 0
-8926 8896 0
-8926 8907 0
8927 -7383 -7389 -8894 0
-8927 7383 0
-8927 7389 0
-8927 8894 0
-2337 7400 8924 8925 8926 8927 0
2337 -7400 0
2337 -8924 0
2337 -8925 0
2337 -8926 0
2337 -8927 0
8928 -7383 -8896 0
-8928 7383 0
-8928 8896 0
8929 -8896 -8896 0
-8929 8896 0
-8929 8896 0
8930 -8896 -7383 0
-8930 8896 0
-8930 7383 0
8931 -7383 -7383 -8894 0
-8931 7383 0
-8931 7383 0
-8931 8894 0
-2339 7402 8928 8929 8930 8931 0
2339 -7402 0
2339 -8928 0
2339 -8929 0
2339 -8930 0
2339 -8931 0
8932 -7383 -8911 0
-8932 7383 0
-8932 8911 0
8933 -8896 -8911 0
-8933 8896 0
-8933 8911 0
8934 -8896 -7392 0
-8934 8896 0
-8934 7392 0
8935 -7383 -7392 -8894 0
-8935 7383 0
-8935 7392 0
-8935 8894 0
-2342 7404 8932 8933 8934 8935 0
2342 -7404 0
2342 -8932 0
2342 -8933 0
2342 -8934 0
2342 -8935 0
8936 -7383 -8916 0
-8936 7383 0
-8936 8916 0
8937 -8896 -7395 0
-8937 8896 0
-8937 7395 0
8938 -8896 -8916 0
-8938 8896 0
-8938 8916 0
8939 -7383 -7395 -8894 0
-8939 7383 0
-8939 7395 0
-8939 8894 0
-2345 7406 8936 8937 8938 8939 0
2345 -7406 0
2345 -8936 0
2345 -8937 0
2345 -8938 0
2345 -8939 0
8940 -7386 -8916 0
-8940 7386 0
-8940 8916 0
8941 -8901 -8916 0
-8941 8901 0
-8941 8916 0
8942 -8901 -7395 0
-8942 8901 0
-8942 7395 0
8943 -7386 -7395 -8894 0
-8943 7386 0
-8943 7395 0
-8943 8894 0
-2348 7408 8940 8941 8942 8943 0
2348 -7408 0
2348 -8940 0
2348 -8941 0
2348 -8942 0
2348 -8943 0
8944 -7392 -8907 0
-8944 7392 0
-8944 8907 0
8945 -8911 -7389 0
-8945 8911 0
-8945 7389 0
8946 -8911 -8907 0
-8946 8911 0
-8946 8907 0
8947 -7392 -7389 -8894 0
-8947 7392 0
-8947 7389 0
-8947 8894 0
-2341 7410 8944 8945 8946 8947 0
2341 -7410 0
2341 -8944 0
2341 -8945 0
2341 -8946 0
2341 -8947 0
8948 -7392 -8901 0
-8948 7392 0
-8948 8901 0
8949 -8911 -7386 0
-8949 8911 0
-8949 7386 0
8950 -8911 -8901 0
-8950 8911 0
-8950 8901 0
8951 -7392 -7386 -8894 0
-8951 7392 0
-8951 7386 0
-8951 8894 0
-2350 7412 8948 8949 8950 8951 0
2350 -7412 0
2350 -8948 0
2350 -8949 0
2350 -8950 0
2350 -8951 0
8952 -7392 -8911 0
-8952 7392 0
-8952 8911 0
8953 -8911 -8911 0
-8953 8911 0
-8953 8911 0
8954 -8911 -7392 0
-8954 8911 0
-8954 7392 0
8955 -7392 -7392 -8894 0
-8955 7392 0
-8955 7392 0
-8955 8894 0
-2353 7414 8952 8953 8954 8955 0
2353 -7414 0
2353 -8952 0
2353 -8953 0
2353 -8954 0
2353 -8955 0
8956 -7133 -7126 0
-8956 7133 0
-8956 7126 0
8957 -7126 -7126 0
-8957 7126 0
-8957 7126 0
8958 -7126 -7133 0
-8958 7126 0
-8958 7133 0
8959 -7133 -7133 -7169 0
-8959 7133 0
-8959 7133 0
-8959 7169 0
-6342 7119 8956 8957 8958 8959 0
6342 -7119 0
6342 -8956 0
6342 -8957 0
6342 -8958 0
6342 -8959 0
8960 -7133 -7121 0
-8960 7133 0
-8960 7121 0
8961 -7126 -7121 0
-8961 7126 0
-8961 7121 0
8962 -7126 -7128 0
-8962 7126 0
-8962 7128 0
8963 -7133 -7128 -7169 0
-8963 7133 0
-8963 7128 0
-8963 7169 0
-6338 7114 8960 8961 8962 8963 0
6338 -7114 0
6338 -8960 0
6338 -8961 0
6338 -8962 0
6338 -8963 0
8964 -7133 -7124 0
-8964 7133 0
-8964 7124 0
8965 -7126 -7130 0
-8965 7126 0
-8965 7130 0
8966 -7126 -7124 0
-8966 7126 0
-8966 7124 0
8967 -7133 -7130 -7169 0
-8967 7133 0
-8967 7130 0
-8967 7169 0
-6356 7113 8964 8965 8966 8967 0
6356 -7113 0
6356 -8964 0
6356 -8965 0
6356 -8966 0
6356 -8967 0
8968 -7140 -7124 0
-8968 7140 0
-8968 7124 0
8969 -7164 -7124 0
-8969 7164 0
-8969 7124 0
8970 -7164 -7130 0
-8970 7164 0
-8970 7130 0
8971 -7140 -7130 -7169 0
-8971 7140 0
-8971 7130 0
-8971 7169 0
-2119 7135 8968 8969 8970 8971 0
2119 -7135 0
2119 -8968 0
2119 -8969 0
2119 -8970 0
2119 -8971 0
8972 -7133 -7174 0
-8972 7133 0
-8972 7174 0
8973 -7126 -7174 0
-8973 7126 0
-8973 7174 0
8974 -7126 -7194 0
-8974 7126 0
-8974 7194 0
8975 -7133 -7194 -7169 0
-8975 7133 0
-8975 7194 0
-8975 7169 0
-6345 7147 8972 8973 8974 8975 0
6345 -7147 0
6345 -8972 0
6345 -8973 0
6345 -8974 0
6345 -8975 0
8976 -7133 -7179 0
-8976 7133 0
-8976 7179 0
8977 -7126 -7184 0
-8977 7126 0
-8977 7184 0
8978 -7126 -7179 0
-8978 7126 0
-8978 7179 0
8979 -7133 -7184 -7169 0
-8979 7133 0
-8979 7184 0
-8979 7169 0
-6350 7154 8976 8977 8978 8979 0
6350 -7154 0
6350 -8976 0
6350 -8977 0
6350 -8978 0
6350 -8979 0
8980 -7140 -7179 0
-8980 7140 0
-8980 7179 0
8981 -7164 -7179 0
-8981 7164 0
-8981 7179 0
8982 -7164 -7184 0
-8982 7164 0
-8982 7184 0
8983 -7140 -7184 -7169 0
-8983 7140 0
-8983 7184 0
-8983 7169 0
-2116 7159 8980 8981 8982 8983 0
2116 -7159 0
2116 -8980 0
2116 -8981 0
2116 -8982 0
2116 -8983 0
8984 -7128 -7164 0
-8984 7128 0
-8984 7164 0
8985 -7121 -7140 0
-8985 7121 0
-8985 7140 0
8986 -7121 -7164 0
-8986 7121 0
-8986 7164 0
8987 -7128 -7140 -7169 0
-8987 7128 0
-8987 7140 0
-8987 7169 0
-2109 7137 8984 8985 8986 8987 0
2109 -7137 0
2109 -8984 0
2109 -8985 0
2109 -8986 0
2109 -8987 0
8988 -7128 -7121 0
-8988 7128 0
-8988 7121 0
7166 -7121 -7121 0
-7166 7121 0
-7166 7121 0
8989 -7121 -7128 0
-8989 7121 0
-8989 7128 0
8990 -7128 -7128 -7169 0
-8990 7128 0
-8990 7128 0
-8990 7169 0
-2111 7118 8988 7166 8989 8990 0
2111 -7118 0
2111 -8988 0
2111 -7166 0
2111 -8989 0
2111 -8990 0
8991 -7128 -7174 0
-8991 7128 0
-8991 7174 0
8992 -7121 -7174 0
-8992 7121 0
-8992 7174 0
8993 -7121 -7194 0
-8993 7121 0
-8993 7194 0
8994 -7128 -7194 -7169 0
-8994 7128 0
-8994 7194 0
-8994 7169 0
-2114 7142 8991 8992 8993 8994 0
2114 -7142 0
2114 -8991 0
2114 -8992 0
2114 -8993 0
2114 -8994 0
8995 -7128 -7179 0
-8995 7128 0
-8995 7179 0
8996 -7121 -7184 0
-8996 7121 0
-8996 7184 0
8997 -7121 -7179 0
-8997 7121 0
-8997 7179 0
8998 -7128 -7184 -7169 0
-8998 7128 0
-8998 7184 0
-8998 7169 0
-2117 7149 8995 8996 8997 8998 0
2117 -7149 0
2117 -8995 0
2117 -8996 0
2117 -8997 0
2117 -8998 0
8999 -7130 -7179 0
-8999 7130 0
-8999 7179 0
9000 -7124 -7179 0
-9000 7124 0
-9000 7179 0
9001 -7124 -7184 0
-9001 7124 0
-9001 7184 0
9002 -7130 -7184 -7169 0
-9002 7130 0
-9002 7184 0
-9002 7169 0
-2120 7151 8999 9000 9001 9002 0
2120 -7151 0
2120 -8999 0
2120 -9000 0
2120 -9001 0
2120 -9002 0
9003 -7194 -7164 0
-9003 7194 0
-9003 7164 0
9004 -7174 -7140 0
-9004 7174 0
-9004 7140 0
9005 -7174 -7164 0
-9005 7174 0
-9005 7164 0
9006 -7194 -7140 -7169 0
-9006 7194 0
-9006 7140 0
-9006 7169 0
-2113 7189 9003 9004 9005 9006 0
2113 -7189 0
2113 -9003 0
2113 -9004 0
2113 -9005 0
2113 -9006 0
9007 -7194 -7124 0
-9007 7194 0
-9007 7124 0
9008 -7174 -7130 0
-9008 7174 0
-9008 7130 0
9009 -7174 -7124 0
-9009 7174 0
-9009 7124 0
9010 -7194 -7130 -7169 0
-9010 7194 0
-9010 7130 0
-9010 7169 0
-2122 7145 9007 9008 9009 9010 0
2122 -7145 0
2122 -9007 0
2122 -9008 0
2122 -9009 0
2122 -9010 0
9011 -7194 -7174 0
-9011 7194 0
-9011 7174 0
9012 -7174 -7174 0
-9012 7174 0
-9012 7174 0
9013 -7174 -7194 0
-9013 7174 0
-9013 7194 0
9014 -7194 -7194 -7169 0
-9014 7194 0
-9014 7194 0
-9014 7169 0
-2125 7199 9011 9012 9013 9014 0
2125 -7199 0
2125 -9011 0
2125 -9012 0
2125 -9013 0
2125 -9014 0
9015 -8051 -8048 0
-9015 8051 0
-9015 8048 0
9016 -8048 -8048 0
-9016 8048 0
-9016 8048 0
9017 -8048 -8051 0
-9017 8048 0
-9017 8051 0
9018 -8051 -8051 -8066 0
-9018 8051 0
-9018 8051 0
-9018 8066 0
-4392 8045 9015 9016 9017 9018 0
4392 -8045 0
4392 -9015 0
4392 -9016 0
4392 -9017 0
4392 -9018 0
9019 -8051 -8450 0
-9019 8051 0
-9019 8450 0
9020 -8048 -8450 0
-9020 8048 0
-9020 8450 0
9021 -8048 -8455 0
-9021 8048 0
-9021 8455 0
9022 -8051 -8455 -8066 0
-9022 8051 0
-9022 8455 0
-9022 8066 0
-4388 8444 9019 9020 9021 9022 0
4388 -8444 0
4388 -9019 0
4388 -9020 0
4388 -9021 0
4388 -9022 0
9023 -8051 -8047 0
-9023 8051 0
-9023 8047 0
9024 -8048 -8050 0
-9024 8048 0
-9024 8050 0
9025 -8048 -8047 0
-9025 8048 0
-9025 8047 0
9026 -8051 -8050 -8066 0
-9026 8051 0
-9026 8050 0
-9026 8066 0
-4406 8044 9023 9024 9025 9026 0
4406 -8044 0
4406 -9023 0
4406 -9024 0
4406 -9025 0
4406 -9026 0
9027 -8054 -8047 0
-9027 8054 0
-9027 8047 0
9028 -8064 -8047 0
-9028 8064 0
-9028 8047 0
9029 -8064 -8050 0
-9029 8064 0
-9029 8050 0
9030 -8054 -8050 -8066 0
-9030 8054 0
-9030 8050 0
-9030 8066 0
-1990 8053 9027 9028 9029 9030 0
1990 -8053 0
1990 -9027 0
1990 -9028 0
1990 -9029 0
1990 -9030 0
9031 -8051 -8068 0
-9031 8051 0
-9031 8068 0
9032 -8048 -8068 0
-9032 8048 0
-9032 8068 0
9033 -8048 -8076 0
-9033 8048 0
-9033 8076 0
9034 -8051 -8076 -8066 0
-9034 8051 0
-9034 8076 0
-9034 8066 0
-4395 8057 9031 9032 9033 9034 0
4395 -8057 0
4395 -9031 0
4395 -9032 0
4395 -9033 0
4395 -9034 0
9035 -8051 -8070 0
-9035 8051 0
-9035 8070 0
9036 -8048 -8072 0
-9036 8048 0
-9036 8072 0
9037 -8048 -8070 0
-9037 8048 0
-9037 8070 0
9038 -8051 -8072 -8066 0
-9038 8051 0
-9038 8072 0
-9038 8066 0
-4400 8060 9035 9036 9037 9038 0
4400 -8060 0
4400 -9035 0
4400 -9036 0
4400 -9037 0
4400 -9038 0
9039 -8054 -8070 0
-9039 8054 0
-9039 8070 0
9040 -8064 -8070 0
-9040 8064 0
-9040 8070 0
9041 -8064 -8072 0
-9041 8064 0
-9041 8072 0
9042 -8054 -8072 -8066 0
-9042 8054 0
-9042 8072 0
-9042 8066 0
-1987 8062 9039 9040 9041 9042 0
1987 -8062 0
1987 -9039 0
1987 -9040 0
1987 -9041 0
1987 -9042 0
9043 -8455 -8064 0
-9043 8455 0
-9043 8064 0
9044 -8450 -8054 0
-9044 8450 0
-9044 8054 0
9045 -8450 -8064 0
-9045 8450 0
-9045 8064 0
9046 -8455 -8054 -8066 0
-9046 8455 0
-9046 8054 0
-9046 8066 0
-1980 8461 9043 9044 9045 9046 0
1980 -8461 0
1980 -9043 0
1980 -9044 0
1980 -9045 0
1980 -9046 0
9047 -8455 -8450 0
-9047 8455 0
-9047 8450 0
8483 -8450 -8450 0
-8483 8450 0
-8483 8450 0
9048 -8450 -8455 0
-9048 8450 0
-9048 8455 0
9049 -8455 -8455 -8066 0
-9049 8455 0
-9049 8455 0
-9049 8066 0
-1982 8448 9047 8483 9048 9049 0
1982 -8448 0
1982 -9047 0
1982 -8483 0
1982 -9048 0
1982 -9049 0
9050 -8455 -8068 0
-9050 8455 0
-9050 8068 0
9051 -8450 -8068 0
-9051 8450 0
-9051 8068 0
9052 -8450 -8076 0
-9052 8450 0
-9052 8076 0
9053 -8455 -8076 -8066 0
-9053 8455 0
-9053 8076 0
-9053 8066 0
-1985 8465 9050 9051 9052 9053 0
1985 -8465 0
1985 -9050 0
1985 -9051 0
1985 -9052 0
1985 -9053 0
9054 -8455 -8070 0
-9054 8455 0
-9054 8070 0
9055 -8450 -8072 0
-9055 8450 0
-9055 8072 0
9056 -8450 -8070 0
-9056 8450 0
-9056 8070 0
9057 -8455 -8072 -8066 0
-9057 8455 0
-9057 8072 0
-9057 8066 0
-1988 8470 9054 9055 9056 9057 0
1988 -8470 0
1988 -9054 0
1988 -9055 0
1988 -9056 0
1988 -9057 0
9058 -8050 -8070 0
-9058 8050 0
-9058 8070 0
9059 -8047 -8070 0
-9059 8047 0
-9059 8070 0
9060 -8047 -8072 0
-9060 8047 0
-9060 8072 0
9061 -8050 -8072 -8066 0
-9061 8050 0
-9061 8072 0
-9061 8066 0
-1991 8059 9058 9059 9060 9061 0
1991 -8059 0
1991 -9058 0
1991 -9059 0
1991 -9060 0
1991 -9061 0
9062 -8076 -8064 0
-9062 8076 0
-9062 8064 0
9063 -8068 -8054 0
-9063 8068 0
-9063 8054 0
9064 -8068 -8064 0
-9064 8068 0
-9064 8064 0
9065 -8076 -8054 -8066 0
-9065 8076 0
-9065 8054 0
-9065 8066 0
-1984 8074 9062 9063 9064 9065 0
1984 -8074 0
1984 -9062 0
1984 -9063 0
1984 -9064 0
1984 -9065 0
9066 -8076 -8047 0
-9066 8076 0
-9066 8047 0
9067 -8068 -8050 0
-9067 8068 0
-9067 8050 0
9068 -8068 -8047 0
-9068 8068 0
-9068 8047 0
9069 -8076 -8050 -8066 0
-9069 8076 0
-9069 8050 0
-9069 8066 0
-1993 8056 9066 9067 9068 9069 0
1993 -8056 0
1993 -9066 0
1993 -9067 0
1993 -9068 0
1993 -9069 0
9070 -8076 -8068 0
-9070 8076 0
-9070 8068 0
9071 -8068 -8068 0
-9071 8068 0
-9071 8068 0
9072 -8068 -8076 0
-9072 8068 0
-9072 8076 0
9073 -8076 -8076 -8066 0
-9073 8076 0
-9073 8076 0
-9073 8066 0
-1996 8078 9070 9071 9072 9073 0
1996 -8078 0
1996 -9070 0
1996 -9071 0
1996 -9072 0
1996 -9073 0
9074 -6891 -6891 0
-9074 6891 0
-9074 6891 0
-2360 6877 9074 0
2360 -6877 0
2360 -9074 0
9075 -6891 -6886 0
-9075 6891 0
-9075 6886 0
-2356 6872 9075 0
2356 -6872 0
2356 -9075 0
9076 -6891 -6888 0
-9076 6891 0
-9076 6888 0
-2380 6871 9076 0
2380 -6871 0
2380 -9076 0
9077 -6898 -6888 0
-9077 6898 0
-9077 6888 0
-2378 6893 9077 0
2378 -6893 0
2378 -9077 0
9078 -6891 -6952 0
-9078 6891 0
-9078 6952 0
-2364 6905 9078 0
2364 -6905 0
2364 -9078 0
9079 -6891 -6942 0
-9079 6891 0
-9079 6942 0
-2371 6912 9079 0
2371 -6912 0
2371 -9079 0
9080 -6898 -6942 0
-9080 6898 0
-9080 6942 0
-2373 6917 9080 0
2373 -6917 0
2373 -9080 0
9081 -6886 -6898 0
-9081 6886 0
-9081 6898 0
-2355 6895 9081 0
2355 -6895 0
2355 -9081 0
9082 -6886 -6886 0
-9082 6886 0
-9082 6886 0
-2362 6876 9082 0
2362 -6876 0
2362 -9082 0
9083 -6886 -6952 0
-9083 6886 0
-9083 6952 0
-2369 6900 9083 0
2369 -6900 0
2369 -9083 0
9084 -6886 -6942 0
-9084 6886 0
-9084 6942 0
-2376 6907 9084 0
2376 -6907 0
2376 -9084 0
9085 -6888 -6942 0
-9085 6888 0
-9085 6942 0
-2383 6909 9085 0
2383 -6909 0
2383 -9085 0
9086 -6952 -6898 0
-9086 6952 0
-9086 6898 0
-2367 6947 9086 0
2367 -6947 0
2367 -9086 0
9087 -6952 -6888 0
-9087 6952 0
-9087 6888 0
-2388 6903 9087 0
2388 -6903 0
2388 -9087 0
9088 -6952 -6952 0
-9088 6952 0
-9088 6952 0
-2394 6957 9088 0
2394 -6957 0
2394 -9088 0
9089 -6550 -6547 0
-9089 6550 0
-9089 6547 0
9090 -6547 -6547 0
-9090 6547 0
-9090 6547 0
9091 -6547 -6550 0
-9091 6547 0
-9091 6550 0
9092 -6550 -6550 -6565 0
-9092 6550 0
-9092 6550 0
-9092 6565 0
-2674 6544 9089 9090 9091 9092 0
2674 -6544 0
2674 -9089 0
2674 -9090 0
2674 -9091 0
2674 -9092 0
9093 -6550 -7293 0
-9093 6550 0
-9093 7293 0
9094 -6547 -7293 0
-9094 6547 0
-9094 7293 0
9095 -6547 -6763 0
-9095 6547 0
-9095 6763 0
9096 -6550 -6763 -6565 0
-9096 6550 0
-9096 6763 0
-9096 6565 0
-2670 6764 9093 9094 9095 9096 0
2670 -6764 0
2670 -9093 0
2670 -9094 0
2670 -9095 0
2670 -9096 0
9097 -6550 -6546 0
-9097 6550 0
-9097 6546 0
9098 -6547 -6549 0
-9098 6547 0
-9098 6549 0
9099 -6547 -6546 0
-9099 6547 0
-9099 6546 0
9100 -6550 -6549 -6565 0
-9100 6550 0
-9100 6549 0
-9100 6565 0
-2688 6543 9097 9098 9099 9100 0
2688 -6543 0
2688 -9097 0
2688 -9098 0
2688 -9099 0
2688 -9100 0
9101 -6553 -6546 0
-9101 6553 0
-9101 6546 0
9102 -6563 -6546 0
-9102 6563 0
-9102 6546 0
9103 -6563 -6549 0
-9103 6563 0
-9103 6549 0
9104 -6553 -6549 -6565 0
-9104 6553 0
-9104 6549 0
-9104 6565 0
-1810 6552 9101 9102 9103 9104 0
1810 -6552 0
1810 -9101 0
1810 -9102 0
1810 -9103 0
1810 -9104 0
9105 -6550 -6567 0
-9105 6550 0
-9105 6567 0
9106 -6547 -6567 0
-9106 6547 0
-9106 6567 0
9107 -6547 -6575 0
-9107 6547 0
-9107 6575 0
9108 -6550 -6575 -6565 0
-9108 6550 0
-9108 6575 0
-9108 6565 0
-2677 6556 9105 9106 9107 9108 0
2677 -6556 0
2677 -9105 0
2677 -9106 0
2677 -9107 0
2677 -9108 0
9109 -6550 -6569 0
-9109 6550 0
-9109 6569 0
9110 -6547 -6571 0
-9110 6547 0
-9110 6571 0
9111 -6547 -6569 0
-9111 6547 0
-9111 6569 0
9112 -6550 -6571 -6565 0
-9112 6550 0
-9112 6571 0
-9112 6565 0
-2682 6559 9109 9110 9111 9112 0
2682 -6559 0
2682 -9109 0
2682 -9110 0
2682 -9111 0
2682 -9112 0
9113 -6553 -6569 0
-9113 6553 0
-9113 6569 0
9114 -6563 -6569 0
-9114 6563 0
-9114 6569 0
9115 -6563 -6571 0
-9115 6563 0
-9115 6571 0
9116 -6553 -6571 -6565 0
-9116 6553 0
-9116 6571 0
-9116 6565 0
-1807 6561 9113 9114 9115 9116 0
1807 -6561 0
1807 -9113 0
1807 -9114 0
1807 -9115 0
1807 -9116 0
9117 -6763 -6563 0
-9117 6763 0
-9117 6563 0
9118 -7293 -6553 0
-9118 7293 0
-9118 6553 0
9119 -7293 -6563 0
-9119 7293 0
-9119 6563 0
9120 -6763 -6553 -6565 0
-9120 6763 0
-9120 6553 0
-9120 6565 0
-1800 6771 9117 9118 9119 9120 0
1800 -6771 0
1800 -9117 0
1800 -9118 0
1800 -9119 0
1800 -9120 0
9121 -6763 -7293 0
-9121 6763 0
-9121 7293 0
7322 -7293 -7293 0
-7322 7293 0
-7322 7293 0
9122 -7293 -6763 0
-9122 7293 0
-9122 6763 0
9123 -6763 -6763 -6565 0
-9123 6763 0
-9123 6763 0
-9123 6565 0
-1802 6773 9121 7322 9122 9123 0
1802 -6773 0
1802 -9121 0
1802 -7322 0
1802 -9122 0
1802 -9123 0
9124 -6763 -6567 0
-9124 6763 0
-9124 6567 0
9125 -7293 -6567 0
-9125 7293 0
-9125 6567 0
9126 -7293 -6575 0
-9126 7293 0
-9126 6575 0
9127 -6763 -6575 -6565 0
-9127 6763 0
-9127 6575 0
-9127 6565 0
-1805 6775 9124 9125 9126 9127 0
1805 -6775 0
1805 -9124 0
1805 -9125 0
1805 -9126 0
1805 -9127 0
9128 -6763 -6569 0
-9128 6763 0
-9128 6569 0
9129 -7293 -6571 0
-9129 7293 0
-9129 6571 0
9130 -7293 -6569 0
-9130 7293 0
-9130 6569 0
9131 -6763 -6571 -6565 0
-9131 6763 0
-9131 6571 0
-9131 6565 0
-1808 6777 9128 9129 9130 9131 0
1808 -6777 0
1808 -9128 0
1808 -9129 0
1808 -9130 0
1808 -9131 0
9132 -6549 -6569 0
-9132 6549 0
-9132 6569 0
9133 -6546 -6569 0
-9133 6546 0
-9133 6569 0
9134 -6546 -6571 0
-9134 6546 0
-9134 6571 0
9135 -6549 -6571 -6565 0
-9135 6549 0
-9135 6571 0
-9135 6565 0
-1811 6558 9132 9133 9134 9135 0
1811 -6558 0
1811 -9132 0
1811 -9133 0
1811 -9134 0
1811 -9135 0
9136 -6575 -6563 0
-9136 6575 0
-9136 6563 0
9137 -6567 -6553 0
-9137 6567 0
-9137 6553 0
9138 -6567 -6563 0
-9138 6567 0
-9138 6563 0
9139 -6575 -6553 -6565 0
-9139 6575 0
-9139 6553 0
-9139 6565 0
-1804 6573 9136 9137 9138 9139 0
1804 -6573 0
1804 -9136 0
1804 -9137 0
1804 -9138 0
1804 -9139 0
9140 -6575 -6546 0
-9140 6575 0
-9140 6546 0
9141 -6567 -6549 0
-9141 6567 0
-9141 6549 0
9142 -6567 -6546 0
-9142 6567 0
-9142 6546 0
9143 -6575 -6549 -6565 0
-9143 6575 0
-9143 6549 0
-9143 6565 0
-1813 6555 9140 9141 9142 9143 0
1813 -6555 0
1813 -9140 0
1813 -9141 0
1813 -9142 0
1813 -9143 0
9144 -6575 -6567 0
-9144 6575 0
-9144 6567 0
9145 -6567 -6567 0
-9145 6567 0
-9145 6567 0
9146 -6567 -6575 0
-9146 6567 0
-9146 6575 0
9147 -6575 -6575 -6565 0
-9147 6575 0
-9147 6575 0
-9147 6565 0
-1816 6577 9144 9145 9146 9147 0
1816 -6577 0
1816 -9144 0
1816 -9145 0
1816 -9146 0
1816 -9147 0
9148 -7933 -7933 0
-9148 7933 0
-9148 7933 0
-3929 7927 9148 0
3929 -7927 0
3929 -9148 0
9149 -7933 -8388 0
-9149 7933 0
-9149 8388 0
-3925 8377 9149 0
3925 -8377 0
3925 -9149 0
9150 -7933 -7932 0
-9150 7933 0
-9150 7932 0
-3943 7926 9150 0
3943 -7926 0
3943 -9150 0
9151 -7936 -7932 0
-9151 7936 0
-9151 7932 0
-1551 7935 9151 0
1551 -7935 0
1551 -9151 0
9152 -7933 -7958 0
-9152 7933 0
-9152 7958 0
-3932 7939 9152 0
3932 -7939 0
3932 -9152 0
9153 -7933 -7954 0
-9153 7933 0
-9153 7954 0
-3937 7942 9153 0
3937 -7942 0
3937 -9153 0
9154 -7936 -7954 0
-9154 7936 0
-9154 7954 0
-1548 7944 9154 0
1548 -7944 0
1548 -9154 0
9155 -8388 -7936 0
-9155 8388 0
-9155 7936 0
-1541 8394 9155 0
1541 -8394 0
1541 -9155 0
9156 -8388 -8388 0
-9156 8388 0
-9156 8388 0
-1543 8381 9156 0
1543 -8381 0
1543 -9156 0
9157 -8388 -7958 0
-9157 8388 0
-9157 7958 0
-1546 8398 9157 0
1546 -8398 0
1546 -9157 0
9158 -8388 -7954 0
-9158 8388 0
-9158 7954 0
-1549 8403 9158 0
1549 -8403 0
1549 -9158 0
9159 -7932 -7954 0
-9159 7932 0
-9159 7954 0
-1552 7941 9159 0
1552 -7941 0
1552 -9159 0
9160 -7958 -7936 0
-9160 7958 0
-9160 7936 0
-1545 7956 9160 0
1545 -7956 0
1545 -9160 0
9161 -7958 -7932 0
-9161 7958 0
-9161 7932 0
-1554 7938 9161 0
1554 -7938 0
1554 -9161 0
9162 -7958 -7958 0
-9162 7958 0
-9162 7958 0
-1557 7960 9162 0
1557 -7960 0
1557 -9162 0
9163 -7780 -7773 0
-9163 7780 0
-9163 7773 0
9164 -7773 -7773 0
-9164 7773 0
-9164 7773 0
9165 -7773 -7780 0
-9165 7773 0
-9165 7780 0
9166 -7780 -7780 -7816 0
-9166 7780 0
-9166 7780 0
-9166 7816 0
-1623 7766 9163 9164 9165 9166 0
1623 -7766 0
1623 -9163 0
1623 -9164 0
1623 -9165 0
1623 -9166 0
9167 -7780 -7768 0
-9167 7780 0
-9167 7768 0
9168 -7773 -7768 0
-9168 7773 0
-9168 7768 0
9169 -7773 -7775 0
-9169 7773 0
-9169 7775 0
9170 -7780 -7775 -7816 0
-9170 7780 0
-9170 7775 0
-9170 7816 0
-1619 7761 9167 9168 9169 9170 0
1619 -7761 0
1619 -9167 0
1619 -9168 0
1619 -9169 0
1619 -9170 0
9171 -7780 -7771 0
-9171 7780 0
-9171 7771 0
9172 -7773 -7777 0
-9172 7773 0
-9172 7777 0
9173 -7773 -7771 0
-9173 7773 0
-9173 7771 0
9174 -7780 -7777 -7816 0
-9174 7780 0
-9174 7777 0
-9174 7816 0
-1643 7760 9171 9172 9173 9174 0
1643 -7760 0
1643 -9171 0
1643 -9172 0
1643 -9173 0
1643 -9174 0
9175 -7787 -7771 0
-9175 7787 0
-9175 7771 0
9176 -7811 -7771 0
-9176 7811 0
-9176 7771 0
9177 -7811 -7777 0
-9177 7811 0
-9177 7777 0
9178 -7787 -7777 -7816 0
-9178 7787 0
-9178 7777 0
-9178 7816 0
-1641 7782 9175 9176 9177 9178 0
1641 -7782 0
1641 -9175 0
1641 -9176 0
1641 -9177 0
1641 -9178 0
9179 -7780 -7821 0
-9179 7780 0
-9179 7821 0
9180 -7773 -7821 0
-9180 7773 0
-9180 7821 0
9181 -7773 -7841 0
-9181 7773 0
-9181 7841 0
9182 -7780 -7841 -7816 0
-9182 7780 0
-9182 7841 0
-9182 7816 0
-1627 7794 9179 9180 9181 9182 0
1627 -7794 0
1627 -9179 0
1627 -9180 0
1627 -9181 0
1627 -9182 0
9183 -7780 -7826 0
-9183 7780 0
-9183 7826 0
9184 -7773 -7831 0
-9184 7773 0
-9184 7831 0
9185 -7773 -7826 0
-9185 7773 0
-9185 7826 0
9186 -7780 -7831 -7816 0
-9186 7780 0
-9186 7831 0
-9186 7816 0
-1634 7801 9183 9184 9185 9186 0
1634 -7801 0
1634 -9183 0
1634 -9184 0
1634 -9185 0
1634 -9186 0
9187 -7787 -7826 0
-9187 7787 0
-9187 7826 0
9188 -7811 -7826 0
-9188 7811 0
-9188 7826 0
9189 -7811 -7831 0
-9189 7811 0
-9189 7831 0
9190 -7787 -7831 -7816 0
-9190 7787 0
-9190 7831 0
-9190 7816 0
-1636 7806 9187 9188 9189 9190 0
1636 -7806 0
1636 -9187 0
1636 -9188 0
1636 -9189 0
1636 -9190 0
9191 -7775 -7811 0
-9191 7775 0
-9191 7811 0
9192 -7768 -7787 0
-9192 7768 0
-9192 7787 0
9193 -7768 -7811 0
-9193 7768 0
-9193 7811 0
9194 -7775 -7787 -7816 0
-9194 7775 0
-9194 7787 0
-9194 7816 0
-1618 7784 9191 9192 9193 9194 0
1618 -7784 0
1618 -9191 0
1618 -9192 0
1618 -9193 0
1618 -9194 0
9195 -7775 -7768 0
-9195 7775 0
-9195 7768 0
7813 -7768 -7768 0
-7813 7768 0
-7813 7768 0
9196 -7768 -7775 0
-9196 7768 0
-9196 7775 0
9197 -7775 -7775 -7816 0
-9197 7775 0
-9197 7775 0
-9197 7816 0
-1625 7765 9195 7813 9196 9197 0
1625 -7765 0
1625 -9195 0
1625 -7813 0
1625 -9196 0
1625 -9197 0
9198 -7775 -7821 0
-9198 7775 0
-9198 7821 0
9199 -7768 -7821 0
-9199 7768 0
-9199 7821 0
9200 -7768 -7841 0
-9200 7768 0
-9200 7841 0
9201 -7775 -7841 -7816 0
-9201 7775 0
-9201 7841 0
-9201 7816 0
-1632 7789 9198 9199 9200 9201 0
1632 -7789 0
1632 -9198 0
1632 -9199 0
1632 -9200 0
1632 -9201 0
9202 -7775 -7826 0
-9202 7775 0
-9202 7826 0
9203 -7768 -7831 0
-9203 7768 0
-9203 7831 0
9204 -7768 -7826 0
-9204 7768 0
-9204 7826 0
9205 -7775 -7831 -7816 0
-9205 7775 0
-9205 7831 0
-9205 7816 0
-1639 7796 9202 9203 9204 9205 0
1639 -7796 0
1639 -9202 0
1639 -9203 0
1639 -9204 0
1639 -9205 0
9206 -7777 -7826 0
-9206 7777 0
-9206 7826 0
9207 -7771 -7826 0
-9207 7771 0
-9207 7826 0
9208 -7771 -7831 0
-9208 7771 0
-9208 7831 0
9209 -7777 -7831 -7816 0
-9209 7777 0
-9209 7831 0
-9209 7816 0
-1646 7798 9206 9207 9208 9209 0
1646 -7798 0
1646 -9206 0
1646 -9207 0
1646 -9208 0
1646 -9209 0
9210 -7841 -7811 0
-9210 7841 0
-9210 7811 0
9211 -7821 -7787 0
-9211 7821 0
-9211 7787 0
9212 -7821 -7811 0
-9212 7821 0
-9212 7811 0
9213 -7841 -7787 -7816 0
-9213 7841 0
-9213 7787 0
-9213 7816 0
-1630 7836 9210 9211 9212 9213 0
1630 -7836 0
1630 -9210 0
1630 -9211 0
1630 -9212 0
1630 -9213 0
9214 -7841 -7771 0
-9214 7841 0
-9214 7771 0
9215 -7821 -7777 0
-9215 7821 0
-9215 7777 0
9216 -7821 -7771 0
-9216 7821 0
-9216 7771 0
9217 -7841 -7777 -7816 0
-9217 7841 0
-9217 7777 0
-9217 7816 0
-1651 7792 9214 9215 9216 9217 0
1651 -7792 0
1651 -9214 0
1651 -9215 0
1651 -9216 0
1651 -9217 0
9218 -7841 -7821 0
-9218 7841 0
-9218 7821 0
9219 -7821 -7821 0
-9219 7821 0
-9219 7821 0
9220 -7821 -7841 0
-9220 7821 0
-9220 7841 0
9221 -7841 -7841 -7816 0
-9221 7841 0
-9221 7841 0
-9221 7816 0
-1657 7846 9218 9219 9220 9221 0
1657 -7846 0
1657 -9218 0
1657 -9219 0
1657 -9220 0
1657 -9221 0
9222 -7133 -7133 0
-9222 7133 0
-9222 7133 0
-4122 7119 9222 0
4122 -7119 0
4122 -9222 0
9223 -7133 -7128 0
-9223 7133 0
-9223 7128 0
-4118 7114 9223 0
4118 -7114 0
4118 -9223 0
9224 -7133 -7130 0
-9224 7133 0
-9224 7130 0
-4136 7113 9224 0
4136 -7113 0
4136 -9224 0
9225 -7140 -7130 0
-9225 7140 0
-9225 7130 0
-2245 7135 9225 0
2245 -7135 0
2245 -9225 0
9226 -7133 -7194 0
-9226 7133 0
-9226 7194 0
-4125 7147 9226 0
4125 -7147 0
4125 -9226 0
9227 -7133 -7184 0
-9227 7133 0
-9227 7184 0
-4130 7154 9227 0
4130 -7154 0
4130 -9227 0
9228 -7140 -7184 0
-9228 7140 0
-9228 7184 0
-2242 7159 9228 0
2242 -7159 0
2242 -9228 0
9229 -7128 -7140 0
-9229 7128 0
-9229 7140 0
-2235 7137 9229 0
2235 -7137 0
2235 -9229 0
9230 -7128 -7128 0
-9230 7128 0
-9230 7128 0
-2237 7118 9230 0
2237 -7118 0
2237 -9230 0
9231 -7128 -7194 0
-9231 7128 0
-9231 7194 0
-2240 7142 9231 0
2240 -7142 0
2240 -9231 0
9232 -7128 -7184 0
-9232 7128 0
-9232 7184 0
-2243 7149 9232 0
2243 -7149 0
2243 -9232 0
9233 -7130 -7184 0
-9233 7130 0
-9233 7184 0
-2246 7151 9233 0
2246 -7151 0
2246 -9233 0
9234 -7194 -7140 0
-9234 7194 0
-9234 7140 0
-2239 7189 9234 0
2239 -7189 0
2239 -9234 0
9235 -7194 -7130 0
-9235 7194 0
-9235 7130 0
-2248 7145 9235 0
2248 -7145 0
2248 -9235 0
9236 -7194 -7194 0
-9236 7194 0
-9236 7194 0
-2251 7199 9236 0
2251 -7199 0
2251 -9236 0
9237 -7154 -7154 0
-9237 7154 0
-9237 7154 0
-3576 7119 9237 0
3576 -7119 0
3576 -9237 0
9238 -7154 -7179 0
-9238 7154 0
-9238 7179 0
-3583 7126 9238 0
3583 -7126 0
3583 -9238 0
9239 -7154 -7184 0
-9239 7154 0
-9239 7184 0
-3590 7133 9239 0
3590 -7133 0
3590 -9239 0
9240 -7159 -7184 0
-9240 7159 0
-9240 7184 0
-3597 7140 9240 0
3597 -7140 0
3597 -9240 0
9241 -7154 -7149 0
-9241 7154 0
-9241 7149 0
-3570 7114 9241 0
3570 -7114 0
3570 -9241 0
9242 -7154 -7151 0
-9242 7154 0
-9242 7151 0
-3569 7113 9242 0
3569 -7113 0
3569 -9242 0
9243 -7159 -7151 0
-9243 7159 0
-9243 7151 0
-3592 7135 9243 0
3592 -7135 0
3592 -9243 0
9244 -7179 -7159 0
-9244 7179 0
-9244 7159 0
-3602 7164 9244 0
3602 -7164 0
3602 -9244 0
9245 -7179 -7179 0
-9245 7179 0
-9245 7179 0
-3608 7169 9245 0
3608 -7169 0
3608 -9245 0
9246 -7179 -7149 0
-9246 7179 0
-9246 7149 0
-3578 7121 9246 0
3578 -7121 0
3578 -9246 0
9247 -7179 -7151 0
-9247 7179 0
-9247 7151 0
-3581 7124 9247 0
3581 -7124 0
3581 -9247 0
9248 -7184 -7151 0
-9248 7184 0
-9248 7151 0
-3587 7130 9248 0
3587 -7130 0
3587 -9248 0
9249 -7149 -7159 0
-9249 7149 0
-9249 7159 0
-3594 7137 9249 0
3594 -7137 0
3594 -9249 0
9250 -7149 -7184 0
-9250 7149 0
-9250 7184 0
-3585 7128 9250 0
3585 -7128 0
3585 -9250 0
9251 -7149 -7149 0
-9251 7149 0
-9251 7149 0
-3574 7118 9251 0
3574 -7118 0
3574 -9251 0
9252 -8156 -9253 0
-9252 8156 0
-9252 9253 0
9254 -9253 -9253 0
-9254 9253 0
-9254 9253 0
9255 -9253 -8156 0
-9255 9253 0
-9255 8156 0
9256 -8156 -8156 -9257 0
-9256 8156 0
-9256 8156 0
-9256 9257 0
-5303 8157 9252 9254 9255 9256 0
5303 -8157 0
5303 -9252 0
5303 -9254 0
5303 -9255 0
5303 -9256 0
9258 -8156 -9259 0
-9258 8156 0
-9258 9259 0
9260 -9253 -9259 0
-9260 9253 0
-9260 9259 0
9261 -9253 -8159 0
-9261 9253 0
-9261 8159 0
9262 -8156 -8159 -9257 0
-9262 8156 0
-9262 8159 0
-9262 9257 0
-5299 8160 9258 9260 9261 9262 0
5299 -8160 0
5299 -9258 0
5299 -9260 0
5299 -9261 0
5299 -9262 0
9263 -8156 -9264 0
-9263 8156 0
-9263 9264 0
9265 -9253 -8162 0
-9265 9253 0
-9265 8162 0
9266 -9253 -9264 0
-9266 9253 0
-9266 9264 0
9267 -8156 -8162 -9257 0
-9267 8156 0
-9267 8162 0
-9267 9257 0
-5317 8163 9263 9265 9266 9267 0
5317 -8163 0
5317 -9263 0
5317 -9265 0
5317 -9266 0
5317 -9267 0
9268 -8165 -9264 0
-9268 8165 0
-9268 9264 0
9269 -9270 -9264 0
-9269 9270 0
-9269 9264 0
9271 -9270 -8162 0
-9271 9270 0
-9271 8162 0
9272 -8165 -8162 -9257 0
-9272 8165 0
-9272 8162 0
-9272 9257 0
-3842 8166 9268 9269 9271 9272 0
3842 -8166 0
3842 -9268 0
3842 -9269 0
3842 -9271 0
3842 -9272 0
9273 -8156 -9274 0
-9273 8156 0
-9273 9274 0
9275 -9253 -9274 0
-9275 9253 0
-9275 9274 0
9276 -9253 -8168 0
-9276 9253 0
-9276 8168 0
9277 -8156 -8168 -9257 0
-9277 8156 0
-9277 8168 0
-9277 9257 0
-5306 8169 9273 9275 9276 9277 0
5306 -8169 0
5306 -9273 0
5306 -9275 0
5306 -9276 0
5306 -9277 0
9278 -8156 -9279 0
-9278 8156 0
-9278 9279 0
9280 -9253 -8171 0
-9280 9253 0
-9280 8171 0
9281 -9253 -9279 0
-9281 9253 0
-9281 9279 0
9282 -8156 -8171 -9257 0
-9282 8156 0
-9282 8171 0
-9282 9257 0
-5311 8172 9278 9280 9281 9282 0
5311 -8172 0
5311 -9278 0
5311 -9280 0
5311 -9281 0
5311 -9282 0
9283 -8165 -9279 0
-9283 8165 0
-9283 9279 0
9284 -9270 -9279 0
-9284 9270 0
-9284 9279 0
9285 -9270 -8171 0
-9285 9270 0
-9285 8171 0
9286 -8165 -8171 -9257 0
-9286 8165 0
-9286 8171 0
-9286 9257 0
-3839 8174 9283 9284 9285 9286 0
3839 -8174 0
3839 -9283 0
3839 -9284 0
3839 -9285 0
3839 -9286 0
9287 -8159 -9270 0
-9287 8159 0
-9287 9270 0
9288 -9259 -8165 0
-9288 9259 0
-9288 8165 0
9289 -9259 -9270 0
-9289 9259 0
-9289 9270 0
9290 -8159 -8165 -9257 0
-9290 8159 0
-9290 8165 0
-9290 9257 0
-3832 8176 9287 9288 9289 9290 0
3832 -8176 0
3832 -9287 0
3832 -9288 0
3832 -9289 0
3832 -9290 0
9291 -8159 -9259 0
-9291 8159 0
-9291 9259 0
9292 -9259 -9259 0
-9292 9259 0
-9292 9259 0
9293 -9259 -8159 0
-9293 9259 0
-9293 8159 0
9294 -8159 -8159 -9257 0
-9294 8159 0
-9294 8159 0
-9294 9257 0
-3834 8178 9291 9292 9293 9294 0
3834 -8178 0
3834 -9291 0
3834 -9292 0
3834 -9293 0
3834 -9294 0
9295 -8159 -9274 0
-9295 8159 0
-9295 9274 0
9296 -9259 -9274 0
-9296 9259 0
-9296 9274 0
9297 -9259 -8168 0
-9297 9259 0
-9297 8168 0
9298 -8159 -8168 -9257 0
-9298 8159 0
-9298 8168 0
-9298 9257 0
-3837 8180 9295 9296 9297 9298 0
3837 -8180 0
3837 -9295 0
3837 -9296 0
3837 -9297 0
3837 -9298 0
9299 -8159 -9279 0
-9299 8159 0
-9299 9279 0
9300 -9259 -8171 0
-9300 9259 0
-9300 8171 0
9301 -9259 -9279 0
-9301 9259 0
-9301 9279 0
9302 -8159 -8171 -9257 0
-9302 8159 0
-9302 8171 0
-9302 9257 0
-3840 8182 9299 9300 9301 9302 0
3840 -8182 0
3840 -9299 0
3840 -9300 0
3840 -9301 0
3840 -9302 0
9303 -8162 -9279 0
-9303 8162 0
-9303 9279 0
9304 -9264 -9279 0
-9304 9264 0
-9304 9279 0
9305 -9264 -8171 0
-9305 9264 0
-9305 8171 0
9306 -8162 -8171 -9257 0
-9306 8162 0
-9306 8171 0
-9306 9257 0
-3843 8184 9303 9304 9305 9306 0
3843 -8184 0
3843 -9303 0
3843 -9304 0
3843 -9305 0
3843 -9306 0
9307 -8168 -9270 0
-9307 8168 0
-9307 9270 0
9308 -9274 -8165 0
-9308 9274 0
-9308 8165 0
9309 -9274 -9270 0
-9309 9274 0
-9309 9270 0
9310 -8168 -8165 -9257 0
-9310 8168 0
-9310 8165 0
-9310 9257 0
-3836 8186 9307 9308 9309 9310 0
3836 -8186 0
3836 -9307 0
3836 -9308 0
3836 -9309 0
3836 -9310 0
9311 -8168 -9264 0
-9311 8168 0
-9311 9264 0
9312 -9274 -8162 0
-9312 9274 0
-9312 8162 0
9313 -9274 -9264 0
-9313 9274 0
-9313 9264 0
9314 -8168 -8162 -9257 0
-9314 8168 0
-9314 8162 0
-9314 9257 0
-3845 8188 9311 9312 9313 9314 0
3845 -8188 0
3845 -9311 0
3845 -9312 0
3845 -9313 0
3845 -9314 0
9315 -8168 -9274 0
-9315 8168 0
-9315 9274 0
9316 -9274 -9274 0
-9316 9274 0
-9316 9274 0
9317 -9274 -8168 0
-9317 9274 0
-9317 8168 0
9318 -8168 -8168 -9257 0
-9318 8168 0
-9318 8168 0
-9318 9257 0
-3848 8190 9315 9316 9317 9318 0
3848 -8190 0
3848 -9315 0
3848 -9316 0
3848 -9317 0
3848 -9318 0
9319 -7154 -7147 0
-9319 7154 0
-9319 7147 0
9320 -7147 -7147 0
-9320 7147 0
-9320 7147 0
9321 -7147 -7154 0
-9321 7147 0
-9321 7154 0
9322 -7154 -7154 -7199 0
-9322 7154 0
-9322 7154 0
-9322 7199 0
-1307 7119 9319 9320 9321 9322 0
1307 -7119 0
1307 -9319 0
1307 -9320 0
1307 -9321 0
1307 -9322 0
9323 -7154 -7174 0
-9323 7154 0
-9323 7174 0
9324 -7147 -7174 0
-9324 7147 0
-9324 7174 0
9325 -7147 -7179 0
-9325 7147 0
-9325 7179 0
9326 -7154 -7179 -7199 0
-9326 7154 0
-9326 7179 0
-9326 7199 0
-3628 7126 9323 9324 9325 9326 0
3628 -7126 0
3628 -9323 0
3628 -9324 0
3628 -9325 0
3628 -9326 0
9327 -7154 -7194 0
-9327 7154 0
-9327 7194 0
9328 -7147 -7184 0
-9328 7147 0
-9328 7184 0
9329 -7147 -7194 0
-9329 7147 0
-9329 7194 0
9330 -7154 -7184 -7199 0
-9330 7154 0
-9330 7184 0
-9330 7199 0
-1305 7133 9327 9328 9329 9330 0
1305 -7133 0
1305 -9327 0
1305 -9328 0
1305 -9329 0
1305 -9330 0
9331 -7159 -7194 0
-9331 7159 0
-9331 7194 0
9332 -7189 -7194 0
-9332 7189 0
-9332 7194 0
9333 -7189 -7184 0
-9333 7189 0
-9333 7184 0
9334 -7159 -7184 -7199 0
-9334 7159 0
-9334 7184 0
-9334 7199 0
-1315 7140 9331 9332 9333 9334 0
1315 -7140 0
1315 -9331 0
1315 -9332 0
1315 -9333 0
1315 -9334 0
9335 -7154 -7142 0
-9335 7154 0
-9335 7142 0
9336 -7147 -7142 0
-9336 7147 0
-9336 7142 0
9337 -7147 -7149 0
-9337 7147 0
-9337 7149 0
9338 -7154 -7149 -7199 0
-9338 7154 0
-9338 7149 0
-9338 7199 0
-1310 7114 9335 9336 9337 9338 0
1310 -7114 0
1310 -9335 0
1310 -9336 0
1310 -9337 0
1310 -9338 0
9339 -7154 -7145 0
-9339 7154 0
-9339 7145 0
9340 -7147 -7151 0
-9340 7147 0
-9340 7151 0
9341 -7147 -7145 0
-9341 7147 0
-9341 7145 0
9342 -7154 -7151 -7199 0
-9342 7154 0
-9342 7151 0
-9342 7199 0
-1313 7113 9339 9340 9341 9342 0
1313 -7113 0
1313 -9339 0
1313 -9340 0
1313 -9341 0
1313 -9342 0
9343 -7159 -7145 0
-9343 7159 0
-9343 7145 0
9344 -7189 -7145 0
-9344 7189 0
-9344 7145 0
9345 -7189 -7151 0
-9345 7189 0
-9345 7151 0
9346 -7159 -7151 -7199 0
-9346 7159 0
-9346 7151 0
-9346 7199 0
-1316 7135 9343 9344 9345 9346 0
1316 -7135 0
1316 -9343 0
1316 -9344 0
1316 -9345 0
1316 -9346 0
9347 -7179 -7189 0
-9347 7179 0
-9347 7189 0
9348 -7174 -7159 0
-9348 7174 0
-9348 7159 0
9349 -7174 -7189 0
-9349 7174 0
-9349 7189 0
9350 -7179 -7159 -7199 0
-9350 7179 0
-9350 7159 0
-9350 7199 0
-3646 7164 9347 9348 9349 9350 0
3646 -7164 0
3646 -9347 0
3646 -9348 0
3646 -9349 0
3646 -9350 0
9351 -7179 -7174 0
-9351 7179 0
-9351 7174 0
9012 -7174 -7174 0
-9012 7174 0
-9012 7174 0
9352 -7174 -7179 0
-9352 7174 0
-9352 7179 0
9353 -7179 -7179 -7199 0
-9353 7179 0
-9353 7179 0
-9353 7199 0
-3632 7169 9351 9012 9352 9353 0
3632 -7169 0
3632 -9351 0
3632 -9012 0
3632 -9352 0
3632 -9353 0
9354 -7179 -7142 0
-9354 7179 0
-9354 7142 0
9355 -7174 -7142 0
-9355 7174 0
-9355 7142 0
9356 -7174 -7149 0
-9356 7174 0
-9356 7149 0
9357 -7179 -7149 -7199 0
-9357 7179 0
-9357 7149 0
-9357 7199 0
-3635 7121 9354 9355 9356 9357 0
3635 -7121 0
3635 -9354 0
3635 -9355 0
3635 -9356 0
3635 -9357 0
9358 -7179 -7145 0
-9358 7179 0
-9358 7145 0
9359 -7174 -7151 0
-9359 7174 0
-9359 7151 0
9360 -7174 -7145 0
-9360 7174 0
-9360 7145 0
9361 -7179 -7151 -7199 0
-9361 7179 0
-9361 7151 0
-9361 7199 0
-3640 7124 9358 9359 9360 9361 0
3640 -7124 0
3640 -9358 0
3640 -9359 0
3640 -9360 0
3640 -9361 0
9362 -7184 -7145 0
-9362 7184 0
-9362 7145 0
9363 -7194 -7145 0
-9363 7194 0
-9363 7145 0
9364 -7194 -7151 0
-9364 7194 0
-9364 7151 0
9365 -7184 -7151 -7199 0
-9365 7184 0
-9365 7151 0
-9365 7199 0
-1312 7130 9362 9363 9364 9365 0
1312 -7130 0
1312 -9362 0
1312 -9363 0
1312 -9364 0
1312 -9365 0
9366 -7149 -7189 0
-9366 7149 0
-9366 7189 0
9367 -7142 -7159 0
-9367 7142 0
-9367 7159 0
9368 -7142 -7189 0
-9368 7142 0
-9368 7189 0
9369 -7149 -7159 -7199 0
-9369 7149 0
-9369 7159 0
-9369 7199 0
-1318 7137 9366 9367 9368 9369 0
1318 -7137 0
1318 -9366 0
1318 -9367 0
1318 -9368 0
1318 -9369 0
9370 -7149 -7194 0
-9370 7149 0
-9370 7194 0
9371 -7142 -7184 0
-9371 7142 0
-9371 7184 0
9372 -7142 -7194 0
-9372 7142 0
-9372 7194 0
9373 -7149 -7184 -7199 0
-9373 7149 0
-9373 7184 0
-9373 7199 0
-1309 7128 9370 9371 9372 9373 0
1309 -7128 0
1309 -9370 0
1309 -9371 0
1309 -9372 0
1309 -9373 0
9374 -7149 -7142 0
-9374 7149 0
-9374 7142 0
7196 -7142 -7142 0
-7196 7142 0
-7196 7142 0
9375 -7142 -7149 0
-9375 7142 0
-9375 7149 0
9376 -7149 -7149 -7199 0
-9376 7149 0
-9376 7149 0
-9376 7199 0
-1321 7118 9374 7196 9375 9376 0
1321 -7118 0
1321 -9374 0
1321 -7196 0
1321 -9375 0
1321 -9376 0
9377 -7780 -7780 0
-9377 7780 0
-9377 7780 0
-5810 7766 9377 0
5810 -7766 0
5810 -9377 0
9378 -7780 -7775 0
-9378 7780 0
-9378 7775 0
-5806 7761 9378 0
5806 -7761 0
5806 -9378 0
9379 -7780 -7777 0
-9379 7780 0
-9379 7777 0
-5830 7760 9379 0
5830 -7760 0
5830 -9379 0
9380 -7787 -7777 0
-9380 7787 0
-9380 7777 0
-5828 7782 9380 0
5828 -7782 0
5828 -9380 0
9381 -7780 -7841 0
-9381 7780 0
-9381 7841 0
-5814 7794 9381 0
5814 -7794 0
5814 -9381 0
9382 -7780 -7831 0
-9382 7780 0
-9382 7831 0
-5821 7801 9382 0
5821 -7801 0
5821 -9382 0
9383 -7787 -7831 0
-9383 7787 0
-9383 7831 0
-5823 7806 9383 0
5823 -7806 0
5823 -9383 0
9384 -7775 -7787 0
-9384 7775 0
-9384 7787 0
-5805 7784 9384 0
5805 -7784 0
5805 -9384 0
9385 -7775 -7775 0
-9385 7775 0
-9385 7775 0
-5812 7765 9385 0
5812 -7765 0
5812 -9385 0
9386 -7775 -7841 0
-9386 7775 0
-9386 7841 0
-5819 7789 9386 0
5819 -7789 0
5819 -9386 0
9387 -7775 -7831 0
-9387 7775 0
-9387 7831 0
-5826 7796 9387 0
5826 -7796 0
5826 -9387 0
9388 -7777 -7831 0
-9388 7777 0
-9388 7831 0
-5833 7798 9388 0
5833 -7798 0
5833 -9388 0
9389 -7841 -7787 0
-9389 7841 0
-9389 7787 0
-5817 7836 9389 0
5817 -7836 0
5817 -9389 0
9390 -7841 -7777 0
-9390 7841 0
-9390 7777 0
-5838 7792 9390 0
5838 -7792 0
5838 -9390 0
9391 -7841 -7841 0
-9391 7841 0
-9391 7841 0
-5844 7846 9391 0
5844 -7846 0
5844 -9391 0
9392 -6674 -6674 0
-9392 6674 0
-9392 6674 0
-2706 6680 9392 0
2706 -6680 0
2706 -9392 0
9393 -6674 -6685 0
-9393 6674 0
-9393 6685 0
-2702 6687 9393 0
2702 -6687 0
2702 -9393 0
9394 -6674 -6691 0
-9394 6674 0
-9394 6691 0
-2726 6694 9394 0
2726 -6694 0
2726 -9394 0
9395 -6696 -6691 0
-9395 6696 0
-9395 6691 0
-2724 6701 9395 0
2724 -6701 0
2724 -9395 0
9396 -6674 -6706 0
-9396 6674 0
-9396 6706 0
-2710 6708 9396 0
2710 -6708 0
2710 -9396 0
9397 -6674 -6712 0
-9397 6674 0
-9397 6712 0
-2717 6715 9397 0
2717 -6715 0
2717 -9397 0
9398 -6696 -6712 0
-9398 6696 0
-9398 6712 0
-2719 6720 9398 0
2719 -6720 0
2719 -9398 0
9399 -6685 -6696 0
-9399 6685 0
-9399 6696 0
-2701 6725 9399 0
2701 -6725 0
2701 -9399 0
9400 -6685 -6685 0
-9400 6685 0
-9400 6685 0
-2708 6730 9400 0
2708 -6730 0
2708 -9400 0
9401 -6685 -6706 0
-9401 6685 0
-9401 6706 0
-2715 6735 9401 0
2715 -6735 0
2715 -9401 0
9402 -6685 -6712 0
-9402 6685 0
-9402 6712 0
-2722 6740 9402 0
2722 -6740 0
2722 -9402 0
9403 -6691 -6712 0
-9403 6691 0
-9403 6712 0
-2729 6745 9403 0
2729 -6745 0
2729 -9403 0
9404 -6706 -6696 0
-9404 6706 0
-9404 6696 0
-2713 6750 9404 0
2713 -6750 0
2713 -9404 0
9405 -6706 -6691 0
-9405 6706 0
-9405 6691 0
-2734 6755 9405 0
2734 -6755 0
2734 -9405 0
9406 -6706 -6706 0
-9406 6706 0
-9406 6706 0
-2740 6760 9406 0
2740 -6760 0
2740 -9406 0
9407 -7658 -7907 0
-9407 7658 0
-9407 7907 0
9408 -7907 -7907 0
-9408 7907 0
-9408 7907 0
9409 -7907 -7658 0
-9409 7907 0
-9409 7658 0
9410 -7658 -7658 -7916 0
-9410 7658 0
-9410 7658 0
-9410 7916 0
-2891 7659 9407 9408 9409 9410 0
2891 -7659 0
2891 -9407 0
2891 -9408 0
2891 -9409 0
2891 -9410 0
9411 -7658 -8084 0
-9411 7658 0
-9411 8084 0
9412 -7907 -8084 0
-9412 7907 0
-9412 8084 0
9413 -7907 -7661 0
-9413 7907 0
-9413 7661 0
9414 -7658 -7661 -7916 0
-9414 7658 0
-9414 7661 0
-9414 7916 0
-2887 7662 9411 9412 9413 9414 0
2887 -7662 0
2887 -9411 0
2887 -9412 0
2887 -9413 0
2887 -9414 0
9415 -7658 -7906 0
-9415 7658 0
-9415 7906 0
9416 -7907 -7664 0
-9416 7907 0
-9416 7664 0
9417 -7907 -7906 0
-9417 7907 0
-9417 7906 0
9418 -7658 -7664 -7916 0
-9418 7658 0
-9418 7664 0
-9418 7916 0
-2905 7665 9415 9416 9417 9418 0
2905 -7665 0
2905 -9415 0
2905 -9416 0
2905 -9417 0
2905 -9418 0
9419 -7667 -7906 0
-9419 7667 0
-9419 7906 0
9420 -7914 -7906 0
-9420 7914 0
-9420 7906 0
9421 -7914 -7664 0
-9421 7914 0
-9421 7664 0
9422 -7667 -7664 -7916 0
-9422 7667 0
-9422 7664 0
-9422 7916 0
-1374 7668 9419 9420 9421 9422 0
1374 -7668 0
1374 -9419 0
1374 -9420 0
1374 -9421 0
1374 -9422 0
9423 -7658 -7918 0
-9423 7658 0
-9423 7918 0
9424 -7907 -7918 0
-9424 7907 0
-9424 7918 0
9425 -7907 -7670 0
-9425 7907 0
-9425 7670 0
9426 -7658 -7670 -7916 0
-9426 7658 0
-9426 7670 0
-9426 7916 0
-2894 7671 9423 9424 9425 9426 0
2894 -7671 0
2894 -9423 0
2894 -9424 0
2894 -9425 0
2894 -9426 0
9427 -7658 -7920 0
-9427 7658 0
-9427 7920 0
9428 -7907 -7673 0
-9428 7907 0
-9428 7673 0
9429 -7907 -7920 0
-9429 7907 0
-9429 7920 0
9430 -7658 -7673 -7916 0
-9430 7658 0
-9430 7673 0
-9430 7916 0
-2899 7674 9427 9428 9429 9430 0
2899 -7674 0
2899 -9427 0
2899 -9428 0
2899 -9429 0
2899 -9430 0
9431 -7667 -7920 0
-9431 7667 0
-9431 7920 0
9432 -7914 -7920 0
-9432 7914 0
-9432 7920 0
9433 -7914 -7673 0
-9433 7914 0
-9433 7673 0
9434 -7667 -7673 -7916 0
-9434 7667 0
-9434 7673 0
-9434 7916 0
-1371 7676 9431 9432 9433 9434 0
1371 -7676 0
1371 -9431 0
1371 -9432 0
1371 -9433 0
1371 -9434 0
9435 -7661 -7914 0
-9435 7661 0
-9435 7914 0
9436 -8084 -7667 0
-9436 8084 0
-9436 7667 0
9437 -8084 -7914 0
-9437 8084 0
-9437 7914 0
9438 -7661 -7667 -7916 0
-9438 7661 0
-9438 7667 0
-9438 7916 0
-1364 7678 9435 9436 9437 9438 0
1364 -7678 0
1364 -9435 0
1364 -9436 0
1364 -9437 0
1364 -9438 0
9439 -7661 -8084 0
-9439 7661 0
-9439 8084 0
8113 -8084 -8084 0
-8113 8084 0
-8113 8084 0
9440 -8084 -7661 0
-9440 8084 0
-9440 7661 0
9441 -7661 -7661 -7916 0
-9441 7661 0
-9441 7661 0
-9441 7916 0
-1366 7680 9439 8113 9440 9441 0
1366 -7680 0
1366 -9439 0
1366 -8113 0
1366 -9440 0
1366 -9441 0
9442 -7661 -7918 0
-9442 7661 0
-9442 7918 0
9443 -8084 -7918 0
-9443 8084 0
-9443 7918 0
9444 -8084 -7670 0
-9444 8084 0
-9444 7670 0
9445 -7661 -7670 -7916 0
-9445 7661 0
-9445 7670 0
-9445 7916 0
-1369 7682 9442 9443 9444 9445 0
1369 -7682 0
1369 -9442 0
1369 -9443 0
1369 -9444 0
1369 -9445 0
9446 -7661 -7920 0
-9446 7661 0
-9446 7920 0
9447 -8084 -7673 0
-9447 8084 0
-9447 7673 0
9448 -8084 -7920 0
-9448 8084 0
-9448 7920 0
9449 -7661 -7673 -7916 0
-9449 7661 0
-9449 7673 0
-9449 7916 0
-1372 7684 9446 9447 9448 9449 0
1372 -7684 0
1372 -9446 0
1372 -9447 0
1372 -9448 0
1372 -9449 0
9450 -7664 -7920 0
-9450 7664 0
-9450 7920 0
9451 -7906 -7920 0
-9451 7906 0
-9451 7920 0
9452 -7906 -7673 0
-9452 7906 0
-9452 7673 0
9453 -7664 -7673 -7916 0
-9453 7664 0
-9453 7673 0
-9453 7916 0
-1375 7686 9450 9451 9452 9453 0
1375 -7686 0
1375 -9450 0
1375 -9451 0
1375 -9452 0
1375 -9453 0
9454 -7670 -7914 0
-9454 7670 0
-9454 7914 0
9455 -7918 -7667 0
-9455 7918 0
-9455 7667 0
9456 -7918 -7914 0
-9456 7918 0
-9456 7914 0
9457 -7670 -7667 -7916 0
-9457 7670 0
-9457 7667 0
-9457 7916 0
-1368 7688 9454 9455 9456 9457 0
1368 -7688 0
1368 -9454 0
1368 -9455 0
1368 -9456 0
1368 -9457 0
9458 -7670 -7906 0
-9458 7670 0
-9458 7906 0
9459 -7918 -7664 0
-9459 7918 0
-9459 7664 0
9460 -7918 -7906 0
-9460 7918 0
-9460 7906 0
9461 -7670 -7664 -7916 0
-9461 7670 0
-9461 7664 0
-9461 7916 0
-1377 7690 9458 9459 9460 9461 0
1377 -7690 0
1377 -9458 0
1377 -9459 0
1377 -9460 0
1377 -9461 0
9462 -7670 -7918 0
-9462 7670 0
-9462 7918 0
9463 -7918 -7918 0
-9463 7918 0
-9463 7918 0
9464 -7918 -7670 0
-9464 7918 0
-9464 7670 0
9465 -7670 -7670 -7916 0
-9465 7670 0
-9465 7670 0
-9465 7916 0
-1380 7692 9462 9463 9464 9465 0
1380 -7692 0
1380 -9462 0
1380 -9463 0
1380 -9464 0
1380 -9465 0
9466 -7078 -7075 0
-9466 7078 0
-9466 7075 0
9467 -7075 -7075 0
-9467 7075 0
-9467 7075 0
9468 -7075 -7078 0
-9468 7075 0
-9468 7078 0
9469 -7078 -7078 -7096 0
-9469 7078 0
-9469 7078 0
-9469 7096 0
-2271 7063 9466 9467 9468 9469 0
2271 -7063 0
2271 -9466 0
2271 -9467 0
2271 -9468 0
2271 -9469 0
9470 -7078 -7086 0
-9470 7078 0
-9470 7086 0
9471 -7075 -7086 0
-9471 7075 0
-9471 7086 0
9472 -7075 -7088 0
-9472 7075 0
-9472 7088 0
9473 -7078 -7088 -7096 0
-9473 7078 0
-9473 7088 0
-9473 7096 0
-2266 7066 9470 9471 9472 9473 0
2266 -7066 0
2266 -9470 0
2266 -9471 0
2266 -9472 0
2266 -9473 0
9474 -7078 -7094 0
-9474 7078 0
-9474 7094 0
9475 -7075 -7090 0
-9475 7075 0
-9475 7090 0
9476 -7075 -7094 0
-9476 7075 0
-9476 7094 0
9477 -7078 -7090 -7096 0
-9477 7078 0
-9477 7090 0
-9477 7096 0
-2265 7069 9474 9475 9476 9477 0
2265 -7069 0
2265 -9474 0
2265 -9475 0
2265 -9476 0
2265 -9477 0
9478 -7080 -7094 0
-9478 7080 0
-9478 7094 0
9479 -7092 -7094 0
-9479 7092 0
-9479 7094 0
9480 -7092 -7090 0
-9480 7092 0
-9480 7090 0
9481 -7080 -7090 -7096 0
-9481 7080 0
-9481 7090 0
-9481 7096 0
-1451 7072 9478 9479 9480 9481 0
1451 -7072 0
1451 -9478 0
1451 -9479 0
1451 -9480 0
1451 -9481 0
9482 -7078 -8355 0
-9482 7078 0
-9482 8355 0
9483 -7075 -8355 0
-9483 7075 0
-9483 8355 0
9484 -7075 -8196 0
-9484 7075 0
-9484 8196 0
9485 -7078 -8196 -7096 0
-9485 7078 0
-9485 8196 0
-9485 7096 0
-2276 8197 9482 9483 9484 9485 0
2276 -8197 0
2276 -9482 0
2276 -9483 0
2276 -9484 0
2276 -9485 0
9486 -7078 -7074 0
-9486 7078 0
-9486 7074 0
9487 -7075 -7077 0
-9487 7075 0
-9487 7077 0
9488 -7075 -7074 0
-9488 7075 0
-9488 7074 0
9489 -7078 -7077 -7096 0
-9489 7078 0
-9489 7077 0
-9489 7096 0
-2281 7062 9486 9487 9488 9489 0
2281 -7062 0
2281 -9486 0
2281 -9487 0
2281 -9488 0
2281 -9489 0
9490 -7080 -7074 0
-9490 7080 0
-9490 7074 0
9491 -7092 -7074 0
-9491 7092 0
-9491 7074 0
9492 -7092 -7077 0
-9492 7092 0
-9492 7077 0
9493 -7080 -7077 -7096 0
-9493 7080 0
-9493 7077 0
-9493 7096 0
-1448 7071 9490 9491 9492 9493 0
1448 -7071 0
1448 -9490 0
1448 -9491 0
1448 -9492 0
1448 -9493 0
9494 -7088 -7092 0
-9494 7088 0
-9494 7092 0
9495 -7086 -7080 0
-9495 7086 0
-9495 7080 0
9496 -7086 -7092 0
-9496 7086 0
-9496 7092 0
9497 -7088 -7080 -7096 0
-9497 7088 0
-9497 7080 0
-9497 7096 0
-1441 7082 9494 9495 9496 9497 0
1441 -7082 0
1441 -9494 0
1441 -9495 0
1441 -9496 0
1441 -9497 0
9498 -7088 -7086 0
-9498 7088 0
-9498 7086 0
8348 -7086 -7086 0
-8348 7086 0
-8348 7086 0
9499 -7086 -7088 0
-9499 7086 0
-9499 7088 0
9500 -7088 -7088 -7096 0
-9500 7088 0
-9500 7088 0
-9500 7096 0
-1443 7084 9498 8348 9499 9500 0
1443 -7084 0
1443 -9498 0
1443 -8348 0
1443 -9499 0
1443 -9500 0
9501 -7088 -8355 0
-9501 7088 0
-9501 8355 0
9502 -7086 -8355 0
-9502 7086 0
-9502 8355 0
9503 -7086 -8196 0
-9503 7086 0
-9503 8196 0
9504 -7088 -8196 -7096 0
-9504 7088 0
-9504 8196 0
-9504 7096 0
-1446 8203 9501 9502 9503 9504 0
1446 -8203 0
1446 -9501 0
1446 -9502 0
1446 -9503 0
1446 -9504 0
9505 -7088 -7074 0
-9505 7088 0
-9505 7074 0
9506 -7086 -7077 0
-9506 7086 0
-9506 7077 0
9507 -7086 -7074 0
-9507 7086 0
-9507 7074 0
9508 -7088 -7077 -7096 0
-9508 7088 0
-9508 7077 0
-9508 7096 0
-1449 7065 9505 9506 9507 9508 0
1449 -7065 0
1449 -9505 0
1449 -9506 0
1449 -9507 0
1449 -9508 0
9509 -7090 -7074 0
-9509 7090 0
-9509 7074 0
9510 -7094 -7074 0
-9510 7094 0
-9510 7074 0
9511 -7094 -7077 0
-9511 7094 0
-9511 7077 0
9512 -7090 -7077 -7096 0
-9512 7090 0
-9512 7077 0
-9512 7096 0
-1452 7068 9509 9510 9511 9512 0
1452 -7068 0
1452 -9509 0
1452 -9510 0
1452 -9511 0
1452 -9512 0
9513 -8196 -7092 0
-9513 8196 0
-9513 7092 0
9514 -8355 -7080 0
-9514 8355 0
-9514 7080 0
9515 -8355 -7092 0
-9515 8355 0
-9515 7092 0
9516 -8196 -7080 -7096 0
-9516 8196 0
-9516 7080 0
-9516 7096 0
-1445 8207 9513 9514 9515 9516 0
1445 -8207 0
1445 -9513 0
1445 -9514 0
1445 -9515 0
1445 -9516 0
9517 -8196 -7094 0
-9517 8196 0
-9517 7094 0
9518 -8355 -7090 0
-9518 8355 0
-9518 7090 0
9519 -8355 -7094 0
-9519 8355 0
-9519 7094 0
9520 -8196 -7090 -7096 0
-9520 8196 0
-9520 7090 0
-9520 7096 0
-1454 8209 9517 9518 9519 9520 0
1454 -8209 0
1454 -9517 0
1454 -9518 0
1454 -9519 0
1454 -9520 0
9521 -8196 -8355 0
-9521 8196 0
-9521 8355 0
9522 -8355 -8355 0
-9522 8355 0
-9522 8355 0
9523 -8355 -8196 0
-9523 8355 0
-9523 8196 0
9524 -8196 -8196 -7096 0
-9524 8196 0
-9524 8196 0
-9524 7096 0
-1457 8211 9521 9522 9523 9524 0
1457 -8211 0
1457 -9521 0
1457 -9522 0
1457 -9523 0
1457 -9524 0
9525 -8213 -8213 0
-9525 8213 0
-9525 8213 0
-6311 8219 9525 0
6311 -8219 0
6311 -9525 0
9526 -8213 -8224 0
-9526 8213 0
-9526 8224 0
-6307 8226 9526 0
6307 -8226 0
6307 -9526 0
9527 -8213 -8230 0
-9527 8213 0
-9527 8230 0
-6325 8233 9527 0
6325 -8233 0
6325 -9527 0
9528 -8235 -8230 0
-9528 8235 0
-9528 8230 0
-3085 8240 9528 0
3085 -8240 0
3085 -9528 0
9529 -8213 -8245 0
-9529 8213 0
-9529 8245 0
-6314 8247 9529 0
6314 -8247 0
6314 -9529 0
9530 -8213 -8251 0
-9530 8213 0
-9530 8251 0
-6319 8254 9530 0
6319 -8254 0
6319 -9530 0
9531 -8235 -8251 0
-9531 8235 0
-9531 8251 0
-3082 8259 9531 0
3082 -8259 0
3082 -9531 0
9532 -8224 -8235 0
-9532 8224 0
-9532 8235 0
-3075 8264 9532 0
3075 -8264 0
3075 -9532 0
9533 -8224 -8224 0
-9533 8224 0
-9533 8224 0
-3077 8269 9533 0
3077 -8269 0
3077 -9533 0
9534 -8224 -8245 0
-9534 8224 0
-9534 8245 0
-3080 8274 9534 0
3080 -8274 0
3080 -9534 0
9535 -8224 -8251 0
-9535 8224 0
-9535 8251 0
-3083 8279 9535 0
3083 -8279 0
3083 -9535 0
9536 -8230 -8251 0
-9536 8230 0
-9536 8251 0
-3086 8284 9536 0
3086 -8284 0
3086 -9536 0
9537 -8245 -8235 0
-9537 8245 0
-9537 8235 0
-3079 8289 9537 0
3079 -8289 0
3079 -9537 0
9538 -8245 -8230 0
-9538 8245 0
-9538 8230 0
-3088 8294 9538 0
3088 -8294 0
3088 -9538 0
9539 -8245 -8245 0
-9539 8245 0
-9539 8245 0
-3091 8299 9539 0
3091 -8299 0
3091 -9539 0
9540 -9541 -9542 0
-9540 9541 0
-9540 9542 0
9543 -9542 -9542 0
-9543 9542 0
-9543 9542 0
9544 -9542 -9541 0
-9544 9542 0
-9544 9541 0
9545 -9541 -9541 -9546 0
-9545 9541 0
-9545 9541 0
-9545 9546 0
-4256 9547 9540 9543 9544 9545 0
4256 -9547 0
4256 -9540 0
4256 -9543 0
4256 -9544 0
4256 -9545 0
9548 -9541 -9549 0
-9548 9541 0
-9548 9549 0
9550 -9542 -9549 0
-9550 9542 0
-9550 9549 0
9551 -9542 -9552 0
-9551 9542 0
-9551 9552 0
9553 -9541 -9552 -9546 0
-9553 9541 0
-9553 9552 0
-9553 9546 0
-4252 9554 9548 9550 9551 9553 0
4252 -9554 0
4252 -9548 0
4252 -9550 0
4252 -9551 0
4252 -9553 0
9555 -9541 -9556 0
-9555 9541 0
-9555 9556 0
9557 -9542 -9558 0
-9557 9542 0
-9557 9558 0
9559 -9542 -9556 0
-9559 9542 0
-9559 9556 0
9560 -9541 -9558 -9546 0
-9560 9541 0
-9560 9558 0
-9560 9546 0
-4270 9561 9555 9557 9559 9560 0
4270 -9561 0
4270 -9555 0
4270 -9557 0
4270 -9559 0
4270 -9560 0
9562 -9563 -9556 0
-9562 9563 0
-9562 9556 0
9564 -9565 -9556 0
-9564 9565 0
-9564 9556 0
9566 -9565 -9558 0
-9566 9565 0
-9566 9558 0
9567 -9563 -9558 -9546 0
-9567 9563 0
-9567 9558 0
-9567 9546 0
-2227 9568 9562 9564 9566 9567 0
2227 -9568 0
2227 -9562 0
2227 -9564 0
2227 -9566 0
2227 -9567 0
9569 -9541 -9570 0
-9569 9541 0
-9569 9570 0
9571 -9542 -9570 0
-9571 9542 0
-9571 9570 0
9572 -9542 -9573 0
-9572 9542 0
-9572 9573 0
9574 -9541 -9573 -9546 0
-9574 9541 0
-9574 9573 0
-9574 9546 0
-4259 9575 9569 9571 9572 9574 0
4259 -9575 0
4259 -9569 0
4259 -9571 0
4259 -9572 0
4259 -9574 0
9576 -9541 -9577 0
-9576 9541 0
-9576 9577 0
9578 -9542 -9579 0
-9578 9542 0
-9578 9579 0
9580 -9542 -9577 0
-9580 9542 0
-9580 9577 0
9581 -9541 -9579 -9546 0
-9581 9541 0
-9581 9579 0
-9581 9546 0
-4264 9582 9576 9578 9580 9581 0
4264 -9582 0
4264 -9576 0
4264 -9578 0
4264 -9580 0
4264 -9581 0
9583 -9563 -9577 0
-9583 9563 0
-9583 9577 0
9584 -9565 -9577 0
-9584 9565 0
-9584 9577 0
9585 -9565 -9579 0
-9585 9565 0
-9585 9579 0
9586 -9563 -9579 -9546 0
-9586 9563 0
-9586 9579 0
-9586 9546 0
-2224 9587 9583 9584 9585 9586 0
2224 -9587 0
2224 -9583 0
2224 -9584 0
2224 -9585 0
2224 -9586 0
9588 -9552 -9565 0
-9588 9552 0
-9588 9565 0
9589 -9549 -9563 0
-9589 9549 0
-9589 9563 0
9590 -9549 -9565 0
-9590 9549 0
-9590 9565 0
9591 -9552 -9563 -9546 0
-9591 9552 0
-9591 9563 0
-9591 9546 0
-2217 9592 9588 9589 9590 9591 0
2217 -9592 0
2217 -9588 0
2217 -9589 0
2217 -9590 0
2217 -9591 0
9593 -9552 -9549 0
-9593 9552 0
-9593 9549 0
9594 -9549 -9549 0
-9594 9549 0
-9594 9549 0
9595 -9549 -9552 0
-9595 9549 0
-9595 9552 0
9596 -9552 -9552 -9546 0
-9596 9552 0
-9596 9552 0
-9596 9546 0
-2219 9597 9593 9594 9595 9596 0
2219 -9597 0
2219 -9593 0
2219 -9594 0
2219 -9595 0
2219 -9596 0
9598 -9552 -9570 0
-9598 9552 0
-9598 9570 0
9599 -9549 -9570 0
-9599 9549 0
-9599 9570 0
9600 -9549 -9573 0
-9600 9549 0
-9600 9573 0
9601 -9552 -9573 -9546 0
-9601 9552 0
-9601 9573 0
-9601 9546 0
-2222 9602 9598 9599 9600 9601 0
2222 -9602 0
2222 -9598 0
2222 -9599 0
2222 -9600 0
2222 -9601 0
9603 -9552 -9577 0
-9603 9552 0
-9603 9577 0
9604 -9549 -9579 0
-9604 9549 0
-9604 9579 0
9605 -9549 -9577 0
-9605 9549 0
-9605 9577 0
9606 -9552 -9579 -9546 0
-9606 9552 0
-9606 9579 0
-9606 9546 0
-2225 9607 9603 9604 9605 9606 0
2225 -9607 0
2225 -9603 0
2225 -9604 0
2225 -9605 0
2225 -9606 0
9608 -9558 -9577 0
-9608 9558 0
-9608 9577 0
9609 -9556 -9577 0
-9609 9556 0
-9609 9577 0
9610 -9556 -9579 0
-9610 9556 0
-9610 9579 0
9611 -9558 -9579 -9546 0
-9611 9558 0
-9611 9579 0
-9611 9546 0
-2228 9612 9608 9609 9610 9611 0
2228 -9612 0
2228 -9608 0
2228 -9609 0
2228 -9610 0
2228 -9611 0
9613 -9573 -9565 0
-9613 9573 0
-9613 9565 0
9614 -9570 -9563 0
-9614 9570 0
-9614 9563 0
9615 -9570 -9565 0
-9615 9570 0
-9615 9565 0
9616 -9573 -9563 -9546 0
-9616 9573 0
-9616 9563 0
-9616 9546 0
-2221 9617 9613 9614 9615 9616 0
2221 -9617 0
2221 -9613 0
2221 -9614 0
2221 -9615 0
2221 -9616 0
9618 -9573 -9556 0
-9618 9573 0
-9618 9556 0
9619 -9570 -9558 0
-9619 9570 0
-9619 9558 0
9620 -9570 -9556 0
-9620 9570 0
-9620 9556 0
9621 -9573 -9558 -9546 0
-9621 9573 0
-9621 9558 0
-9621 9546 0
-2230 9622 9618 9619 9620 9621 0
2230 -9622 0
2230 -9618 0
2230 -9619 0
2230 -9620 0
2230 -9621 0
9623 -9573 -9570 0
-9623 9573 0
-9623 9570 0
9624 -9570 -9570 0
-9624 9570 0
-9624 9570 0
9625 -9570 -9573 0
-9625 9570 0
-9625 9573 0
9626 -9573 -9573 -9546 0
-9626 9573 0
-9626 9573 0
-9626 9546 0
-2233 9627 9623 9624 9625 9626 0
2233 -9627 0
2233 -9623 0
2233 -9624 0
2233 -9625 0
2233 -9626 0
9628 -7432 -7432 0
-9628 7432 0
-9628 7432 0
-3329 7417 9628 0
3329 -7417 0
3329 -9628 0
9629 -7432 -7442 0
-9629 7432 0
-9629 7442 0
-3325 7420 9629 0
3325 -7420 0
3325 -9629 0
9630 -7432 -7444 0
-9630 7432 0
-9630 7444 0
-3349 7423 9630 0
3349 -7423 0
3349 -9630 0
9631 -7434 -7444 0
-9631 7434 0
-9631 7444 0
-3347 7426 9631 0
3347 -7426 0
3347 -9631 0
9632 -7432 -7977 0
-9632 7432 0
-9632 7977 0
-3333 7964 9632 0
3333 -7964 0
3333 -9632 0
9633 -7432 -7431 0
-9633 7432 0
-9633 7431 0
-3340 7416 9633 0
3340 -7416 0
3340 -9633 0
9634 -7434 -7431 0
-9634 7434 0
-9634 7431 0
-3342 7425 9634 0
3342 -7425 0
3342 -9634 0
9635 -7442 -7434 0
-9635 7442 0
-9635 7434 0
-3324 7436 9635 0
3324 -7436 0
3324 -9635 0
9636 -7442 -7442 0
-9636 7442 0
-9636 7442 0
-3331 7438 9636 0
3331 -7438 0
3331 -9636 0
9637 -7442 -7977 0
-9637 7442 0
-9637 7977 0
-3338 8601 9637 0
3338 -8601 0
3338 -9637 0
9638 -7442 -7431 0
-9638 7442 0
-9638 7431 0
-3345 7419 9638 0
3345 -7419 0
3345 -9638 0
9639 -7444 -7431 0
-9639 7444 0
-9639 7431 0
-3352 7422 9639 0
3352 -7422 0
3352 -9639 0
9640 -7977 -7434 0
-9640 7977 0
-9640 7434 0
-3336 7971 9640 0
3336 -7971 0
3336 -9640 0
9641 -7977 -7444 0
-9641 7977 0
-9641 7444 0
-3357 7963 9641 0
3357 -7963 0
3357 -9641 0
9642 -7977 -7977 0
-9642 7977 0
-9642 7977 0
-3363 7973 9642 0
3363 -7973 0
3363 -9642 0
9643 -7933 -7930 0
-9643 7933 0
-9643 7930 0
9644 -7930 -7930 0
-9644 7930 0
-9644 7930 0
9645 -7930 -7933 0
-9645 7930 0
-9645 7933 0
9646 -7933 -7933 -7948 0
-9646 7933 0
-9646 7933 0
-9646 7948 0
-2398 7927 9643 9644 9645 9646 0
2398 -7927 0
2398 -9643 0
2398 -9644 0
2398 -9645 0
2398 -9646 0
9647 -7933 -8383 0
-9647 7933 0
-9647 8383 0
9648 -7930 -8383 0
-9648 7930 0
-9648 8383 0
9649 -7930 -8388 0
-9649 7930 0
-9649 8388 0
9650 -7933 -8388 -7948 0
-9650 7933 0
-9650 8388 0
-9650 7948 0
-3538 8377 9647 9648 9649 9650 0
3538 -8377 0
3538 -9647 0
3538 -9648 0
3538 -9649 0
3538 -9650 0
9651 -7933 -7929 0
-9651 7933 0
-9651 7929 0
9652 -7930 -7932 0
-9652 7930 0
-9652 7932 0
9653 -7930 -7929 0
-9653 7930 0
-9653 7929 0
9654 -7933 -7932 -7948 0
-9654 7933 0
-9654 7932 0
-9654 7948 0
-2396 7926 9651 9652 9653 9654 0
2396 -7926 0
2396 -9651 0
2396 -9652 0
2396 -9653 0
2396 -9654 0
9655 -7936 -7929 0
-9655 7936 0
-9655 7929 0
9656 -7946 -7929 0
-9656 7946 0
-9656 7929 0
9657 -7946 -7932 0
-9657 7946 0
-9657 7932 0
9658 -7936 -7932 -7948 0
-9658 7936 0
-9658 7932 0
-9658 7948 0
-2406 7935 9655 9656 9657 9658 0
2406 -7935 0
2406 -9655 0
2406 -9656 0
2406 -9657 0
2406 -9658 0
9659 -7933 -7950 0
-9659 7933 0
-9659 7950 0
9660 -7930 -7950 0
-9660 7930 0
-9660 7950 0
9661 -7930 -7958 0
-9661 7930 0
-9661 7958 0
9662 -7933 -7958 -7948 0
-9662 7933 0
-9662 7958 0
-9662 7948 0
-2401 7939 9659 9660 9661 9662 0
2401 -7939 0
2401 -9659 0
2401 -9660 0
2401 -9661 0
2401 -9662 0
9663 -7933 -7952 0
-9663 7933 0
-9663 7952 0
9664 -7930 -7954 0
-9664 7930 0
-9664 7954 0
9665 -7930 -7952 0
-9665 7930 0
-9665 7952 0
9666 -7933 -7954 -7948 0
-9666 7933 0
-9666 7954 0
-9666 7948 0
-2404 7942 9663 9664 9665 9666 0
2404 -7942 0
2404 -9663 0
2404 -9664 0
2404 -9665 0
2404 -9666 0
9667 -7936 -7952 0
-9667 7936 0
-9667 7952 0
9668 -7946 -7952 0
-9668 7946 0
-9668 7952 0
9669 -7946 -7954 0
-9669 7946 0
-9669 7954 0
9670 -7936 -7954 -7948 0
-9670 7936 0
-9670 7954 0
-9670 7948 0
-2407 7944 9667 9668 9669 9670 0
2407 -7944 0
2407 -9667 0
2407 -9668 0
2407 -9669 0
2407 -9670 0
9671 -8388 -7946 0
-9671 8388 0
-9671 7946 0
9672 -8383 -7936 0
-9672 8383 0
-9672 7936 0
9673 -8383 -7946 0
-9673 8383 0
-9673 7946 0
9674 -8388 -7936 -7948 0
-9674 8388 0
-9674 7936 0
-9674 7948 0
-3556 8394 9671 9672 9673 9674 0
3556 -8394 0
3556 -9671 0
3556 -9672 0
3556 -9673 0
3556 -9674 0
9675 -8388 -8383 0
-9675 8388 0
-9675 8383 0
8416 -8383 -8383 0
-8416 8383 0
-8416 8383 0
9676 -8383 -8388 0
-9676 8383 0
-9676 8388 0
9677 -8388 -8388 -7948 0
-9677 8388 0
-9677 8388 0
-9677 7948 0
-3542 8381 9675 8416 9676 9677 0
3542 -8381 0
3542 -9675 0
3542 -8416 0
3542 -9676 0
3542 -9677 0
9678 -8388 -7950 0
-9678 8388 0
-9678 7950 0
9679 -8383 -7950 0
-9679 8383 0
-9679 7950 0
9680 -8383 -7958 0
-9680 8383 0
-9680 7958 0
9681 -8388 -7958 -7948 0
-9681 8388 0
-9681 7958 0
-9681 7948 0
-3545 8398 9678 9679 9680 9681 0
3545 -8398 0
3545 -9678 0
3545 -9679 0
3545 -9680 0
3545 -9681 0
9682 -8388 -7952 0
-9682 8388 0
-9682 7952 0
9683 -8383 -7954 0
-9683 8383 0
-9683 7954 0
9684 -8383 -7952 0
-9684 8383 0
-9684 7952 0
9685 -8388 -7954 -7948 0
-9685 8388 0
-9685 7954 0
-9685 7948 0
-3550 8403 9682 9683 9684 9685 0
3550 -8403 0
3550 -9682 0
3550 -9683 0
3550 -9684 0
3550 -9685 0
9686 -7932 -7952 0
-9686 7932 0
-9686 7952 0
9687 -7929 -7952 0
-9687 7929 0
-9687 7952 0
9688 -7929 -7954 0
-9688 7929 0
-9688 7954 0
9689 -7932 -7954 -7948 0
-9689 7932 0
-9689 7954 0
-9689 7948 0
-2403 7941 9686 9687 9688 9689 0
2403 -7941 0
2403 -9686 0
2403 -9687 0
2403 -9688 0
2403 -9689 0
9690 -7958 -7946 0
-9690 7958 0
-9690 7946 0
9691 -7950 -7936 0
-9691 7950 0
-9691 7936 0
9692 -7950 -7946 0
-9692 7950 0
-9692 7946 0
9693 -7958 -7936 -7948 0
-9693 7958 0
-9693 7936 0
-9693 7948 0
-2409 7956 9690 9691 9692 9693 0
2409 -7956 0
2409 -9690 0
2409 -9691 0
2409 -9692 0
2409 -9693 0
9694 -7958 -7929 0
-9694 7958 0
-9694 7929 0
9695 -7950 -7932 0
-9695 7950 0
-9695 7932 0
9696 -7950 -7929 0
-9696 7950 0
-9696 7929 0
9697 -7958 -7932 -7948 0
-9697 7958 0
-9697 7932 0
-9697 7948 0
-2400 7938 9694 9695 9696 9697 0
2400 -7938 0
2400 -9694 0
2400 -9695 0
2400 -9696 0
2400 -9697 0
9698 -7958 -7950 0
-9698 7958 0
-9698 7950 0
9699 -7950 -7950 0
-9699 7950 0
-9699 7950 0
9700 -7950 -7958 0
-9700 7950 0
-9700 7958 0
9701 -7958 -7958 -7948 0
-9701 7958 0
-9701 7958 0
-9701 7948 0
-2412 7960 9698 9699 9700 9701 0
2412 -7960 0
2412 -9698 0
2412 -9699 0
2412 -9700 0
2412 -9701 0
9702 -8526 -9703 0
-9702 8526 0
-9702 9703 0
9704 -9703 -9703 0
-9704 9703 0
-9704 9703 0
9705 -9703 -8526 0
-9705 9703 0
-9705 8526 0
9706 -8526 -8526 -9707 0
-9706 8526 0
-9706 8526 0
-9706 9707 0
-2460 8527 9702 9704 9705 9706 0
2460 -8527 0
2460 -9702 0
2460 -9704 0
2460 -9705 0
2460 -9706 0
9708 -8526 -9709 0
-9708 8526 0
-9708 9709 0
9710 -9703 -9709 0
-9710 9703 0
-9710 9709 0
9711 -9703 -8529 0
-9711 9703 0
-9711 8529 0
9712 -8526 -8529 -9707 0
-9712 8526 0
-9712 8529 0
-9712 9707 0
-2456 8530 9708 9710 9711 9712 0
2456 -8530 0
2456 -9708 0
2456 -9710 0
2456 -9711 0
2456 -9712 0
9713 -8526 -9714 0
-9713 8526 0
-9713 9714 0
9715 -9703 -8532 0
-9715 9703 0
-9715 8532 0
9716 -9703 -9714 0
-9716 9703 0
-9716 9714 0
9717 -8526 -8532 -9707 0
-9717 8526 0
-9717 8532 0
-9717 9707 0
-2480 8533 9713 9715 9716 9717 0
2480 -8533 0
2480 -9713 0
2480 -9715 0
2480 -9716 0
2480 -9717 0
9718 -8535 -9714 0
-9718 8535 0
-9718 9714 0
9719 -9720 -9714 0
-9719 9720 0
-9719 9714 0
9721 -9720 -8532 0
-9721 9720 0
-9721 8532 0
9722 -8535 -8532 -9707 0
-9722 8535 0
-9722 8532 0
-9722 9707 0
-2478 8536 9718 9719 9721 9722 0
2478 -8536 0
2478 -9718 0
2478 -9719 0
2478 -9721 0
2478 -9722 0
9723 -8526 -9724 0
-9723 8526 0
-9723 9724 0
9725 -9703 -9724 0
-9725 9703 0
-9725 9724 0
9726 -9703 -8538 0
-9726 9703 0
-9726 8538 0
9727 -8526 -8538 -9707 0
-9727 8526 0
-9727 8538 0
-9727 9707 0
-2464 8539 9723 9725 9726 9727 0
2464 -8539 0
2464 -9723 0
2464 -9725 0
2464 -9726 0
2464 -9727 0
9728 -8526 -9729 0
-9728 8526 0
-9728 9729 0
9730 -9703 -8541 0
-9730 9703 0
-9730 8541 0
9731 -9703 -9729 0
-9731 9703 0
-9731 9729 0
9732 -8526 -8541 -9707 0
-9732 8526 0
-9732 8541 0
-9732 9707 0
-2471 8542 9728 9730 9731 9732 0
2471 -8542 0
2471 -9728 0
2471 -9730 0
2471 -9731 0
2471 -9732 0
9733 -8535 -9729 0
-9733 8535 0
-9733 9729 0
9734 -9720 -9729 0
-9734 9720 0
-9734 9729 0
9735 -9720 -8541 0
-9735 9720 0
-9735 8541 0
9736 -8535 -8541 -9707 0
-9736 8535 0
-9736 8541 0
-9736 9707 0
-2473 8544 9733 9734 9735 9736 0
2473 -8544 0
2473 -9733 0
2473 -9734 0
2473 -9735 0
2473 -9736 0
9737 -8529 -9720 0
-9737 8529 0
-9737 9720 0
9738 -9709 -8535 0
-9738 9709 0
-9738 8535 0
9739 -9709 -9720 0
-9739 9709 0
-9739 9720 0
9740 -8529 -8535 -9707 0
-9740 8529 0
-9740 8535 0
-9740 9707 0
-2455 8546 9737 9738 9739 9740 0
2455 -8546 0
2455 -9737 0
2455 -9738 0
2455 -9739 0
2455 -9740 0
9741 -8529 -9709 0
-9741 8529 0
-9741 9709 0
9742 -9709 -9709 0
-9742 9709 0
-9742 9709 0
9743 -9709 -8529 0
-9743 9709 0
-9743 8529 0
9744 -8529 -8529 -9707 0
-9744 8529 0
-9744 8529 0
-9744 9707 0
-2462 8548 9741 9742 9743 9744 0
2462 -8548 0
2462 -9741 0
2462 -9742 0
2462 -9743 0
2462 -9744 0
9745 -8529 -9724 0
-9745 8529 0
-9745 9724 0
9746 -9709 -9724 0
-9746 9709 0
-9746 9724 0
9747 -9709 -8538 0
-9747 9709 0
-9747 8538 0
9748 -8529 -8538 -9707 0
-9748 8529 0
-9748 8538 0
-9748 9707 0
-2469 8550 9745 9746 9747 9748 0
2469 -8550 0
2469 -9745 0
2469 -9746 0
2469 -9747 0
2469 -9748 0
9749 -8529 -9729 0
-9749 8529 0
-9749 9729 0
9750 -9709 -8541 0
-9750 9709 0
-9750 8541 0
9751 -9709 -9729 0
-9751 9709 0
-9751 9729 0
9752 -8529 -8541 -9707 0
-9752 8529 0
-9752 8541 0
-9752 9707 0
-2476 8552 9749 9750 9751 9752 0
2476 -8552 0
2476 -9749 0
2476 -9750 0
2476 -9751 0
2476 -9752 0
9753 -8532 -9729 0
-9753 8532 0
-9753 9729 0
9754 -9714 -9729 0
-9754 9714 0
-9754 9729 0
9755 -9714 -8541 0
-9755 9714 0
-9755 8541 0
9756 -8532 -8541 -9707 0
-9756 8532 0
-9756 8541 0
-9756 9707 0
-2483 8554 9753 9754 9755 9756 0
2483 -8554 0
2483 -9753 0
2483 -9754 0
2483 -9755 0
2483 -9756 0
9757 -8538 -9720 0
-9757 8538 0
-9757 9720 0
9758 -9724 -8535 0
-9758 9724 0
-9758 8535 0
9759 -9724 -9720 0
-9759 9724 0
-9759 9720 0
9760 -8538 -8535 -9707 0
-9760 8538 0
-9760 8535 0
-9760 9707 0
-2467 8556 9757 9758 9759 9760 0
2467 -8556 0
2467 -9757 0
2467 -9758 0
2467 -9759 0
2467 -9760 0
9761 -8538 -9714 0
-9761 8538 0
-9761 9714 0
9762 -9724 -8532 0
-9762 9724 0
-9762 8532 0
9763 -9724 -9714 0
-9763 9724 0
-9763 9714 0
9764 -8538 -8532 -9707 0
-9764 8538 0
-9764 8532 0
-9764 9707 0
-2488 8558 9761 9762 9763 9764 0
2488 -8558 0
2488 -9761 0
2488 -9762 0
2488 -9763 0
2488 -9764 0
9765 -8538 -9724 0
-9765 8538 0
-9765 9724 0
9766 -9724 -9724 0
-9766 9724 0
-9766 9724 0
9767 -9724 -8538 0
-9767 9724 0
-9767 8538 0
9768 -8538 -8538 -9707 0
-9768 8538 0
-9768 8538 0
-9768 9707 0
-2494 8560 9765 9766 9767 9768 0
2494 -8560 0
2494 -9765 0
2494 -9766 0
2494 -9767 0
2494 -9768 0
9769 -9770 -9771 0
-9769 9770 0
-9769 9771 0
9772 -9771 -9771 0
-9772 9771 0
-9772 9771 0
9773 -9771 -9770 0
-9773 9771 0
-9773 9770 0
9774 -9770 -9770 -9775 0
-9774 9770 0
-9774 9770 0
-9774 9775 0
-2181 9776 9769 9772 9773 9774 0
2181 -9776 0
2181 -9769 0
2181 -9772 0
2181 -9773 0
2181 -9774 0
9777 -9770 -9778 0
-9777 9770 0
-9777 9778 0
9779 -9771 -9778 0
-9779 9771 0
-9779 9778 0
9780 -9771 -9781 0
-9780 9771 0
-9780 9781 0
9782 -9770 -9781 -9775 0
-9782 9770 0
-9782 9781 0
-9782 9775 0
-2177 9783 9777 9779 9780 9782 0
2177 -9783 0
2177 -9777 0
2177 -9779 0
2177 -9780 0
2177 -9782 0
9784 -9770 -9785 0
-9784 9770 0
-9784 9785 0
9786 -9771 -9787 0
-9786 9771 0
-9786 9787 0
9788 -9771 -9785 0
-9788 9771 0
-9788 9785 0
9789 -9770 -9787 -9775 0
-9789 9770 0
-9789 9787 0
-9789 9775 0
-2201 9790 9784 9786 9788 9789 0
2201 -9790 0
2201 -9784 0
2201 -9786 0
2201 -9788 0
2201 -9789 0
9791 -9792 -9785 0
-9791 9792 0
-9791 9785 0
9793 -9794 -9785 0
-9793 9794 0
-9793 9785 0
9795 -9794 -9787 0
-9795 9794 0
-9795 9787 0
9796 -9792 -9787 -9775 0
-9796 9792 0
-9796 9787 0
-9796 9775 0
-2199 9797 9791 9793 9795 9796 0
2199 -9797 0
2199 -9791 0
2199 -9793 0
2199 -9795 0
2199 -9796 0
9798 -9770 -9799 0
-9798 9770 0
-9798 9799 0
9800 -9771 -9799 0
-9800 9771 0
-9800 9799 0
9801 -9771 -9802 0
-9801 9771 0
-9801 9802 0
9803 -9770 -9802 -9775 0
-9803 9770 0
-9803 9802 0
-9803 9775 0
-2185 9804 9798 9800 9801 9803 0
2185 -9804 0
2185 -9798 0
2185 -9800 0
2185 -9801 0
2185 -9803 0
9805 -9770 -9806 0
-9805 9770 0
-9805 9806 0
9807 -9771 -9808 0
-9807 9771 0
-9807 9808 0
9809 -9771 -9806 0
-9809 9771 0
-9809 9806 0
9810 -9770 -9808 -9775 0
-9810 9770 0
-9810 9808 0
-9810 9775 0
-2192 9811 9805 9807 9809 9810 0
2192 -9811 0
2192 -9805 0
2192 -9807 0
2192 -9809 0
2192 -9810 0
9812 -9792 -9806 0
-9812 9792 0
-9812 9806 0
9813 -9794 -9806 0
-9813 9794 0
-9813 9806 0
9814 -9794 -9808 0
-9814 9794 0
-9814 9808 0
9815 -9792 -9808 -9775 0
-9815 9792 0
-9815 9808 0
-9815 9775 0
-2194 9816 9812 9813 9814 9815 0
2194 -9816 0
2194 -9812 0
2194 -9813 0
2194 -9814 0
2194 -9815 0
9817 -9781 -9794 0
-9817 9781 0
-9817 9794 0
9818 -9778 -9792 0
-9818 9778 0
-9818 9792 0
9819 -9778 -9794 0
-9819 9778 0
-9819 9794 0
9820 -9781 -9792 -9775 0
-9820 9781 0
-9820 9792 0
-9820 9775 0
-2176 9821 9817 9818 9819 9820 0
2176 -9821 0
2176 -9817 0
2176 -9818 0
2176 -9819 0
2176 -9820 0
9822 -9781 -9778 0
-9822 9781 0
-9822 9778 0
9823 -9778 -9778 0
-9823 9778 0
-9823 9778 0
9824 -9778 -9781 0
-9824 9778 0
-9824 9781 0
9825 -9781 -9781 -9775 0
-9825 9781 0
-9825 9781 0
-9825 9775 0
-2183 9826 9822 9823 9824 9825 0
2183 -9826 0
2183 -9822 0
2183 -9823 0
2183 -9824 0
2183 -9825 0
9827 -9781 -9799 0
-9827 9781 0
-9827 9799 0
9828 -9778 -9799 0
-9828 9778 0
-9828 9799 0
9829 -9778 -9802 0
-9829 9778 0
-9829 9802 0
9830 -9781 -9802 -9775 0
-9830 9781 0
-9830 9802 0
-9830 9775 0
-2190 9831 9827 9828 9829 9830 0
2190 -9831 0
2190 -9827 0
2190 -9828 0
2190 -9829 0
2190 -9830 0
9832 -9781 -9806 0
-9832 9781 0
-9832 9806 0
9833 -9778 -9808 0
-9833 9778 0
-9833 9808 0
9834 -9778 -9806 0
-9834 9778 0
-9834 9806 0
9835 -9781 -9808 -9775 0
-9835 9781 0
-9835 9808 0
-9835 9775 0
-2197 9836 9832 9833 9834 9835 0
2197 -9836 0
2197 -9832 0
2197 -9833 0
2197 -9834 0
2197 -9835 0
9837 -9787 -9806 0
-9837 9787 0
-9837 9806 0
9838 -9785 -9806 0
-9838 9785 0
-9838 9806 0
9839 -9785 -9808 0
-9839 9785 0
-9839 9808 0
9840 -9787 -9808 -9775 0
-9840 9787 0
-9840 9808 0
-9840 9775 0
-2204 9841 9837 9838 9839 9840 0
2204 -9841 0
2204 -9837 0
2204 -9838 0
2204 -9839 0
2204 -9840 0
9842 -9802 -9794 0
-9842 9802 0
-9842 9794 0
9843 -9799 -9792 0
-9843 9799 0
-9843 9792 0
9844 -9799 -9794 0
-9844 9799 0
-9844 9794 0
9845 -9802 -9792 -9775 0
-9845 9802 0
-9845 9792 0
-9845 9775 0
-2188 9846 9842 9843 9844 9845 0
2188 -9846 0
2188 -9842 0
2188 -9843 0
2188 -9844 0
2188 -9845 0
9847 -9802 -9785 0
-9847 9802 0
-9847 9785 0
9848 -9799 -9787 0
-9848 9799 0
-9848 9787 0
9849 -9799 -9785 0
-9849 9799 0
-9849 9785 0
9850 -9802 -9787 -9775 0
-9850 9802 0
-9850 9787 0
-9850 9775 0
-2209 9851 9847 9848 9849 9850 0
2209 -9851 0
2209 -9847 0
2209 -9848 0
2209 -9849 0
2209 -9850 0
9852 -9802 -9799 0
-9852 9802 0
-9852 9799 0
9853 -9799 -9799 0
-9853 9799 0
-9853 9799 0
9854 -9799 -9802 0
-9854 9799 0
-9854 9802 0
9855 -9802 -9802 -9775 0
-9855 9802 0
-9855 9802 0
-9855 9775 0
-2215 9856 9852 9853 9854 9855 0
2215 -9856 0
2215 -9852 0
2215 -9853 0
2215 -9854 0
2215 -9855 0
9857 -7864 -7861 0
-9857 7864 0
-9857 7861 0
9858 -7861 -7861 0
-9858 7861 0
-9858 7861 0
9859 -7861 -7864 0
-9859 7861 0
-9859 7864 0
9860 -7864 -7864 -7882 0
-9860 7864 0
-9860 7864 0
-9860 7882 0
-2255 7849 9857 9858 9859 9860 0
2255 -7849 0
2255 -9857 0
2255 -9858 0
2255 -9859 0
2255 -9860 0
9861 -7864 -7872 0
-9861 7864 0
-9861 7872 0
9862 -7861 -7872 0
-9862 7861 0
-9862 7872 0
9863 -7861 -7874 0
-9863 7861 0
-9863 7874 0
9864 -7864 -7874 -7882 0
-9864 7864 0
-9864 7874 0
-9864 7882 0
-5008 7852 9861 9862 9863 9864 0
5008 -7852 0
5008 -9861 0
5008 -9862 0
5008 -9863 0
5008 -9864 0
9865 -7864 -7880 0
-9865 7864 0
-9865 7880 0
9866 -7861 -7876 0
-9866 7861 0
-9866 7876 0
9867 -7861 -7880 0
-9867 7861 0
-9867 7880 0
9868 -7864 -7876 -7882 0
-9868 7864 0
-9868 7876 0
-9868 7882 0
-2253 7855 9865 9866 9867 9868 0
2253 -7855 0
2253 -9865 0
2253 -9866 0
2253 -9867 0
2253 -9868 0
9869 -7866 -7880 0
-9869 7866 0
-9869 7880 0
9870 -7878 -7880 0
-9870 7878 0
-9870 7880 0
9871 -7878 -7876 0
-9871 7878 0
-9871 7876 0
9872 -7866 -7876 -7882 0
-9872 7866 0
-9872 7876 0
-9872 7882 0
-1828 7858 9869 9870 9871 9872 0
1828 -7858 0
1828 -9869 0
1828 -9870 0
1828 -9871 0
1828 -9872 0
9873 -7864 -7895 0
-9873 7864 0
-9873 7895 0
9874 -7861 -7895 0
-9874 7861 0
-9874 7895 0
9875 -7861 -7901 0
-9875 7861 0
-9875 7901 0
9876 -7864 -7901 -7882 0
-9876 7864 0
-9876 7901 0
-9876 7882 0
-2257 7889 9873 9874 9875 9876 0
2257 -7889 0
2257 -9873 0
2257 -9874 0
2257 -9875 0
2257 -9876 0
9877 -7864 -7860 0
-9877 7864 0
-9877 7860 0
9878 -7861 -7863 0
-9878 7861 0
-9878 7863 0
9879 -7861 -7860 0
-9879 7861 0
-9879 7860 0
9880 -7864 -7863 -7882 0
-9880 7864 0
-9880 7863 0
-9880 7882 0
-2259 7848 9877 9878 9879 9880 0
2259 -7848 0
2259 -9877 0
2259 -9878 0
2259 -9879 0
2259 -9880 0
9881 -7866 -7860 0
-9881 7866 0
-9881 7860 0
9882 -7878 -7860 0
-9882 7878 0
-9882 7860 0
9883 -7878 -7863 0
-9883 7878 0
-9883 7863 0
9884 -7866 -7863 -7882 0
-9884 7866 0
-9884 7863 0
-9884 7882 0
-1825 7857 9881 9882 9883 9884 0
1825 -7857 0
1825 -9881 0
1825 -9882 0
1825 -9883 0
1825 -9884 0
9885 -7874 -7878 0
-9885 7874 0
-9885 7878 0
9886 -7872 -7866 0
-9886 7872 0
-9886 7866 0
9887 -7872 -7878 0
-9887 7872 0
-9887 7878 0
9888 -7874 -7866 -7882 0
-9888 7874 0
-9888 7866 0
-9888 7882 0
-1818 7868 9885 9886 9887 9888 0
1818 -7868 0
1818 -9885 0
1818 -9886 0
1818 -9887 0
1818 -9888 0
9889 -7874 -7872 0
-9889 7874 0
-9889 7872 0
8804 -7872 -7872 0
-8804 7872 0
-8804 7872 0
9890 -7872 -7874 0
-9890 7872 0
-9890 7874 0
9891 -7874 -7874 -7882 0
-9891 7874 0
-9891 7874 0
-9891 7882 0
-1820 7870 9889 8804 9890 9891 0
1820 -7870 0
1820 -9889 0
1820 -8804 0
1820 -9890 0
1820 -9891 0
9892 -7874 -7895 0
-9892 7874 0
-9892 7895 0
9893 -7872 -7895 0
-9893 7872 0
-9893 7895 0
9894 -7872 -7901 0
-9894 7872 0
-9894 7901 0
9895 -7874 -7901 -7882 0
-9895 7874 0
-9895 7901 0
-9895 7882 0
-1823 7987 9892 9893 9894 9895 0
1823 -7987 0
1823 -9892 0
1823 -9893 0
1823 -9894 0
1823 -9895 0
9896 -7874 -7860 0
-9896 7874 0
-9896 7860 0
9897 -7872 -7863 0
-9897 7872 0
-9897 7863 0
9898 -7872 -7860 0
-9898 7872 0
-9898 7860 0
9899 -7874 -7863 -7882 0
-9899 7874 0
-9899 7863 0
-9899 7882 0
-1826 7851 9896 9897 9898 9899 0
1826 -7851 0
1826 -9896 0
1826 -9897 0
1826 -9898 0
1826 -9899 0
9900 -7876 -7860 0
-9900 7876 0
-9900 7860 0
9901 -7880 -7860 0
-9901 7880 0
-9901 7860 0
9902 -7880 -7863 0
-9902 7880 0
-9902 7863 0
9903 -7876 -7863 -7882 0
-9903 7876 0
-9903 7863 0
-9903 7882 0
-1829 7854 9900 9901 9902 9903 0
1829 -7854 0
1829 -9900 0
1829 -9901 0
1829 -9902 0
1829 -9903 0
9904 -7901 -7878 0
-9904 7901 0
-9904 7878 0
9905 -7895 -7866 0
-9905 7895 0
-9905 7866 0
9906 -7895 -7878 0
-9906 7895 0
-9906 7878 0
9907 -7901 -7866 -7882 0
-9907 7901 0
-9907 7866 0
-9907 7882 0
-1822 7899 9904 9905 9906 9907 0
1822 -7899 0
1822 -9904 0
1822 -9905 0
1822 -9906 0
1822 -9907 0
9908 -7901 -7880 0
-9908 7901 0
-9908 7880 0
9909 -7895 -7876 0
-9909 7895 0
-9909 7876 0
9910 -7895 -7880 0
-9910 7895 0
-9910 7880 0
9911 -7901 -7876 -7882 0
-9911 7901 0
-9911 7876 0
-9911 7882 0
-1831 7888 9908 9909 9910 9911 0
1831 -7888 0
1831 -9908 0
1831 -9909 0
1831 -9910 0
1831 -9911 0
9912 -7901 -7895 0
-9912 7901 0
-9912 7895 0
8040 -7895 -7895 0
-8040 7895 0
-8040 7895 0
9913 -7895 -7901 0
-9913 7895 0
-9913 7901 0
9914 -7901 -7901 -7882 0
-9914 7901 0
-9914 7901 0
-9914 7882 0
-1834 7903 9912 8040 9913 9914 0
1834 -7903 0
1834 -9912 0
1834 -8040 0
1834 -9913 0
1834 -9914 0
9915 -9770 -9770 0
-9915 9770 0
-9915 9770 0
-2419 9776 9915 0
2419 -9776 0
2419 -9915 0
9916 -9770 -9781 0
-9916 9770 0
-9916 9781 0
-2415 9783 9916 0
2415 -9783 0
2415 -9916 0
9917 -9770 -9787 0
-9917 9770 0
-9917 9787 0
-2439 9790 9917 0
2439 -9790 0
2439 -9917 0
9918 -9792 -9787 0
-9918 9792 0
-9918 9787 0
-2437 9797 9918 0
2437 -9797 0
2437 -9918 0
9919 -9770 -9802 0
-9919 9770 0
-9919 9802 0
-2423 9804 9919 0
2423 -9804 0
2423 -9919 0
9920 -9770 -9808 0
-9920 9770 0
-9920 9808 0
-2430 9811 9920 0
2430 -9811 0
2430 -9920 0
9921 -9792 -9808 0
-9921 9792 0
-9921 9808 0
-2432 9816 9921 0
2432 -9816 0
2432 -9921 0
9922 -9781 -9792 0
-9922 9781 0
-9922 9792 0
-2414 9821 9922 0
2414 -9821 0
2414 -9922 0
9923 -9781 -9781 0
-9923 9781 0
-9923 9781 0
-2421 9826 9923 0
2421 -9826 0
2421 -9923 0
9924 -9781 -9802 0
-9924 9781 0
-9924 9802 0
-2428 9831 9924 0
2428 -9831 0
2428 -9924 0
9925 -9781 -9808 0
-9925 9781 0
-9925 9808 0
-2435 9836 9925 0
2435 -9836 0
2435 -9925 0
9926 -9787 -9808 0
-9926 9787 0
-9926 9808 0
-2442 9841 9926 0
2442 -9841 0
2442 -9926 0
9927 -9802 -9792 0
-9927 9802 0
-9927 9792 0
-2426 9846 9927 0
2426 -9846 0
2426 -9927 0
9928 -9802 -9787 0
-9928 9802 0
-9928 9787 0
-2447 9851 9928 0
2447 -9851 0
2447 -9928 0
9929 -9802 -9802 0
-9929 9802 0
-9929 9802 0
-2453 9856 9929 0
2453 -9856 0
2453 -9929 0
9930 -6871 -6871 0
-9930 6871 0
-9930 6871 0
-4108 6877 9930 0
4108 -6877 0
4108 -9930 0
9931 -6871 -6882 0
-9931 6871 0
-9931 6882 0
-4450 6884 9931 0
4450 -6884 0
4450 -9931 0
9932 -6871 -6888 0
-9932 6871 0
-9932 6888 0
-4106 6891 9932 0
4106 -6891 0
4106 -9932 0
9933 -6893 -6888 0
-9933 6893 0
-9933 6888 0
-2101 6898 9933 0
2101 -6898 0
2101 -9933 0
9934 -6871 -6903 0
-9934 6871 0
-9934 6903 0
-4110 6905 9934 0
4110 -6905 0
4110 -9934 0
9935 -6871 -6909 0
-9935 6871 0
-9935 6909 0
-4112 6912 9935 0
4112 -6912 0
4112 -9935 0
9936 -6893 -6909 0
-9936 6893 0
-9936 6909 0
-2098 6917 9936 0
2098 -6917 0
2098 -9936 0
9937 -6882 -6893 0
-9937 6882 0
-9937 6893 0
-2091 6922 9937 0
2091 -6922 0
2091 -9937 0
9938 -6882 -6882 0
-9938 6882 0
-9938 6882 0
-2093 6927 9938 0
2093 -6927 0
2093 -9938 0
9939 -6882 -6903 0
-9939 6882 0
-9939 6903 0
-2096 6932 9939 0
2096 -6932 0
2096 -9939 0
9940 -6882 -6909 0
-9940 6882 0
-9940 6909 0
-2099 6937 9940 0
2099 -6937 0
2099 -9940 0
9941 -6888 -6909 0
-9941 6888 0
-9941 6909 0
-2102 6942 9941 0
2102 -6942 0
2102 -9941 0
9942 -6903 -6893 0
-9942 6903 0
-9942 6893 0
-2095 6947 9942 0
2095 -6947 0
2095 -9942 0
9943 -6903 -6888 0
-9943 6903 0
-9943 6888 0
-2104 6952 9943 0
2104 -6952 0
2104 -9943 0
9944 -6903 -6903 0
-9944 6903 0
-9944 6903 0
-2107 6957 9944 0
2107 -6957 0
2107 -9944 0
9945 -7062 -8197 0
-9945 7062 0
-9945 8197 0
9946 -8197 -8197 0
-9946 8197 0
-9946 8197 0
9947 -8197 -7062 0
-9947 8197 0
-9947 7062 0
9948 -7062 -7062 -8211 0
-9948 7062 0
-9948 7062 0
-9948 8211 0
-1897 7063 9945 9946 9947 9948 0
1897 -7063 0
1897 -9945 0
1897 -9946 0
1897 -9947 0
1897 -9948 0
9949 -7062 -8203 0
-9949 7062 0
-9949 8203 0
9950 -8197 -8203 0
-9950 8197 0
-9950 8203 0
9951 -8197 -7065 0
-9951 8197 0
-9951 7065 0
9952 -7062 -7065 -8211 0
-9952 7062 0
-9952 7065 0
-9952 8211 0
-1900 7066 9949 9950 9951 9952 0
1900 -7066 0
1900 -9949 0
1900 -9950 0
1900 -9951 0
1900 -9952 0
9953 -7062 -8209 0
-9953 7062 0
-9953 8209 0
9954 -8197 -7068 0
-9954 8197 0
-9954 7068 0
9955 -8197 -8209 0
-9955 8197 0
-9955 8209 0
9956 -7062 -7068 -8211 0
-9956 7062 0
-9956 7068 0
-9956 8211 0
-1903 7069 9953 9954 9955 9956 0
1903 -7069 0
1903 -9953 0
1903 -9954 0
1903 -9955 0
1903 -9956 0
9957 -7071 -8209 0
-9957 7071 0
-9957 8209 0
9958 -8207 -8209 0
-9958 8207 0
-9958 8209 0
9959 -8207 -7068 0
-9959 8207 0
-9959 7068 0
9960 -7071 -7068 -8211 0
-9960 7071 0
-9960 7068 0
-9960 8211 0
-1906 7072 9957 9958 9959 9960 0
1906 -7072 0
1906 -9957 0
1906 -9958 0
1906 -9959 0
1906 -9960 0
9961 -7062 -8355 0
-9961 7062 0
-9961 8355 0
9962 -8197 -8355 0
-9962 8197 0
-9962 8355 0
9963 -8197 -7074 0
-9963 8197 0
-9963 7074 0
9964 -7062 -7074 -8211 0
-9964 7062 0
-9964 7074 0
-9964 8211 0
-3499 7075 9961 9962 9963 9964 0
3499 -7075 0
3499 -9961 0
3499 -9962 0
3499 -9963 0
3499 -9964 0
9965 -7062 -8196 0
-9965 7062 0
-9965 8196 0
9966 -8197 -7077 0
-9966 8197 0
-9966 7077 0
9967 -8197 -8196 0
-9967 8197 0
-9967 8196 0
9968 -7062 -7077 -8211 0
-9968 7062 0
-9968 7077 0
-9968 8211 0
-1895 7078 9965 9966 9967 9968 0
1895 -7078 0
1895 -9965 0
1895 -9966 0
1895 -9967 0
1895 -9968 0
9969 -7071 -8196 0
-9969 7071 0
-9969 8196 0
9970 -8207 -8196 0
-9970 8207 0
-9970 8196 0
9971 -8207 -7077 0
-9971 8207 0
-9971 7077 0
9972 -7071 -7077 -8211 0
-9972 7071 0
-9972 7077 0
-9972 8211 0
-1905 7080 9969 9970 9971 9972 0
1905 -7080 0
1905 -9969 0
1905 -9970 0
1905 -9971 0
1905 -9972 0
9973 -7065 -8207 0
-9973 7065 0
-9973 8207 0
9974 -8203 -7071 0
-9974 8203 0
-9974 7071 0
9975 -8203 -8207 0
-9975 8203 0
-9975 8207 0
9976 -7065 -7071 -8211 0
-9976 7065 0
-9976 7071 0
-9976 8211 0
-1908 7082 9973 9974 9975 9976 0
1908 -7082 0
1908 -9973 0
1908 -9974 0
1908 -9975 0
1908 -9976 0
9977 -7065 -8203 0
-9977 7065 0
-9977 8203 0
8373 -8203 -8203 0
-8373 8203 0
-8373 8203 0
9978 -8203 -7065 0
-9978 8203 0
-9978 7065 0
9979 -7065 -7065 -8211 0
-9979 7065 0
-9979 7065 0
-9979 8211 0
-1911 7084 9977 8373 9978 9979 0
1911 -7084 0
1911 -9977 0
1911 -8373 0
1911 -9978 0
1911 -9979 0
9980 -7065 -8355 0
-9980 7065 0
-9980 8355 0
9981 -8203 -8355 0
-9981 8203 0
-9981 8355 0
9982 -8203 -7074 0
-9982 8203 0
-9982 7074 0
9983 -7065 -7074 -8211 0
-9983 7065 0
-9983 7074 0
-9983 8211 0
-3506 7086 9980 9981 9982 9983 0
3506 -7086 0
3506 -9980 0
3506 -9981 0
3506 -9982 0
3506 -9983 0
9984 -7065 -8196 0
-9984 7065 0
-9984 8196 0
9985 -8203 -7077 0
-9985 8203 0
-9985 7077 0
9986 -8203 -8196 0
-9986 8203 0
-9986 8196 0
9987 -7065 -7077 -8211 0
-9987 7065 0
-9987 7077 0
-9987 8211 0
-1899 7088 9984 9985 9986 9987 0
1899 -7088 0
1899 -9984 0
1899 -9985 0
1899 -9986 0
1899 -9987 0
9988 -7068 -8196 0
-9988 7068 0
-9988 8196 0
9989 -8209 -8196 0
-9989 8209 0
-9989 8196 0
9990 -8209 -7077 0
-9990 8209 0
-9990 7077 0
9991 -7068 -7077 -8211 0
-9991 7068 0
-9991 7077 0
-9991 8211 0
-1902 7090 9988 9989 9990 9991 0
1902 -7090 0
1902 -9988 0
1902 -9989 0
1902 -9990 0
1902 -9991 0
9992 -7074 -8207 0
-9992 7074 0
-9992 8207 0
9993 -8355 -7071 0
-9993 8355 0
-9993 7071 0
9994 -8355 -8207 0
-9994 8355 0
-9994 8207 0
9995 -7074 -7071 -8211 0
-9995 7074 0
-9995 7071 0
-9995 8211 0
-3517 7092 9992 9993 9994 9995 0
3517 -7092 0
3517 -9992 0
3517 -9993 0
3517 -9994 0
3517 -9995 0
9996 -7074 -8209 0
-9996 7074 0
-9996 8209 0
9997 -8355 -7068 0
-9997 8355 0
-9997 7068 0
9998 -8355 -8209 0
-9998 8355 0
-9998 8209 0
9999 -7074 -7068 -8211 0
-9999 7074 0
-9999 7068 0
-9999 8211 0
-3511 7094 9996 9997 9998 9999 0
3511 -7094 0
3511 -9996 0
3511 -9997 0
3511 -9998 0
3511 -9999 0
10000 -7074 -8355 0
-10000 7074 0
-10000 8355 0
9522 -8355 -8355 0
-9522 8355 0
-9522 8355 0
10001 -8355 -7074 0
-10001 8355 0
-10001 7074 0
10002 -7074 -7074 -8211 0
-10002 7074 0
-10002 7074 0
-10002 8211 0
-3503 7096 10000 9522 10001 10002 0
3503 -7096 0
3503 -10000 0
3503 -9522 0
3503 -10001 0
3503 -10002 0
10003 -7069 -7069 0
-10003 7069 0
-10003 7069 0
-4861 7063 10003 0
4861 -7063 0
4861 -10003 0
10004 -7069 -7094 0
-10004 7069 0
-10004 7094 0
-4857 7075 10004 0
4857 -7075 0
4857 -10004 0
10005 -7069 -7090 0
-10005 7069 0
-10005 7090 0
-4881 7078 10005 0
4881 -7078 0
4881 -10005 0
10006 -7072 -7090 0
-10006 7072 0
-10006 7090 0
-4879 7080 10006 0
4879 -7080 0
4879 -10006 0
10007 -7069 -8209 0
-10007 7069 0
-10007 8209 0
-4865 8197 10007 0
4865 -8197 0
4865 -10007 0
10008 -7069 -7068 0
-10008 7069 0
-10008 7068 0
-4872 7062 10008 0
4872 -7062 0
4872 -10008 0
10009 -7072 -7068 0
-10009 7072 0
-10009 7068 0
-4874 7071 10009 0
4874 -7071 0
4874 -10009 0
10010 -7094 -7072 0
-10010 7094 0
-10010 7072 0
-4856 7092 10010 0
4856 -7092 0
4856 -10010 0
10011 -7094 -7094 0
-10011 7094 0
-10011 7094 0
-4863 7096 10011 0
4863 -7096 0
4863 -10011 0
10012 -7094 -8209 0
-10012 7094 0
-10012 8209 0
-4870 8355 10012 0
4870 -8355 0
4870 -10012 0
10013 -7094 -7068 0
-10013 7094 0
-10013 7068 0
-4877 7074 10013 0
4877 -7074 0
4877 -10013 0
10014 -7090 -7068 0
-10014 7090 0
-10014 7068 0
-4884 7077 10014 0
4884 -7077 0
4884 -10014 0
10015 -8209 -7072 0
-10015 8209 0
-10015 7072 0
-4868 8207 10015 0
4868 -8207 0
4868 -10015 0
10016 -8209 -7090 0
-10016 8209 0
-10016 7090 0
-4889 8196 10016 0
4889 -8196 0
4889 -10016 0
10017 -8209 -8209 0
-10017 8209 0
-10017 8209 0
-4895 8211 10017 0
4895 -8211 0
4895 -10017 0
10018 -9541 -9541 0
-10018 9541 0
-10018 9541 0
-5448 9547 10018 0
5448 -9547 0
5448 -10018 0
10019 -9541 -9552 0
-10019 9541 0
-10019 9552 0
-5444 9554 10019 0
5444 -9554 0
5444 -10019 0
10020 -9541 -9558 0
-10020 9541 0
-10020 9558 0
-5468 9561 10020 0
5468 -9561 0
5468 -10020 0
10021 -9563 -9558 0
-10021 9563 0
-10021 9558 0
-5466 9568 10021 0
5466 -9568 0
5466 -10021 0
10022 -9541 -9573 0
-10022 9541 0
-10022 9573 0
-5452 9575 10022 0
5452 -9575 0
5452 -10022 0
10023 -9541 -9579 0
-10023 9541 0
-10023 9579 0
-5459 9582 10023 0
5459 -9582 0
5459 -10023 0
10024 -9563 -9579 0
-10024 9563 0
-10024 9579 0
-5461 9587 10024 0
5461 -9587 0
5461 -10024 0
10025 -9552 -9563 0
-10025 9552 0
-10025 9563 0
-5443 9592 10025 0
5443 -9592 0
5443 -10025 0
10026 -9552 -9552 0
-10026 9552 0
-10026 9552 0
-5450 9597 10026 0
5450 -9597 0
5450 -10026 0
10027 -9552 -9573 0
-10027 9552 0
-10027 9573 0
-5457 9602 10027 0
5457 -9602 0
5457 -10027 0
10028 -9552 -9579 0
-10028 9552 0
-10028 9579 0
-5464 9607 10028 0
5464 -9607 0
5464 -10028 0
10029 -9558 -9579 0
-10029 9558 0
-10029 9579 0
-5471 9612 10029 0
5471 -9612 0
5471 -10029 0
10030 -9573 -9563 0
-10030 9573 0
-10030 9563 0
-5455 9617 10030 0
5455 -9617 0
5455 -10030 0
10031 -9573 -9558 0
-10031 9573 0
-10031 9558 0
-5476 9622 10031 0
5476 -9622 0
5476 -10031 0
10032 -9573 -9573 0
-10032 9573 0
-10032 9573 0
-5482 9627 10032 0
5482 -9627 0
5482 -10032 0
10033 -7760 -7760 0
-10033 7760 0
-10033 7760 0
-4184 7766 10033 0
4184 -7766 0
4184 -10033 0
10034 -7760 -7771 0
-10034 7760 0
-10034 7771 0
-4180 7773 10034 0
4180 -7773 0
4180 -10034 0
10035 -7760 -7777 0
-10035 7760 0
-10035 7777 0
-4198 7780 10035 0
4198 -7780 0
4198 -10035 0
10036 -7782 -7777 0
-10036 7782 0
-10036 7777 0
-3687 7787 10036 0
3687 -7787 0
3687 -10036 0
10037 -7760 -7792 0
-10037 7760 0
-10037 7792 0
-4187 7794 10037 0
4187 -7794 0
4187 -10037 0
10038 -7760 -7798 0
-10038 7760 0
-10038 7798 0
-4192 7801 10038 0
4192 -7801 0
4192 -10038 0
10039 -7782 -7798 0
-10039 7782 0
-10039 7798 0
-3684 7806 10039 0
3684 -7806 0
3684 -10039 0
10040 -7771 -7782 0
-10040 7771 0
-10040 7782 0
-3677 7811 10040 0
3677 -7811 0
3677 -10040 0
10041 -7771 -7771 0
-10041 7771 0
-10041 7771 0
-3679 7816 10041 0
3679 -7816 0
3679 -10041 0
10042 -7771 -7792 0
-10042 7771 0
-10042 7792 0
-3682 7821 10042 0
3682 -7821 0
3682 -10042 0
10043 -7771 -7798 0
-10043 7771 0
-10043 7798 0
-3685 7826 10043 0
3685 -7826 0
3685 -10043 0
10044 -7777 -7798 0
-10044 7777 0
-10044 7798 0
-3688 7831 10044 0
3688 -7831 0
3688 -10044 0
10045 -7792 -7782 0
-10045 7792 0
-10045 7782 0
-3681 7836 10045 0
3681 -7836 0
3681 -10045 0
10046 -7792 -7777 0
-10046 7792 0
-10046 7777 0
-3690 7841 10046 0
3690 -7841 0
3690 -10046 0
10047 -7792 -7792 0
-10047 7792 0
-10047 7792 0
-3693 7846 10047 0
3693 -7846 0
3693 -10047 0
10048 -7416 -7964 0
-10048 7416 0
-10048 7964 0
10049 -7964 -7964 0
-10049 7964 0
-10049 7964 0
10050 -7964 -7416 0
-10050 7964 0
-10050 7416 0
10051 -7416 -7416 -7973 0
-10051 7416 0
-10051 7416 0
-10051 7973 0
-1228 7417 10048 10049 10050 10051 0
1228 -7417 0
1228 -10048 0
1228 -10049 0
1228 -10050 0
1228 -10051 0
10052 -7416 -8601 0
-10052 7416 0
-10052 8601 0
10053 -7964 -8601 0
-10053 7964 0
-10053 8601 0
10054 -7964 -7419 0
-10054 7964 0
-10054 7419 0
10055 -7416 -7419 -7973 0
-10055 7416 0
-10055 7419 0
-10055 7973 0
-1224 7420 10052 10053 10054 10055 0
1224 -7420 0
1224 -10052 0
1224 -10053 0
1224 -10054 0
1224 -10055 0
10056 -7416 -7963 0
-10056 7416 0
-10056 7963 0
10057 -7964 -7422 0
-10057 7964 0
-10057 7422 0
10058 -7964 -7963 0
-10058 7964 0
-10058 7963 0
10059 -7416 -7422 -7973 0
-10059 7416 0
-10059 7422 0
-10059 7973 0
-1248 7423 10056 10057 10058 10059 0
1248 -7423 0
1248 -10056 0
1248 -10057 0
1248 -10058 0
1248 -10059 0
10060 -7425 -7963 0
-10060 7425 0
-10060 7963 0
10061 -7971 -7963 0
-10061 7971 0
-10061 7963 0
10062 -7971 -7422 0
-10062 7971 0
-10062 7422 0
10063 -7425 -7422 -7973 0
-10063 7425 0
-10063 7422 0
-10063 7973 0
-1246 7426 10060 10061 10062 10063 0
1246 -7426 0
1246 -10060 0
1246 -10061 0
1246 -10062 0
1246 -10063 0
10064 -7416 -7975 0
-10064 7416 0
-10064 7975 0
10065 -7964 -7975 0
-10065 7964 0
-10065 7975 0
10066 -7964 -7428 0
-10066 7964 0
-10066 7428 0
10067 -7416 -7428 -7973 0
-10067 7416 0
-10067 7428 0
-10067 7973 0
-1232 7429 10064 10065 10066 10067 0
1232 -7429 0
1232 -10064 0
1232 -10065 0
1232 -10066 0
1232 -10067 0
10068 -7416 -7977 0
-10068 7416 0
-10068 7977 0
10069 -7964 -7431 0
-10069 7964 0
-10069 7431 0
10070 -7964 -7977 0
-10070 7964 0
-10070 7977 0
10071 -7416 -7431 -7973 0
-10071 7416 0
-10071 7431 0
-10071 7973 0
-1239 7432 10068 10069 10070 10071 0
1239 -7432 0
1239 -10068 0
1239 -10069 0
1239 -10070 0
1239 -10071 0
10072 -7425 -7977 0
-10072 7425 0
-10072 7977 0
10073 -7971 -7977 0
-10073 7971 0
-10073 7977 0
10074 -7971 -7431 0
-10074 7971 0
-10074 7431 0
10075 -7425 -7431 -7973 0
-10075 7425 0
-10075 7431 0
-10075 7973 0
-1241 7434 10072 10073 10074 10075 0
1241 -7434 0
1241 -10072 0
1241 -10073 0
1241 -10074 0
1241 -10075 0
10076 -7419 -7971 0
-10076 7419 0
-10076 7971 0
10077 -8601 -7425 0
-10077 8601 0
-10077 7425 0
10078 -8601 -7971 0
-10078 8601 0
-10078 7971 0
10079 -7419 -7425 -7973 0
-10079 7419 0
-10079 7425 0
-10079 7973 0
-1223 7436 10076 10077 10078 10079 0
1223 -7436 0
1223 -10076 0
1223 -10077 0
1223 -10078 0
1223 -10079 0
10080 -7419 -8601 0
-10080 7419 0
-10080 8601 0
8863 -8601 -8601 0
-8863 8601 0
-8863 8601 0
10081 -8601 -7419 0
-10081 8601 0
-10081 7419 0
10082 -7419 -7419 -7973 0
-10082 7419 0
-10082 7419 0
-10082 7973 0
-1230 7438 10080 8863 10081 10082 0
1230 -7438 0
1230 -10080 0
1230 -8863 0
1230 -10081 0
1230 -10082 0
10083 -7419 -7975 0
-10083 7419 0
-10083 7975 0
10084 -8601 -7975 0
-10084 8601 0
-10084 7975 0
10085 -8601 -7428 0
-10085 8601 0
-10085 7428 0
10086 -7419 -7428 -7973 0
-10086 7419 0
-10086 7428 0
-10086 7973 0
-1237 7440 10083 10084 10085 10086 0
1237 -7440 0
1237 -10083 0
1237 -10084 0
1237 -10085 0
1237 -10086 0
10087 -7419 -7977 0
-10087 7419 0
-10087 7977 0
10088 -8601 -7431 0
-10088 8601 0
-10088 7431 0
10089 -8601 -7977 0
-10089 8601 0
-10089 7977 0
10090 -7419 -7431 -7973 0
-10090 7419 0
-10090 7431 0
-10090 7973 0
-1244 7442 10087 10088 10089 10090 0
1244 -7442 0
1244 -10087 0
1244 -10088 0
1244 -10089 0
1244 -10090 0
10091 -7422 -7977 0
-10091 7422 0
-10091 7977 0
10092 -7963 -7977 0
-10092 7963 0
-10092 7977 0
10093 -7963 -7431 0
-10093 7963 0
-10093 7431 0
10094 -7422 -7431 -7973 0
-10094 7422 0
-10094 7431 0
-10094 7973 0
-1251 7444 10091 10092 10093 10094 0
1251 -7444 0
1251 -10091 0
1251 -10092 0
1251 -10093 0
1251 -10094 0
10095 -7428 -7971 0
-10095 7428 0
-10095 7971 0
10096 -7975 -7425 0
-10096 7975 0
-10096 7425 0
10097 -7975 -7971 0
-10097 7975 0
-10097 7971 0
10098 -7428 -7425 -7973 0
-10098 7428 0
-10098 7425 0
-10098 7973 0
-1235 7446 10095 10096 10097 10098 0
1235 -7446 0
1235 -10095 0
1235 -10096 0
1235 -10097 0
1235 -10098 0
10099 -7428 -7963 0
-10099 7428 0
-10099 7963 0
10100 -7975 -7422 0
-10100 7975 0
-10100 7422 0
10101 -7975 -7963 0
-10101 7975 0
-10101 7963 0
10102 -7428 -7422 -7973 0
-10102 7428 0
-10102 7422 0
-10102 7973 0
-1256 7448 10099 10100 10101 10102 0
1256 -7448 0
1256 -10099 0
1256 -10100 0
1256 -10101 0
1256 -10102 0
10103 -7428 -7975 0
-10103 7428 0
-10103 7975 0
8619 -7975 -7975 0
-8619 7975 0
-8619 7975 0
10104 -7975 -7428 0
-10104 7975 0
-10104 7428 0
10105 -7428 -7428 -7973 0
-10105 7428 0
-10105 7428 0
-10105 7973 0
-1262 7450 10103 8619 10104 10105 0
1262 -7450 0
1262 -10103 0
1262 -8619 0
1262 -10104 0
1262 -10105 0
10106 -10107 -10108 0
-10106 10107 0
-10106 10108 0
10109 -10108 -10108 0
-10109 10108 0
-10109 10108 0
10110 -10108 -10107 0
-10110 10108 0
-10110 10107 0
10111 -10107 -10107 -10112 0
-10111 10107 0
-10111 10107 0
-10111 10112 0
-8045 10113 10106 10109 10110 10111 0
8045 -10113 0
8045 -10106 0
8045 -10109 0
8045 -10110 0
8045 -10111 0
10114 -10107 -10115 0
-10114 10107 0
-10114 10115 0
10116 -10108 -10115 0
-10116 10108 0
-10116 10115 0
10117 -10108 -10118 0
-10117 10108 0
-10117 10118 0
10119 -10107 -10118 -10112 0
-10119 10107 0
-10119 10118 0
-10119 10112 0
-8048 10120 10114 10116 10117 10119 0
8048 -10120 0
8048 -10114 0
8048 -10116 0
8048 -10117 0
8048 -10119 0
10121 -10107 -10122 0
-10121 10107 0
-10121 10122 0
10123 -10108 -10124 0
-10123 10108 0
-10123 10124 0
10125 -10108 -10122 0
-10125 10108 0
-10125 10122 0
10126 -10107 -10124 -10112 0
-10126 10107 0
-10126 10124 0
-10126 10112 0
-8051 10127 10121 10123 10125 10126 0
8051 -10127 0
8051 -10121 0
8051 -10123 0
8051 -10125 0
8051 -10126 0
10128 -10129 -10122 0
-10128 10129 0
-10128 10122 0
10130 -10131 -10122 0
-10130 10131 0
-10130 10122 0
10132 -10131 -10124 0
-10132 10131 0
-10132 10124 0
10133 -10129 -10124 -10112 0
-10133 10129 0
-10133 10124 0
-10133 10112 0
-8054 10134 10128 10130 10132 10133 0
8054 -10134 0
8054 -10128 0
8054 -10130 0
8054 -10132 0
8054 -10133 0
10135 -10107 -10136 0
-10135 10107 0
-10135 10136 0
10137 -10108 -10136 0
-10137 10108 0
-10137 10136 0
10138 -10108 -10139 0
-10138 10108 0
-10138 10139 0
10140 -10107 -10139 -10112 0
-10140 10107 0
-10140 10139 0
-10140 10112 0
-8444 10141 10135 10137 10138 10140 0
8444 -10141 0
8444 -10135 0
8444 -10137 0
8444 -10138 0
8444 -10140 0
10142 -10107 -10143 0
-10142 10107 0
-10142 10143 0
10144 -10108 -10145 0
-10144 10108 0
-10144 10145 0
10146 -10108 -10143 0
-10146 10108 0
-10146 10143 0
10147 -10107 -10145 -10112 0
-10147 10107 0
-10147 10145 0
-10147 10112 0
-8044 10148 10142 10144 10146 10147 0
8044 -10148 0
8044 -10142 0
8044 -10144 0
8044 -10146 0
8044 -10147 0
10149 -10129 -10143 0
-10149 10129 0
-10149 10143 0
10150 -10131 -10143 0
-10150 10131 0
-10150 10143 0
10151 -10131 -10145 0
-10151 10131 0
-10151 10145 0
10152 -10129 -10145 -10112 0
-10152 10129 0
-10152 10145 0
-10152 10112 0
-8053 10153 10149 10150 10151 10152 0
8053 -10153 0
8053 -10149 0
8053 -10150 0
8053 -10151 0
8053 -10152 0
10154 -10107 -10155 0
-10154 10107 0
-10154 10155 0
10156 -10108 -10155 0
-10156 10108 0
-10156 10155 0
10157 -10108 -10158 0
-10157 10108 0
-10157 10158 0
10159 -10107 -10158 -10112 0
-10159 10107 0
-10159 10158 0
-10159 10112 0
-8057 10160 10154 10156 10157 10159 0
8057 -10160 0
8057 -10154 0
8057 -10156 0
8057 -10157 0
8057 -10159 0
10161 -10107 -10162 0
-10161 10107 0
-10161 10162 0
10163 -10108 -10164 0
-10163 10108 0
-10163 10164 0
10165 -10108 -10162 0
-10165 10108 0
-10165 10162 0
10166 -10107 -10164 -10112 0
-10166 10107 0
-10166 10164 0
-10166 10112 0
-8060 10167 10161 10163 10165 10166 0
8060 -10167 0
8060 -10161 0
8060 -10163 0
8060 -10165 0
8060 -10166 0
10168 -10129 -10162 0
-10168 10129 0
-10168 10162 0
10169 -10131 -10162 0
-10169 10131 0
-10169 10162 0
10170 -10131 -10164 0
-10170 10131 0
-10170 10164 0
10171 -10129 -10164 -10112 0
-10171 10129 0
-10171 10164 0
-10171 10112 0
-8062 10172 10168 10169 10170 10171 0
8062 -10172 0
8062 -10168 0
8062 -10169 0
8062 -10170 0
8062 -10171 0
10173 -10118 -10131 0
-10173 10118 0
-10173 10131 0
10174 -10115 -10129 0
-10174 10115 0
-10174 10129 0
10175 -10115 -10131 0
-10175 10115 0
-10175 10131 0
10176 -10118 -10129 -10112 0
-10176 10118 0
-10176 10129 0
-10176 10112 0
-8064 10177 10173 10174 10175 10176 0
8064 -10177 0
8064 -10173 0
8064 -10174 0
8064 -10175 0
8064 -10176 0
10178 -10118 -10115 0
-10178 10118 0
-10178 10115 0
10179 -10115 -10115 0
-10179 10115 0
-10179 10115 0
10180 -10115 -10118 0
-10180 10115 0
-10180 10118 0
10181 -10118 -10118 -10112 0
-10181 10118 0
-10181 10118 0
-10181 10112 0
-8066 10182 10178 10179 10180 10181 0
8066 -10182 0
8066 -10178 0
8066 -10179 0
8066 -10180 0
8066 -10181 0
10183 -10118 -10136 0
-10183 10118 0
-10183 10136 0
10184 -10115 -10136 0
-10184 10115 0
-10184 10136 0
10185 -10115 -10139 0
-10185 10115 0
-10185 10139 0
10186 -10118 -10139 -10112 0
-10186 10118 0
-10186 10139 0
-10186 10112 0
-8450 10187 10183 10184 10185 10186 0
8450 -10187 0
8450 -10183 0
8450 -10184 0
8450 -10185 0
8450 -10186 0
10188 -10118 -10143 0
-10188 10118 0
-10188 10143 0
10189 -10115 -10145 0
-10189 10115 0
-10189 10145 0
10190 -10115 -10143 0
-10190 10115 0
-10190 10143 0
10191 -10118 -10145 -10112 0
-10191 10118 0
-10191 10145 0
-10191 10112 0
-8047 10192 10188 10189 10190 10191 0
8047 -10192 0
8047 -10188 0
8047 -10189 0
8047 -10190 0
8047 -10191 0
10193 -10124 -10143 0
-10193 10124 0
-10193 10143 0
10194 -10122 -10143 0
-10194 10122 0
-10194 10143 0
10195 -10122 -10145 0
-10195 10122 0
-10195 10145 0
10196 -10124 -10145 -10112 0
-10196 10124 0
-10196 10145 0
-10196 10112 0
-8050 10197 10193 10194 10195 10196 0
8050 -10197 0
8050 -10193 0
8050 -10194 0
8050 -10195 0
8050 -10196 0
10198 -10118 -10155 0
-10198 10118 0
-10198 10155 0
10199 -10115 -10155 0
-10199 10115 0
-10199 10155 0
10200 -10115 -10158 0
-10200 10115 0
-10200 10158 0
10201 -10118 -10158 -10112 0
-10201 10118 0
-10201 10158 0
-10201 10112 0
-8068 10202 10198 10199 10200 10201 0
8068 -10202 0
8068 -10198 0
8068 -10199 0
8068 -10200 0
8068 -10201 0
10203 -10118 -10162 0
-10203 10118 0
-10203 10162 0
10204 -10115 -10164 0
-10204 10115 0
-10204 10164 0
10205 -10115 -10162 0
-10205 10115 0
-10205 10162 0
10206 -10118 -10164 -10112 0
-10206 10118 0
-10206 10164 0
-10206 10112 0
-8070 10207 10203 10204 10205 10206 0
8070 -10207 0
8070 -10203 0
8070 -10204 0
8070 -10205 0
8070 -10206 0
10208 -10124 -10162 0
-10208 10124 0
-10208 10162 0
10209 -10122 -10162 0
-10209 10122 0
-10209 10162 0
10210 -10122 -10164 0
-10210 10122 0
-10210 10164 0
10211 -10124 -10164 -10112 0
-10211 10124 0
-10211 10164 0
-10211 10112 0
-8072 10212 10208 10209 10210 10211 0
8072 -10212 0
8072 -10208 0
8072 -10209 0
8072 -10210 0
8072 -10211 0
10213 -10139 -10131 0
-10213 10139 0
-10213 10131 0
10214 -10136 -10129 0
-10214 10136 0
-10214 10129 0
10215 -10136 -10131 0
-10215 10136 0
-10215 10131 0
10216 -10139 -10129 -10112 0
-10216 10139 0
-10216 10129 0
-10216 10112 0
-8461 10217 10213 10214 10215 10216 0
8461 -10217 0
8461 -10213 0
8461 -10214 0
8461 -10215 0
8461 -10216 0
10218 -10139 -10122 0
-10218 10139 0
-10218 10122 0
10219 -10136 -10124 0
-10219 10136 0
-10219 10124 0
10220 -10136 -10122 0
-10220 10136 0
-10220 10122 0
10221 -10139 -10124 -10112 0
-10221 10139 0
-10221 10124 0
-10221 10112 0
-8455 10222 10218 10219 10220 10221 0
8455 -10222 0
8455 -10218 0
8455 -10219 0
8455 -10220 0
8455 -10221 0
10223 -10139 -10136 0
-10223 10139 0
-10223 10136 0
10224 -10136 -10136 0
-10224 10136 0
-10224 10136 0
10225 -10136 -10139 0
-10225 10136 0
-10225 10139 0
10226 -10139 -10139 -10112 0
-10226 10139 0
-10226 10139 0
-10226 10112 0
-8448 10227 10223 10224 10225 10226 0
8448 -10227 0
8448 -10223 0
8448 -10224 0
8448 -10225 0
8448 -10226 0
10228 -10139 -10155 0
-10228 10139 0
-10228 10155 0
10229 -10136 -10155 0
-10229 10136 0
-10229 10155 0
10230 -10136 -10158 0
-10230 10136 0
-10230 10158 0
10231 -10139 -10158 -10112 0
-10231 10139 0
-10231 10158 0
-10231 10112 0
-8465 10232 10228 10229 10230 10231 0
8465 -10232 0
8465 -10228 0
8465 -10229 0
8465 -10230 0
8465 -10231 0
10233 -10139 -10162 0
-10233 10139 0
-10233 10162 0
10234 -10136 -10164 0
-10234 10136 0
-10234 10164 0
10235 -10136 -10162 0
-10235 10136 0
-10235 10162 0
10236 -10139 -10164 -10112 0
-10236 10139 0
-10236 10164 0
-10236 10112 0
-8470 10237 10233 10234 10235 10236 0
8470 -10237 0
8470 -10233 0
8470 -10234 0
8470 -10235 0
8470 -10236 0
10238 -10145 -10162 0
-10238 10145 0
-10238 10162 0
10239 -10143 -10162 0
-10239 10143 0
-10239 10162 0
10240 -10143 -10164 0
-10240 10143 0
-10240 10164 0
10241 -10145 -10164 -10112 0
-10241 10145 0
-10241 10164 0
-10241 10112 0
-8059 10242 10238 10239 10240 10241 0
8059 -10242 0
8059 -10238 0
8059 -10239 0
8059 -10240 0
8059 -10241 0
10243 -10158 -10131 0
-10243 10158 0
-10243 10131 0
10244 -10155 -10129 0
-10244 10155 0
-10244 10129 0
10245 -10155 -10131 0
-10245 10155 0
-10245 10131 0
10246 -10158 -10129 -10112 0
-10246 10158 0
-10246 10129 0
-10246 10112 0
-8074 10247 10243 10244 10245 10246 0
8074 -10247 0
8074 -10243 0
8074 -10244 0
8074 -10245 0
8074 -10246 0
10248 -10158 -10122 0
-10248 10158 0
-10248 10122 0
10249 -10155 -10124 0
-10249 10155 0
-10249 10124 0
10250 -10155 -10122 0
-10250 10155 0
-10250 10122 0
10251 -10158 -10124 -10112 0
-10251 10158 0
-10251 10124 0
-10251 10112 0
-8076 10252 10248 10249 10250 10251 0
8076 -10252 0
8076 -10248 0
8076 -10249 0
8076 -10250 0
8076 -10251 0
10253 -10158 -10143 0
-10253 10158 0
-10253 10143 0
10254 -10155 -10145 0
-10254 10155 0
-10254 10145 0
10255 -10155 -10143 0
-10255 10155 0
-10255 10143 0
10256 -10158 -10145 -10112 0
-10256 10158 0
-10256 10145 0
-10256 10112 0
-8056 10257 10253 10254 10255 10256 0
8056 -10257 0
8056 -10253 0
8056 -10254 0
8056 -10255 0
8056 -10256 0
10258 -10158 -10155 0
-10258 10158 0
-10258 10155 0
10259 -10155 -10155 0
-10259 10155 0
-10259 10155 0
10260 -10155 -10158 0
-10260 10155 0
-10260 10158 0
10261 -10158 -10158 -10112 0
-10261 10158 0
-10261 10158 0
-10261 10112 0
-8078 10262 10258 10259 10260 10261 0
8078 -10262 0
8078 -10258 0
8078 -10259 0
8078 -10260 0
8078 -10261 0
10263 -10107 -10107 0
-10263 10107 0
-10263 10107 0
-7207 10113 10263 0
7207 -10113 0
7207 -10263 0
10264 -10107 -10118 0
-10264 10107 0
-10264 10118 0
-7214 10120 10264 0
7214 -10120 0
7214 -10264 0
10265 -10107 -10124 0
-10265 10107 0
-10265 10124 0
-7221 10127 10265 0
7221 -10127 0
7221 -10265 0
10266 -10129 -10124 0
-10266 10129 0
-10266 10124 0
-7228 10134 10266 0
7228 -10134 0
7228 -10266 0
10267 -10107 -10139 0
-10267 10107 0
-10267 10139 0
-7202 10141 10267 0
7202 -10141 0
7202 -10267 0
10268 -10107 -10145 0
-10268 10107 0
-10268 10145 0
-7201 10148 10268 0
7201 -10148 0
7201 -10268 0
10269 -10129 -10145 0
-10269 10129 0
-10269 10145 0
-7223 10153 10269 0
7223 -10153 0
7223 -10269 0
10270 -10107 -10158 0
-10270 10107 0
-10270 10158 0
-7235 10160 10270 0
7235 -10160 0
7235 -10270 0
10271 -10107 -10164 0
-10271 10107 0
-10271 10164 0
-7242 10167 10271 0
7242 -10167 0
7242 -10271 0
10272 -10129 -10164 0
-10272 10129 0
-10272 10164 0
-7247 10172 10272 0
7247 -10172 0
7247 -10272 0
10273 -10118 -10129 0
-10273 10118 0
-10273 10129 0
-7252 10177 10273 0
7252 -10177 0
7252 -10273 0
10274 -10118 -10118 0
-10274 10118 0
-10274 10118 0
-7257 10182 10274 0
7257 -10182 0
7257 -10274 0
10275 -10118 -10139 0
-10275 10118 0
-10275 10139 0
-7209 10187 10275 0
7209 -10187 0
7209 -10275 0
10276 -10118 -10145 0
-10276 10118 0
-10276 10145 0
-7212 10192 10276 0
7212 -10192 0
7212 -10276 0
10277 -10124 -10145 0
-10277 10124 0
-10277 10145 0
-7218 10197 10277 0
7218 -10197 0
7218 -10277 0
10278 -10118 -10158 0
-10278 10118 0
-10278 10158 0
-7262 10202 10278 0
7262 -10202 0
7262 -10278 0
10279 -10118 -10164 0
-10279 10118 0
-10279 10164 0
-7267 10207 10279 0
7267 -10207 0
7267 -10279 0
10280 -10124 -10164 0
-10280 10124 0
-10280 10164 0
-7272 10212 10280 0
7272 -10212 0
7272 -10280 0
10281 -10139 -10129 0
-10281 10139 0
-10281 10129 0
-7225 10217 10281 0
7225 -10217 0
7225 -10281 0
10282 -10139 -10124 0
-10282 10139 0
-10282 10124 0
-7216 10222 10282 0
7216 -10222 0
7216 -10282 0
10283 -10139 -10139 0
-10283 10139 0
-10283 10139 0
-7206 10227 10283 0
7206 -10227 0
7206 -10283 0
10284 -10139 -10158 0
-10284 10139 0
-10284 10158 0
-7230 10232 10284 0
7230 -10232 0
7230 -10284 0
10285 -10139 -10164 0
-10285 10139 0
-10285 10164 0
-7237 10237 10285 0
7237 -10237 0
7237 -10285 0
10286 -10145 -10164 0
-10286 10145 0
-10286 10164 0
-7239 10242 10286 0
7239 -10242 0
7239 -10286 0
10287 -10158 -10129 0
-10287 10158 0
-10287 10129 0
-7277 10247 10287 0
7277 -10247 0
7277 -10287 0
10288 -10158 -10124 0
-10288 10158 0
-10288 10124 0
-7282 10252 10288 0
7282 -10252 0
7282 -10288 0
10289 -10158 -10145 0
-10289 10158 0
-10289 10145 0
-7233 10257 10289 0
7233 -10257 0
7233 -10289 0
10290 -10158 -10158 0
-10290 10158 0
-10290 10158 0
-7287 10262 10290 0
7287 -10262 0
7287 -10290 0
10291 -10292 -10293 0
-10291 10292 0
-10291 10293 0
10294 -10293 -10293 0
-10294 10293 0
-10294 10293 0
10295 -10293 -10292 0
-10295 10293 0
-10295 10292 0
10296 -10292 -10292 -10297 0
-10296 10292 0
-10296 10292 0
-10296 10297 0
-9776 10298 10291 10294 10295 10296 0
9776 -10298 0
9776 -10291 0
9776 -10294 0
9776 -10295 0
9776 -10296 0
10299 -10292 -10300 0
-10299 10292 0
-10299 10300 0
10301 -10293 -10300 0
-10301 10293 0
-10301 10300 0
10302 -10293 -10303 0
-10302 10293 0
-10302 10303 0
10304 -10292 -10303 -10297 0
-10304 10292 0
-10304 10303 0
-10304 10297 0
-9771 10305 10299 10301 10302 10304 0
9771 -10305 0
9771 -10299 0
9771 -10301 0
9771 -10302 0
9771 -10304 0
10306 -10292 -10307 0
-10306 10292 0
-10306 10307 0
10308 -10293 -10309 0
-10308 10293 0
-10308 10309 0
10310 -10293 -10307 0
-10310 10293 0
-10310 10307 0
10311 -10292 -10309 -10297 0
-10311 10292 0
-10311 10309 0
-10311 10297 0
-9770 10312 10306 10308 10310 10311 0
9770 -10312 0
9770 -10306 0
9770 -10308 0
9770 -10310 0
9770 -10311 0
10313 -10314 -10307 0
-10313 10314 0
-10313 10307 0
10315 -10316 -10307 0
-10315 10316 0
-10315 10307 0
10317 -10316 -10309 0
-10317 10316 0
-10317 10309 0
10318 -10314 -10309 -10297 0
-10318 10314 0
-10318 10309 0
-10318 10297 0
-9792 10319 10313 10315 10317 10318 0
9792 -10319 0
9792 -10313 0
9792 -10315 0
9792 -10317 0
9792 -10318 0
10320 -10292 -10321 0
-10320 10292 0
-10320 10321 0
10322 -10293 -10321 0
-10322 10293 0
-10322 10321 0
10323 -10293 -10324 0
-10323 10293 0
-10323 10324 0
10325 -10292 -10324 -10297 0
-10325 10292 0
-10325 10324 0
-10325 10297 0
-9783 10326 10320 10322 10323 10325 0
9783 -10326 0
9783 -10320 0
9783 -10322 0
9783 -10323 0
9783 -10325 0
10327 -10292 -10328 0
-10327 10292 0
-10327 10328 0
10329 -10293 -10330 0
-10329 10293 0
-10329 10330 0
10331 -10293 -10328 0
-10331 10293 0
-10331 10328 0
10332 -10292 -10330 -10297 0
-10332 10292 0
-10332 10330 0
-10332 10297 0
-9790 10333 10327 10329 10331 10332 0
9790 -10333 0
9790 -10327 0
9790 -10329 0
9790 -10331 0
9790 -10332 0
10334 -10314 -10328 0
-10334 10314 0
-10334 10328 0
10335 -10316 -10328 0
-10335 10316 0
-10335 10328 0
10336 -10316 -10330 0
-10336 10316 0
-10336 10330 0
10337 -10314 -10330 -10297 0
-10337 10314 0
-10337 10330 0
-10337 10297 0
-9797 10338 10334 10335 10336 10337 0
9797 -10338 0
9797 -10334 0
9797 -10335 0
9797 -10336 0
9797 -10337 0
10339 -10292 -10340 0
-10339 10292 0
-10339 10340 0
10341 -10293 -10340 0
-10341 10293 0
-10341 10340 0
10342 -10293 -10343 0
-10342 10293 0
-10342 10343 0
10344 -10292 -10343 -10297 0
-10344 10292 0
-10344 10343 0
-10344 10297 0
-9804 10345 10339 10341 10342 10344 0
9804 -10345 0
9804 -10339 0
9804 -10341 0
9804 -10342 0
9804 -10344 0
10346 -10292 -10347 0
-10346 10292 0
-10346 10347 0
10348 -10293 -10349 0
-10348 10293 0
-10348 10349 0
10350 -10293 -10347 0
-10350 10293 0
-10350 10347 0
10351 -10292 -10349 -10297 0
-10351 10292 0
-10351 10349 0
-10351 10297 0
-9811 10352 10346 10348 10350 10351 0
9811 -10352 0
9811 -10346 0
9811 -10348 0
9811 -10350 0
9811 -10351 0
10353 -10314 -10347 0
-10353 10314 0
-10353 10347 0
10354 -10316 -10347 0
-10354 10316 0
-10354 10347 0
10355 -10316 -10349 0
-10355 10316 0
-10355 10349 0
10356 -10314 -10349 -10297 0
-10356 10314 0
-10356 10349 0
-10356 10297 0
-9816 10357 10353 10354 10355 10356 0
9816 -10357 0
9816 -10353 0
9816 -10354 0
9816 -10355 0
9816 -10356 0
10358 -10303 -10316 0
-10358 10303 0
-10358 10316 0
10359 -10300 -10314 0
-10359 10300 0
-10359 10314 0
10360 -10300 -10316 0
-10360 10300 0
-10360 10316 0
10361 -10303 -10314 -10297 0
-10361 10303 0
-10361 10314 0
-10361 10297 0
-9794 10362 10358 10359 10360 10361 0
9794 -10362 0
9794 -10358 0
9794 -10359 0
9794 -10360 0
9794 -10361 0
10363 -10303 -10300 0
-10363 10303 0
-10363 10300 0
10364 -10300 -10300 0
-10364 10300 0
-10364 10300 0
10365 -10300 -10303 0
-10365 10300 0
-10365 10303 0
10366 -10303 -10303 -10297 0
-10366 10303 0
-10366 10303 0
-10366 10297 0
-9775 10367 10363 10364 10365 10366 0
9775 -10367 0
9775 -10363 0
9775 -10364 0
9775 -10365 0
9775 -10366 0
10368 -10303 -10321 0
-10368 10303 0
-10368 10321 0
10369 -10300 -10321 0
-10369 10300 0
-10369 10321 0
10370 -10300 -10324 0
-10370 10300 0
-10370 10324 0
10371 -10303 -10324 -10297 0
-10371 10303 0
-10371 10324 0
-10371 10297 0
-9778 10372 10368 10369 10370 10371 0
9778 -10372 0
9778 -10368 0
9778 -10369 0
9778 -10370 0
9778 -10371 0
10373 -10303 -10328 0
-10373 10303 0
-10373 10328 0
10374 -10300 -10330 0
-10374 10300 0
-10374 10330 0
10375 -10300 -10328 0
-10375 10300 0
-10375 10328 0
10376 -10303 -10330 -10297 0
-10376 10303 0
-10376 10330 0
-10376 10297 0
-9785 10377 10373 10374 10375 10376 0
9785 -10377 0
9785 -10373 0
9785 -10374 0
9785 -10375 0
9785 -10376 0
10378 -10309 -10328 0
-10378 10309 0
-10378 10328 0
10379 -10307 -10328 0
-10379 10307 0
-10379 10328 0
10380 -10307 -10330 0
-10380 10307 0
-10380 10330 0
10381 -10309 -10330 -10297 0
-10381 10309 0
-10381 10330 0
-10381 10297 0
-9787 10382 10378 10379 10380 10381 0
9787 -10382 0
9787 -10378 0
9787 -10379 0
9787 -10380 0
9787 -10381 0
10383 -10303 -10340 0
-10383 10303 0
-10383 10340 0
10384 -10300 -10340 0
-10384 10300 0
-10384 10340 0
10385 -10300 -10343 0
-10385 10300 0
-10385 10343 0
10386 -10303 -10343 -10297 0
-10386 10303 0
-10386 10343 0
-10386 10297 0
-9799 10387 10383 10384 10385 10386 0
9799 -10387 0
9799 -10383 0
9799 -10384 0
9799 -10385 0
9799 -10386 0
10388 -10303 -10347 0
-10388 10303 0
-10388 10347 0
10389 -10300 -10349 0
-10389 10300 0
-10389 10349 0
10390 -10300 -10347 0
-10390 10300 0
-10390 10347 0
10391 -10303 -10349 -10297 0
-10391 10303 0
-10391 10349 0
-10391 10297 0
-9806 10392 10388 10389 10390 10391 0
9806 -10392 0
9806 -10388 0
9806 -10389 0
9806 -10390 0
9806 -10391 0
10393 -10309 -10347 0
-10393 10309 0
-10393 10347 0
10394 -10307 -10347 0
-10394 10307 0
-10394 10347 0
10395 -10307 -10349 0
-10395 10307 0
-10395 10349 0
10396 -10309 -10349 -10297 0
-10396 10309 0
-10396 10349 0
-10396 10297 0
-9808 10397 10393 10394 10395 10396 0
9808 -10397 0
9808 -10393 0
9808 -10394 0
9808 -10395 0
9808 -10396 0
10398 -10324 -10316 0
-10398 10324 0
-10398 10316 0
10399 -10321 -10314 0
-10399 10321 0
-10399 10314 0
10400 -10321 -10316 0
-10400 10321 0
-10400 10316 0
10401 -10324 -10314 -10297 0
-10401 10324 0
-10401 10314 0
-10401 10297 0
-9821 10402 10398 10399 10400 10401 0
9821 -10402 0
9821 -10398 0
9821 -10399 0
9821 -10400 0
9821 -10401 0
10403 -10324 -10307 0
-10403 10324 0
-10403 10307 0
10404 -10321 -10309 0
-10404 10321 0
-10404 10309 0
10405 -10321 -10307 0
-10405 10321 0
-10405 10307 0
10406 -10324 -10309 -10297 0
-10406 10324 0
-10406 10309 0
-10406 10297 0
-9781 10407 10403 10404 10405 10406 0
9781 -10407 0
9781 -10403 0
9781 -10404 0
9781 -10405 0
9781 -10406 0
10408 -10324 -10321 0
-10408 10324 0
-10408 10321 0
10409 -10321 -10321 0
-10409 10321 0
-10409 10321 0
10410 -10321 -10324 0
-10410 10321 0
-10410 10324 0
10411 -10324 -10324 -10297 0
-10411 10324 0
-10411 10324 0
-10411 10297 0
-9826 10412 10408 10409 10410 10411 0
9826 -10412 0
9826 -10408 0
9826 -10409 0
9826 -10410 0
9826 -10411 0
10413 -10324 -10340 0
-10413 10324 0
-10413 10340 0
10414 -10321 -10340 0
-10414 10321 0
-10414 10340 0
10415 -10321 -10343 0
-10415 10321 0
-10415 10343 0
10416 -10324 -10343 -10297 0
-10416 10324 0
-10416 10343 0
-10416 10297 0
-9831 10417 10413 10414 10415 10416 0
9831 -10417 0
9831 -10413 0
9831 -10414 0
9831 -10415 0
9831 -10416 0
10418 -10324 -10347 0
-10418 10324 0
-10418 10347 0
10419 -10321 -10349 0
-10419 10321 0
-10419 10349 0
10420 -10321 -10347 0
-10420 10321 0
-10420 10347 0
10421 -10324 -10349 -10297 0
-10421 10324 0
-10421 10349 0
-10421 10297 0
-9836 10422 10418 10419 10420 10421 0
9836 -10422 0
9836 -10418 0
9836 -10419 0
9836 -10420 0
9836 -10421 0
10423 -10330 -10347 0
-10423 10330 0
-10423 10347 0
10424 -10328 -10347 0
-10424 10328 0
-10424 10347 0
10425 -10328 -10349 0
-10425 10328 0
-10425 10349 0
10426 -10330 -10349 -10297 0
-10426 10330 0
-10426 10349 0
-10426 10297 0
-9841 10427 10423 10424 10425 10426 0
9841 -10427 0
9841 -10423 0
9841 -10424 0
9841 -10425 0
9841 -10426 0
10428 -10343 -10316 0
-10428 10343 0
-10428 10316 0
10429 -10340 -10314 0
-10429 10340 0
-10429 10314 0
10430 -10340 -10316 0
-10430 10340 0
-10430 10316 0
10431 -10343 -10314 -10297 0
-10431 10343 0
-10431 10314 0
-10431 10297 0
-9846 10432 10428 10429 10430 10431 0
9846 -10432 0
9846 -10428 0
9846 -10429 0
9846 -10430 0
9846 -10431 0
10433 -10343 -10307 0
-10433 10343 0
-10433 10307 0
10434 -10340 -10309 0
-10434 10340 0
-10434 10309 0
10435 -10340 -10307 0
-10435 10340 0
-10435 10307 0
10436 -10343 -10309 -10297 0
-10436 10343 0
-10436 10309 0
-10436 10297 0
-9802 10437 10433 10434 10435 10436 0
9802 -10437 0
9802 -10433 0
9802 -10434 0
9802 -10435 0
9802 -10436 0
10438 -10343 -10328 0
-10438 10343 0
-10438 10328 0
10439 -10340 -10330 0
-10439 10340 0
-10439 10330 0
10440 -10340 -10328 0
-10440 10340 0
-10440 10328 0
10441 -10343 -10330 -10297 0
-10441 10343 0
-10441 10330 0
-10441 10297 0
-9851 10442 10438 10439 10440 10441 0
9851 -10442 0
9851 -10438 0
9851 -10439 0
9851 -10440 0
9851 -10441 0
10443 -10343 -10340 0
-10443 10343 0
-10443 10340 0
10444 -10340 -10340 0
-10444 10340 0
-10444 10340 0
10445 -10340 -10343 0
-10445 10340 0
-10445 10343 0
10446 -10343 -10343 -10297 0
-10446 10343 0
-10446 10343 0
-10446 10297 0
-9856 10447 10443 10444 10445 10446 0
9856 -10447 0
9856 -10443 0
9856 -10444 0
9856 -10445 0
9856 -10446 0
10448 -10449 -10449 0
-10448 10449 0
-10448 10449 0
-7927 10450 10448 0
7927 -10450 0
7927 -10448 0
10451 -10449 -10452 0
-10451 10449 0
-10451 10452 0
-8377 10453 10451 0
8377 -10453 0
8377 -10451 0
10454 -10449 -10455 0
-10454 10449 0
-10454 10455 0
-7926 10456 10454 0
7926 -10456 0
7926 -10454 0
10457 -10458 -10455 0
-10457 10458 0
-10457 10455 0
-7935 10459 10457 0
7935 -10459 0
7935 -10457 0
10460 -10449 -10461 0
-10460 10449 0
-10460 10461 0
-7930 10462 10460 0
7930 -10462 0
7930 -10460 0
10463 -10449 -10464 0
-10463 10449 0
-10463 10464 0
-7933 10465 10463 0
7933 -10465 0
7933 -10463 0
10466 -10458 -10464 0
-10466 10458 0
-10466 10464 0
-7936 10467 10466 0
7936 -10467 0
7936 -10466 0
10468 -10449 -10469 0
-10468 10449 0
-10468 10469 0
-7939 10470 10468 0
7939 -10470 0
7939 -10468 0
10471 -10449 -10472 0
-10471 10449 0
-10471 10472 0
-7942 10473 10471 0
7942 -10473 0
7942 -10471 0
10474 -10458 -10472 0
-10474 10458 0
-10474 10472 0
-7944 10475 10474 0
7944 -10475 0
7944 -10474 0
10476 -10452 -10458 0
-10476 10452 0
-10476 10458 0
-8394 10477 10476 0
8394 -10477 0
8394 -10476 0
10478 -10452 -10452 0
-10478 10452 0
-10478 10452 0
-8381 10479 10478 0
8381 -10479 0
8381 -10478 0
10480 -10452 -10461 0
-10480 10452 0
-10480 10461 0
-8383 10481 10480 0
8383 -10481 0
8383 -10480 0
10482 -10452 -10464 0
-10482 10452 0
-10482 10464 0
-8388 10483 10482 0
8388 -10483 0
8388 -10482 0
10484 -10455 -10464 0
-10484 10455 0
-10484 10464 0
-7932 10485 10484 0
7932 -10485 0
7932 -10484 0
10486 -10452 -10469 0
-10486 10452 0
-10486 10469 0
-8398 10487 10486 0
8398 -10487 0
8398 -10486 0
10488 -10452 -10472 0
-10488 10452 0
-10488 10472 0
-8403 10489 10488 0
8403 -10489 0
8403 -10488 0
10490 -10455 -10472 0
-10490 10455 0
-10490 10472 0
-7941 10491 10490 0
7941 -10491 0
7941 -10490 0
10492 -10461 -10458 0
-10492 10461 0
-10492 10458 0
-7946 10493 10492 0
7946 -10493 0
7946 -10492 0
10494 -10461 -10455 0
-10494 10461 0
-10494 10455 0
-7929 10495 10494 0
7929 -10495 0
7929 -10494 0
10496 -10461 -10461 0
-10496 10461 0
-10496 10461 0
-7948 10497 10496 0
7948 -10497 0
7948 -10496 0
10498 -10461 -10469 0
-10498 10461 0
-10498 10469 0
-7950 10499 10498 0
7950 -10499 0
7950 -10498 0
10500 -10461 -10472 0
-10500 10461 0
-10500 10472 0
-7952 10501 10500 0
7952 -10501 0
7952 -10500 0
10502 -10464 -10472 0
-10502 10464 0
-10502 10472 0
-7954 10503 10502 0
7954 -10503 0
7954 -10502 0
10504 -10469 -10458 0
-10504 10469 0
-10504 10458 0
-7956 10505 10504 0
7956 -10505 0
7956 -10504 0
10506 -10469 -10455 0
-10506 10469 0
-10506 10455 0
-7938 10507 10506 0
7938 -10507 0
7938 -10506 0
10508 -10469 -10464 0
-10508 10469 0
-10508 10464 0
-7958 10509 10508 0
7958 -10509 0
7958 -10508 0
10510 -10469 -10469 0
-10510 10469 0
-10510 10469 0
-7960 10511 10510 0
7960 -10511 0
7960 -10510 0
10512 -10513 -10514 0
-10512 10513 0
-10512 10514 0
10515 -10514 -10514 0
-10515 10514 0
-10515 10514 0
10516 -10514 -10513 0
-10516 10514 0
-10516 10513 0
10517 -10513 -10513 -10518 0
-10517 10513 0
-10517 10513 0
-10517 10518 0
-8219 10519 10512 10515 10516 10517 0
8219 -10519 0
8219 -10512 0
8219 -10515 0
8219 -10516 0
8219 -10517 0
10520 -10513 -10521 0
-10520 10513 0
-10520 10521 0
10522 -10514 -10521 0
-10522 10514 0
-10522 10521 0
10523 -10514 -10524 0
-10523 10514 0
-10523 10524 0
10525 -10513 -10524 -10518 0
-10525 10513 0
-10525 10524 0
-10525 10518 0
-8214 10526 10520 10522 10523 10525 0
8214 -10526 0
8214 -10520 0
8214 -10522 0
8214 -10523 0
8214 -10525 0
10527 -10513 -10528 0
-10527 10513 0
-10527 10528 0
10529 -10514 -10530 0
-10529 10514 0
-10529 10530 0
10531 -10514 -10528 0
-10531 10514 0
-10531 10528 0
10532 -10513 -10530 -10518 0
-10532 10513 0
-10532 10530 0
-10532 10518 0
-8213 10533 10527 10529 10531 10532 0
8213 -10533 0
8213 -10527 0
8213 -10529 0
8213 -10531 0
8213 -10532 0
10534 -10535 -10528 0
-10534 10535 0
-10534 10528 0
10536 -10537 -10528 0
-10536 10537 0
-10536 10528 0
10538 -10537 -10530 0
-10538 10537 0
-10538 10530 0
10539 -10535 -10530 -10518 0
-10539 10535 0
-10539 10530 0
-10539 10518 0
-8235 10540 10534 10536 10538 10539 0
8235 -10540 0
8235 -10534 0
8235 -10536 0
8235 -10538 0
8235 -10539 0
10541 -10513 -10542 0
-10541 10513 0
-10541 10542 0
10543 -10514 -10542 0
-10543 10514 0
-10543 10542 0
10544 -10514 -10545 0
-10544 10514 0
-10544 10545 0
10546 -10513 -10545 -10518 0
-10546 10513 0
-10546 10545 0
-10546 10518 0
-8226 10547 10541 10543 10544 10546 0
8226 -10547 0
8226 -10541 0
8226 -10543 0
8226 -10544 0
8226 -10546 0
10548 -10513 -10549 0
-10548 10513 0
-10548 10549 0
10550 -10514 -10551 0
-10550 10514 0
-10550 10551 0
10552 -10514 -10549 0
-10552 10514 0
-10552 10549 0
10553 -10513 -10551 -10518 0
-10553 10513 0
-10553 10551 0
-10553 10518 0
-8233 10554 10548 10550 10552 10553 0
8233 -10554 0
8233 -10548 0
8233 -10550 0
8233 -10552 0
8233 -10553 0
10555 -10535 -10549 0
-10555 10535 0
-10555 10549 0
10556 -10537 -10549 0
-10556 10537 0
-10556 10549 0
10557 -10537 -10551 0
-10557 10537 0
-10557 10551 0
10558 -10535 -10551 -10518 0
-10558 10535 0
-10558 10551 0
-10558 10518 0
-8240 10559 10555 10556 10557 10558 0
8240 -10559 0
8240 -10555 0
8240 -10556 0
8240 -10557 0
8240 -10558 0
10560 -10513 -10561 0
-10560 10513 0
-10560 10561 0
10562 -10514 -10561 0
-10562 10514 0
-10562 10561 0
10563 -10514 -10564 0
-10563 10514 0
-10563 10564 0
10565 -10513 -10564 -10518 0
-10565 10513 0
-10565 10564 0
-10565 10518 0
-8247 10566 10560 10562 10563 10565 0
8247 -10566 0
8247 -10560 0
8247 -10562 0
8247 -10563 0
8247 -10565 0
10567 -10513 -10568 0
-10567 10513 0
-10567 10568 0
10569 -10514 -10570 0
-10569 10514 0
-10569 10570 0
10571 -10514 -10568 0
-10571 10514 0
-10571 10568 0
10572 -10513 -10570 -10518 0
-10572 10513 0
-10572 10570 0
-10572 10518 0
-8254 10573 10567 10569 10571 10572 0
8254 -10573 0
8254 -10567 0
8254 -10569 0
8254 -10571 0
8254 -10572 0
10574 -10535 -10568 0
-10574 10535 0
-10574 10568 0
10575 -10537 -10568 0
-10575 10537 0
-10575 10568 0
10576 -10537 -10570 0
-10576 10537 0
-10576 10570 0
10577 -10535 -10570 -10518 0
-10577 10535 0
-10577 10570 0
-10577 10518 0
-8259 10578 10574 10575 10576 10577 0
8259 -10578 0
8259 -10574 0
8259 -10575 0
8259 -10576 0
8259 -10577 0
10579 -10524 -10537 0
-10579 10524 0
-10579 10537 0
10580 -10521 -10535 0
-10580 10521 0
-10580 10535 0
10581 -10521 -10537 0
-10581 10521 0
-10581 10537 0
10582 -10524 -10535 -10518 0
-10582 10524 0
-10582 10535 0
-10582 10518 0
-8237 10583 10579 10580 10581 10582 0
8237 -10583 0
8237 -10579 0
8237 -10580 0
8237 -10581 0
8237 -10582 0
10584 -10524 -10521 0
-10584 10524 0
-10584 10521 0
10585 -10521 -10521 0
-10585 10521 0
-10585 10521 0
10586 -10521 -10524 0
-10586 10521 0
-10586 10524 0
10587 -10524 -10524 -10518 0
-10587 10524 0
-10587 10524 0
-10587 10518 0
-8218 10588 10584 10585 10586 10587 0
8218 -10588 0
8218 -10584 0
8218 -10585 0
8218 -10586 0
8218 -10587 0
10589 -10524 -10542 0
-10589 10524 0
-10589 10542 0
10590 -10521 -10542 0
-10590 10521 0
-10590 10542 0
10591 -10521 -10545 0
-10591 10521 0
-10591 10545 0
10592 -10524 -10545 -10518 0
-10592 10524 0
-10592 10545 0
-10592 10518 0
-8221 10593 10589 10590 10591 10592 0
8221 -10593 0
8221 -10589 0
8221 -10590 0
8221 -10591 0
8221 -10592 0
10594 -10524 -10549 0
-10594 10524 0
-10594 10549 0
10595 -10521 -10551 0
-10595 10521 0
-10595 10551 0
10596 -10521 -10549 0
-10596 10521 0
-10596 10549 0
10597 -10524 -10551 -10518 0
-10597 10524 0
-10597 10551 0
-10597 10518 0
-8228 10598 10594 10595 10596 10597 0
8228 -10598 0
8228 -10594 0
8228 -10595 0
8228 -10596 0
8228 -10597 0
10599 -10530 -10549 0
-10599 10530 0
-10599 10549 0
10600 -10528 -10549 0
-10600 10528 0
-10600 10549 0
10601 -10528 -10551 0
-10601 10528 0
-10601 10551 0
10602 -10530 -10551 -10518 0
-10602 10530 0
-10602 10551 0
-10602 10518 0
-8230 10603 10599 10600 10601 10602 0
8230 -10603 0
8230 -10599 0
8230 -10600 0
8230 -10601 0
8230 -10602 0
10604 -10524 -10561 0
-10604 10524 0
-10604 10561 0
10605 -10521 -10561 0
-10605 10521 0
-10605 10561 0
10606 -10521 -10564 0
-10606 10521 0
-10606 10564 0
10607 -10524 -10564 -10518 0
-10607 10524 0
-10607 10564 0
-10607 10518 0
-8242 10608 10604 10605 10606 10607 0
8242 -10608 0
8242 -10604 0
8242 -10605 0
8242 -10606 0
8242 -10607 0
10609 -10524 -10568 0
-10609 10524 0
-10609 10568 0
10610 -10521 -10570 0
-10610 10521 0
-10610 10570 0
10611 -10521 -10568 0
-10611 10521 0
-10611 10568 0
10612 -10524 -10570 -10518 0
-10612 10524 0
-10612 10570 0
-10612 10518 0
-8249 10613 10609 10610 10611 10612 0
8249 -10613 0
8249 -10609 0
8249 -10610 0
8249 -10611 0
8249 -10612 0
10614 -10530 -10568 0
-10614 10530 0
-10614 10568 0
10615 -10528 -10568 0
-10615 10528 0
-10615 10568 0
10616 -10528 -10570 0
-10616 10528 0
-10616 10570 0
10617 -10530 -10570 -10518 0
-10617 10530 0
-10617 10570 0
-10617 10518 0
-8251 10618 10614 10615 10616 10617 0
8251 -10618 0
8251 -10614 0
8251 -10615 0
8251 -10616 0
8251 -10617 0
10619 -10545 -10537 0
-10619 10545 0
-10619 10537 0
10620 -10542 -10535 0
-10620 10542 0
-10620 10535 0
10621 -10542 -10537 0
-10621 10542 0
-10621 10537 0
10622 -10545 -10535 -10518 0
-10622 10545 0
-10622 10535 0
-10622 10518 0
-8264 10623 10619 10620 10621 10622 0
8264 -10623 0
8264 -10619 0
8264 -10620 0
8264 -10621 0
8264 -10622 0
10624 -10545 -10528 0
-10624 10545 0
-10624 10528 0
10625 -10542 -10530 0
-10625 10542 0
-10625 10530 0
10626 -10542 -10528 0
-10626 10542 0
-10626 10528 0
10627 -10545 -10530 -10518 0
-10627 10545 0
-10627 10530 0
-10627 10518 0
-8224 10628 10624 10625 10626 10627 0
8224 -10628 0
8224 -10624 0
8224 -10625 0
8224 -10626 0
8224 -10627 0
10629 -10545 -10542 0
-10629 10545 0
-10629 10542 0
10630 -10542 -10542 0
-10630 10542 0
-10630 10542 0
10631 -10542 -10545 0
-10631 10542 0
-10631 10545 0
10632 -10545 -10545 -10518 0
-10632 10545 0
-10632 10545 0
-10632 10518 0
-8269 10633 10629 10630 10631 10632 0
8269 -10633 0
8269 -10629 0
8269 -10630 0
8269 -10631 0
8269 -10632 0
10634 -10545 -10561 0
-10634 10545 0
-10634 10561 0
10635 -10542 -10561 0
-10635 10542 0
-10635 10561 0
10636 -10542 -10564 0
-10636 10542 0
-10636 10564 0
10637 -10545 -10564 -10518 0
-10637 10545 0
-10637 10564 0
-10637 10518 0
-8274 10638 10634 10635 10636 10637 0
8274 -10638 0
8274 -10634 0
8274 -10635 0
8274 -10636 0
8274 -10637 0
10639 -10545 -10568 0
-10639 10545 0
-10639 10568 0
10640 -10542 -10570 0
-10640 10542 0
-10640 10570 0
10641 -10542 -10568 0
-10641 10542 0
-10641 10568 0
10642 -10545 -10570 -10518 0
-10642 10545 0
-10642 10570 0
-10642 10518 0
-8279 10643 10639 10640 10641 10642 0
8279 -10643 0
8279 -10639 0
8279 -10640 0
8279 -10641 0
8279 -10642 0
10644 -10551 -10568 0
-10644 10551 0
-10644 10568 0
10645 -10549 -10568 0
-10645 10549 0
-10645 10568 0
10646 -10549 -10570 0
-10646 10549 0
-10646 10570 0
10647 -10551 -10570 -10518 0
-10647 10551 0
-10647 10570 0
-10647 10518 0
-8284 10648 10644 10645 10646 10647 0
8284 -10648 0
8284 -10644 0
8284 -10645 0
8284 -10646 0
8284 -10647 0
10649 -10564 -10537 0
-10649 10564 0
-10649 10537 0
10650 -10561 -10535 0
-10650 10561 0
-10650 10535 0
10651 -10561 -10537 0
-10651 10561 0
-10651 10537 0
10652 -10564 -10535 -10518 0
-10652 10564 0
-10652 10535 0
-10652 10518 0
-8289 10653 10649 10650 10651 10652 0
8289 -10653 0
8289 -10649 0
8289 -10650 0
8289 -10651 0
8289 -10652 0
10654 -10564 -10528 0
-10654 10564 0
-10654 10528 0
10655 -10561 -10530 0
-10655 10561 0
-10655 10530 0
10656 -10561 -10528 0
-10656 10561 0
-10656 10528 0
10657 -10564 -10530 -10518 0
-10657 10564 0
-10657 10530 0
-10657 10518 0
-8245 10658 10654 10655 10656 10657 0
8245 -10658 0
8245 -10654 0
8245 -10655 0
8245 -10656 0
8245 -10657 0
10659 -10564 -10549 0
-10659 10564 0
-10659 10549 0
10660 -10561 -10551 0
-10660 10561 0
-10660 10551 0
10661 -10561 -10549 0
-10661 10561 0
-10661 10549 0
10662 -10564 -10551 -10518 0
-10662 10564 0
-10662 10551 0
-10662 10518 0
-8294 10663 10659 10660 10661 10662 0
8294 -10663 0
8294 -10659 0
8294 -10660 0
8294 -10661 0
8294 -10662 0
10664 -10564 -10561 0
-10664 10564 0
-10664 10561 0
10665 -10561 -10561 0
-10665 10561 0
-10665 10561 0
10666 -10561 -10564 0
-10666 10561 0
-10666 10564 0
10667 -10564 -10564 -10518 0
-10667 10564 0
-10667 10564 0
-10667 10518 0
-8299 10668 10664 10665 10666 10667 0
8299 -10668 0
8299 -10664 0
8299 -10665 0
8299 -10666 0
8299 -10667 0
10669 -10148 -10141 0
-10669 10148 0
-10669 10141 0
10670 -10141 -10141 0
-10670 10141 0
-10670 10141 0
10671 -10141 -10148 0
-10671 10141 0
-10671 10148 0
10672 -10148 -10148 -10227 0
-10672 10148 0
-10672 10148 0
-10672 10227 0
-8157 10113 10669 10670 10671 10672 0
8157 -10113 0
8157 -10669 0
8157 -10670 0
8157 -10671 0
8157 -10672 0
10673 -10148 -10187 0
-10673 10148 0
-10673 10187 0
10674 -10141 -10187 0
-10674 10141 0
-10674 10187 0
10675 -10141 -10192 0
-10675 10141 0
-10675 10192 0
10676 -10148 -10192 -10227 0
-10676 10148 0
-10676 10192 0
-10676 10227 0
-9253 10120 10673 10674 10675 10676 0
9253 -10120 0
9253 -10673 0
9253 -10674 0
9253 -10675 0
9253 -10676 0
10677 -10148 -10222 0
-10677 10148 0
-10677 10222 0
10678 -10141 -10197 0
-10678 10141 0
-10678 10197 0
10679 -10141 -10222 0
-10679 10141 0
-10679 10222 0
10680 -10148 -10197 -10227 0
-10680 10148 0
-10680 10197 0
-10680 10227 0
-8156 10127 10677 10678 10679 10680 0
8156 -10127 0
8156 -10677 0
8156 -10678 0
8156 -10679 0
8156 -10680 0
10681 -10153 -10222 0
-10681 10153 0
-10681 10222 0
10682 -10217 -10222 0
-10682 10217 0
-10682 10222 0
10683 -10217 -10197 0
-10683 10217 0
-10683 10197 0
10684 -10153 -10197 -10227 0
-10684 10153 0
-10684 10197 0
-10684 10227 0
-8165 10134 10681 10682 10683 10684 0
8165 -10134 0
8165 -10681 0
8165 -10682 0
8165 -10683 0
8165 -10684 0
10685 -10148 -10136 0
-10685 10148 0
-10685 10136 0
10686 -10141 -10136 0
-10686 10141 0
-10686 10136 0
10687 -10141 -10143 0
-10687 10141 0
-10687 10143 0
10688 -10148 -10143 -10227 0
-10688 10148 0
-10688 10143 0
-10688 10227 0
-8160 10108 10685 10686 10687 10688 0
8160 -10108 0
8160 -10685 0
8160 -10686 0
8160 -10687 0
8160 -10688 0
10689 -10148 -10139 0
-10689 10148 0
-10689 10139 0
10690 -10141 -10145 0
-10690 10141 0
-10690 10145 0
10691 -10141 -10139 0
-10691 10141 0
-10691 10139 0
10692 -10148 -10145 -10227 0
-10692 10148 0
-10692 10145 0
-10692 10227 0
-8163 10107 10689 10690 10691 10692 0
8163 -10107 0
8163 -10689 0
8163 -10690 0
8163 -10691 0
8163 -10692 0
10693 -10153 -10139 0
-10693 10153 0
-10693 10139 0
10694 -10217 -10139 0
-10694 10217 0
-10694 10139 0
10695 -10217 -10145 0
-10695 10217 0
-10695 10145 0
10696 -10153 -10145 -10227 0
-10696 10153 0
-10696 10145 0
-10696 10227 0
-8166 10129 10693 10694 10695 10696 0
8166 -10129 0
8166 -10693 0
8166 -10694 0
8166 -10695 0
8166 -10696 0
10697 -10148 -10232 0
-10697 10148 0
-10697 10232 0
10698 -10141 -10232 0
-10698 10141 0
-10698 10232 0
10699 -10141 -10257 0
-10699 10141 0
-10699 10257 0
10700 -10148 -10257 -10227 0
-10700 10148 0
-10700 10257 0
-10700 10227 0
-8169 10160 10697 10698 10699 10700 0
8169 -10160 0
8169 -10697 0
8169 -10698 0
8169 -10699 0
8169 -10700 0
10701 -10148 -10237 0
-10701 10148 0
-10701 10237 0
10702 -10141 -10242 0
-10702 10141 0
-10702 10242 0
10703 -10141 -10237 0
-10703 10141 0
-10703 10237 0
10704 -10148 -10242 -10227 0
-10704 10148 0
-10704 10242 0
-10704 10227 0
-8172 10167 10701 10702 10703 10704 0
8172 -10167 0
8172 -10701 0
8172 -10702 0
8172 -10703 0
8172 -10704 0
10705 -10153 -10237 0
-10705 10153 0
-10705 10237 0
10706 -10217 -10237 0
-10706 10217 0
-10706 10237 0
10707 -10217 -10242 0
-10707 10217 0
-10707 10242 0
10708 -10153 -10242 -10227 0
-10708 10153 0
-10708 10242 0
-10708 10227 0
-8174 10172 10705 10706 10707 10708 0
8174 -10172 0
8174 -10705 0
8174 -10706 0
8174 -10707 0
8174 -10708 0
10709 -10192 -10217 0
-10709 10192 0
-10709 10217 0
10710 -10187 -10153 0
-10710 10187 0
-10710 10153 0
10711 -10187 -10217 0
-10711 10187 0
-10711 10217 0
10712 -10192 -10153 -10227 0
-10712 10192 0
-10712 10153 0
-10712 10227 0
-9270 10177 10709 10710 10711 10712 0
9270 -10177 0
9270 -10709 0
9270 -10710 0
9270 -10711 0
9270 -10712 0
10713 -10192 -10187 0
-10713 10192 0
-10713 10187 0
10714 -10187 -10187 0
-10714 10187 0
-10714 10187 0
10715 -10187 -10192 0
-10715 10187 0
-10715 10192 0
10716 -10192 -10192 -10227 0
-10716 10192 0
-10716 10192 0
-10716 10227 0
-9257 10182 10713 10714 10715 10716 0
9257 -10182 0
9257 -10713 0
9257 -10714 0
9257 -10715 0
9257 -10716 0
10717 -10192 -10136 0
-10717 10192 0
-10717 10136 0
10718 -10187 -10136 0
-10718 10187 0
-10718 10136 0
10719 -10187 -10143 0
-10719 10187 0
-10719 10143 0
10720 -10192 -10143 -10227 0
-10720 10192 0
-10720 10143 0
-10720 10227 0
-9259 10115 10717 10718 10719 10720 0
9259 -10115 0
9259 -10717 0
9259 -10718 0
9259 -10719 0
9259 -10720 0
10721 -10192 -10139 0
-10721 10192 0
-10721 10139 0
10722 -10187 -10145 0
-10722 10187 0
-10722 10145 0
10723 -10187 -10139 0
-10723 10187 0
-10723 10139 0
10724 -10192 -10145 -10227 0
-10724 10192 0
-10724 10145 0
-10724 10227 0
-9264 10118 10721 10722 10723 10724 0
9264 -10118 0
9264 -10721 0
9264 -10722 0
9264 -10723 0
9264 -10724 0
10725 -10197 -10139 0
-10725 10197 0
-10725 10139 0
10726 -10222 -10139 0
-10726 10222 0
-10726 10139 0
10727 -10222 -10145 0
-10727 10222 0
-10727 10145 0
10728 -10197 -10145 -10227 0
-10728 10197 0
-10728 10145 0
-10728 10227 0
-8162 10124 10725 10726 10727 10728 0
8162 -10124 0
8162 -10725 0
8162 -10726 0
8162 -10727 0
8162 -10728 0
10729 -10192 -10232 0
-10729 10192 0
-10729 10232 0
10730 -10187 -10232 0
-10730 10187 0
-10730 10232 0
10731 -10187 -10257 0
-10731 10187 0
-10731 10257 0
10732 -10192 -10257 -10227 0
-10732 10192 0
-10732 10257 0
-10732 10227 0
-9274 10202 10729 10730 10731 10732 0
9274 -10202 0
9274 -10729 0
9274 -10730 0
9274 -10731 0
9274 -10732 0
10733 -10192 -10237 0
-10733 10192 0
-10733 10237 0
10734 -10187 -10242 0
-10734 10187 0
-10734 10242 0
10735 -10187 -10237 0
-10735 10187 0
-10735 10237 0
10736 -10192 -10242 -10227 0
-10736 10192 0
-10736 10242 0
-10736 10227 0
-9279 10207 10733 10734 10735 10736 0
9279 -10207 0
9279 -10733 0
9279 -10734 0
9279 -10735 0
9279 -10736 0
10737 -10197 -10237 0
-10737 10197 0
-10737 10237 0
10738 -10222 -10237 0
-10738 10222 0
-10738 10237 0
10739 -10222 -10242 0
-10739 10222 0
-10739 10242 0
10740 -10197 -10242 -10227 0
-10740 10197 0
-10740 10242 0
-10740 10227 0
-8171 10212 10737 10738 10739 10740 0
8171 -10212 0
8171 -10737 0
8171 -10738 0
8171 -10739 0
8171 -10740 0
10741 -10143 -10217 0
-10741 10143 0
-10741 10217 0
10742 -10136 -10153 0
-10742 10136 0
-10742 10153 0
10743 -10136 -10217 0
-10743 10136 0
-10743 10217 0
10744 -10143 -10153 -10227 0
-10744 10143 0
-10744 10153 0
-10744 10227 0
-8176 10131 10741 10742 10743 10744 0
8176 -10131 0
8176 -10741 0
8176 -10742 0
8176 -10743 0
8176 -10744 0
10745 -10143 -10222 0
-10745 10143 0
-10745 10222 0
10746 -10136 -10197 0
-10746 10136 0
-10746 10197 0
10747 -10136 -10222 0
-10747 10136 0
-10747 10222 0
10748 -10143 -10197 -10227 0
-10748 10143 0
-10748 10197 0
-10748 10227 0
-8159 10122 10745 10746 10747 10748 0
8159 -10122 0
8159 -10745 0
8159 -10746 0
8159 -10747 0
8159 -10748 0
10749 -10143 -10136 0
-10749 10143 0
-10749 10136 0
10224 -10136 -10136 0
-10224 10136 0
-10224 10136 0
10750 -10136 -10143 0
-10750 10136 0
-10750 10143 0
10751 -10143 -10143 -10227 0
-10751 10143 0
-10751 10143 0
-10751 10227 0
-8178 10112 10749 10224 10750 10751 0
8178 -10112 0
8178 -10749 0
8178 -10224 0
8178 -10750 0
8178 -10751 0
10752 -10143 -10232 0
-10752 10143 0
-10752 10232 0
10753 -10136 -10232 0
-10753 10136 0
-10753 10232 0
10754 -10136 -10257 0
-10754 10136 0
-10754 10257 0
10755 -10143 -10257 -10227 0
-10755 10143 0
-10755 10257 0
-10755 10227 0
-8180 10155 10752 10753 10754 10755 0
8180 -10155 0
8180 -10752 0
8180 -10753 0
8180 -10754 0
8180 -10755 0
10756 -10143 -10237 0
-10756 10143 0
-10756 10237 0
10757 -10136 -10242 0
-10757 10136 0
-10757 10242 0
10758 -10136 -10237 0
-10758 10136 0
-10758 10237 0
10759 -10143 -10242 -10227 0
-10759 10143 0
-10759 10242 0
-10759 10227 0
-8182 10162 10756 10757 10758 10759 0
8182 -10162 0
8182 -10756 0
8182 -10757 0
8182 -10758 0
8182 -10759 0
10760 -10145 -10237 0
-10760 10145 0
-10760 10237 0
10761 -10139 -10237 0
-10761 10139 0
-10761 10237 0
10762 -10139 -10242 0
-10762 10139 0
-10762 10242 0
10763 -10145 -10242 -10227 0
-10763 10145 0
-10763 10242 0
-10763 10227 0
-8184 10164 10760 10761 10762 10763 0
8184 -10164 0
8184 -10760 0
8184 -10761 0
8184 -10762 0
8184 -10763 0
10764 -10257 -10217 0
-10764 10257 0
-10764 10217 0
10765 -10232 -10153 0
-10765 10232 0
-10765 10153 0
10766 -10232 -10217 0
-10766 10232 0
-10766 10217 0
10767 -10257 -10153 -10227 0
-10767 10257 0
-10767 10153 0
-10767 10227 0
-8186 10247 10764 10765 10766 10767 0
8186 -10247 0
8186 -10764 0
8186 -10765 0
8186 -10766 0
8186 -10767 0
10768 -10257 -10222 0
-10768 10257 0
-10768 10222 0
10769 -10232 -10197 0
-10769 10232 0
-10769 10197 0
10770 -10232 -10222 0
-10770 10232 0
-10770 10222 0
10771 -10257 -10197 -10227 0
-10771 10257 0
-10771 10197 0
-10771 10227 0
-8168 10252 10768 10769 10770 10771 0
8168 -10252 0
8168 -10768 0
8168 -10769 0
8168 -10770 0
8168 -10771 0
10772 -10257 -10139 0
-10772 10257 0
-10772 10139 0
10773 -10232 -10145 0
-10773 10232 0
-10773 10145 0
10774 -10232 -10139 0
-10774 10232 0
-10774 10139 0
10775 -10257 -10145 -10227 0
-10775 10257 0
-10775 10145 0
-10775 10227 0
-8188 10158 10772 10773 10774 10775 0
8188 -10158 0
8188 -10772 0
8188 -10773 0
8188 -10774 0
8188 -10775 0
10776 -10257 -10232 0
-10776 10257 0
-10776 10232 0
10777 -10232 -10232 0
-10777 10232 0
-10777 10232 0
10778 -10232 -10257 0
-10778 10232 0
-10778 10257 0
10779 -10257 -10257 -10227 0
-10779 10257 0
-10779 10257 0
-10779 10227 0
-8190 10262 10776 10777 10778 10779 0
8190 -10262 0
8190 -10776 0
8190 -10777 0
8190 -10778 0
8190 -10779 0
10780 -10473 -10470 0
-10780 10473 0
-10780 10470 0
10781 -10470 -10470 0
-10781 10470 0
-10781 10470 0
10782 -10470 -10473 0
-10782 10470 0
-10782 10473 0
10783 -10473 -10473 -10511 0
-10783 10473 0
-10783 10473 0
-10783 10511 0
-7119 10450 10780 10781 10782 10783 0
7119 -10450 0
7119 -10780 0
7119 -10781 0
7119 -10782 0
7119 -10783 0
10784 -10473 -10487 0
-10784 10473 0
-10784 10487 0
10785 -10470 -10487 0
-10785 10470 0
-10785 10487 0
10786 -10470 -10489 0
-10786 10470 0
-10786 10489 0
10787 -10473 -10489 -10511 0
-10787 10473 0
-10787 10489 0
-10787 10511 0
-7126 10453 10784 10785 10786 10787 0
7126 -10453 0
7126 -10784 0
7126 -10785 0
7126 -10786 0
7126 -10787 0
10788 -10473 -10507 0
-10788 10473 0
-10788 10507 0
10789 -10470 -10491 0
-10789 10470 0
-10789 10491 0
10790 -10470 -10507 0
-10790 10470 0
-10790 10507 0
10791 -10473 -10491 -10511 0
-10791 10473 0
-10791 10491 0
-10791 10511 0
-7133 10456 10788 10789 10790 10791 0
7133 -10456 0
7133 -10788 0
7133 -10789 0
7133 -10790 0
7133 -10791 0
10792 -10475 -10507 0
-10792 10475 0
-10792 10507 0
10793 -10505 -10507 0
-10793 10505 0
-10793 10507 0
10794 -10505 -10491 0
-10794 10505 0
-10794 10491 0
10795 -10475 -10491 -10511 0
-10795 10475 0
-10795 10491 0
-10795 10511 0
-7140 10459 10792 10793 10794 10795 0
7140 -10459 0
7140 -10792 0
7140 -10793 0
7140 -10794 0
7140 -10795 0
10796 -10473 -10499 0
-10796 10473 0
-10796 10499 0
10797 -10470 -10499 0
-10797 10470 0
-10797 10499 0
10798 -10470 -10501 0
-10798 10470 0
-10798 10501 0
10799 -10473 -10501 -10511 0
-10799 10473 0
-10799 10501 0
-10799 10511 0
-7114 10462 10796 10797 10798 10799 0
7114 -10462 0
7114 -10796 0
7114 -10797 0
7114 -10798 0
7114 -10799 0
10800 -10473 -10509 0
-10800 10473 0
-10800 10509 0
10801 -10470 -10503 0
-10801 10470 0
-10801 10503 0
10802 -10470 -10509 0
-10802 10470 0
-10802 10509 0
10803 -10473 -10503 -10511 0
-10803 10473 0
-10803 10503 0
-10803 10511 0
-7113 10465 10800 10801 10802 10803 0
7113 -10465 0
7113 -10800 0
7113 -10801 0
7113 -10802 0
7113 -10803 0
10804 -10475 -10509 0
-10804 10475 0
-10804 10509 0
10805 -10505 -10509 0
-10805 10505 0
-10805 10509 0
10806 -10505 -10503 0
-10806 10505 0
-10806 10503 0
10807 -10475 -10503 -10511 0
-10807 10475 0
-10807 10503 0
-10807 10511 0
-7135 10467 10804 10805 10806 10807 0
7135 -10467 0
7135 -10804 0
7135 -10805 0
7135 -10806 0
7135 -10807 0
10808 -10473 -10809 0
-10808 10473 0
-10808 10809 0
10810 -10470 -10809 0
-10810 10470 0
-10810 10809 0
10811 -10470 -10812 0
-10811 10470 0
-10811 10812 0
10813 -10473 -10812 -10511 0
-10813 10473 0
-10813 10812 0
-10813 10511 0
-7147 10814 10808 10810 10811 10813 0
7147 -10814 0
7147 -10808 0
7147 -10810 0
7147 -10811 0
7147 -10813 0
10815 -10473 -10469 0
-10815 10473 0
-10815 10469 0
10816 -10470 -10472 0
-10816 10470 0
-10816 10472 0
10817 -10470 -10469 0
-10817 10470 0
-10817 10469 0
10818 -10473 -10472 -10511 0
-10818 10473 0
-10818 10472 0
-10818 10511 0
-7154 10449 10815 10816 10817 10818 0
7154 -10449 0
7154 -10815 0
7154 -10816 0
7154 -10817 0
7154 -10818 0
10819 -10475 -10469 0
-10819 10475 0
-10819 10469 0
10820 -10505 -10469 0
-10820 10505 0
-10820 10469 0
10821 -10505 -10472 0
-10821 10505 0
-10821 10472 0
10822 -10475 -10472 -10511 0
-10822 10475 0
-10822 10472 0
-10822 10511 0
-7159 10458 10819 10820 10821 10822 0
7159 -10458 0
7159 -10819 0
7159 -10820 0
7159 -10821 0
7159 -10822 0
10823 -10489 -10505 0
-10823 10489 0
-10823 10505 0
10824 -10487 -10475 0
-10824 10487 0
-10824 10475 0
10825 -10487 -10505 0
-10825 10487 0
-10825 10505 0
10826 -10489 -10475 -10511 0
-10826 10489 0
-10826 10475 0
-10826 10511 0
-7164 10477 10823 10824 10825 10826 0
7164 -10477 0
7164 -10823 0
7164 -10824 0
7164 -10825 0
7164 -10826 0
10827 -10489 -10487 0
-10827 10489 0
-10827 10487 0
10828 -10487 -10487 0
-10828 10487 0
-10828 10487 0
10829 -10487 -10489 0
-10829 10487 0
-10829 10489 0
10830 -10489 -10489 -10511 0
-10830 10489 0
-10830 10489 0
-10830 10511 0
-7169 10479 10827 10828 10829 10830 0
7169 -10479 0
7169 -10827 0
7169 -10828 0
7169 -10829 0
7169 -10830 0
10831 -10489 -10499 0
-10831 10489 0
-10831 10499 0
10832 -10487 -10499 0
-10832 10487 0
-10832 10499 0
10833 -10487 -10501 0
-10833 10487 0
-10833 10501 0
10834 -10489 -10501 -10511 0
-10834 10489 0
-10834 10501 0
-10834 10511 0
-7121 10481 10831 10832 10833 10834 0
7121 -10481 0
7121 -10831 0
7121 -10832 0
7121 -10833 0
7121 -10834 0
10835 -10489 -10509 0
-10835 10489 0
-10835 10509 0
10836 -10487 -10503 0
-10836 10487 0
-10836 10503 0
10837 -10487 -10509 0
-10837 10487 0
-10837 10509 0
10838 -10489 -10503 -10511 0
-10838 10489 0
-10838 10503 0
-10838 10511 0
-7124 10483 10835 10836 10837 10838 0
7124 -10483 0
7124 -10835 0
7124 -10836 0
7124 -10837 0
7124 -10838 0
10839 -10491 -10509 0
-10839 10491 0
-10839 10509 0
10840 -10507 -10509 0
-10840 10507 0
-10840 10509 0
10841 -10507 -10503 0
-10841 10507 0
-10841 10503 0
10842 -10491 -10503 -10511 0
-10842 10491 0
-10842 10503 0
-10842 10511 0
-7130 10485 10839 10840 10841 10842 0
7130 -10485 0
7130 -10839 0
7130 -10840 0
7130 -10841 0
7130 -10842 0
10843 -10489 -10809 0
-10843 10489 0
-10843 10809 0
10844 -10487 -10809 0
-10844 10487 0
-10844 10809 0
10845 -10487 -10812 0
-10845 10487 0
-10845 10812 0
10846 -10489 -10812 -10511 0
-10846 10489 0
-10846 10812 0
-10846 10511 0
-7174 10847 10843 10844 10845 10846 0
7174 -10847 0
7174 -10843 0
7174 -10844 0
7174 -10845 0
7174 -10846 0
10848 -10489 -10469 0
-10848 10489 0
-10848 10469 0
10849 -10487 -10472 0
-10849 10487 0
-10849 10472 0
10850 -10487 -10469 0
-10850 10487 0
-10850 10469 0
10851 -10489 -10472 -10511 0
-10851 10489 0
-10851 10472 0
-10851 10511 0
-7179 10452 10848 10849 10850 10851 0
7179 -10452 0
7179 -10848 0
7179 -10849 0
7179 -10850 0
7179 -10851 0
10852 -10491 -10469 0
-10852 10491 0
-10852 10469 0
10853 -10507 -10469 0
-10853 10507 0
-10853 10469 0
10854 -10507 -10472 0
-10854 10507 0
-10854 10472 0
10855 -10491 -10472 -10511 0
-10855 10491 0
-10855 10472 0
-10855 10511 0
-7184 10455 10852 10853 10854 10855 0
7184 -10455 0
7184 -10852 0
7184 -10853 0
7184 -10854 0
7184 -10855 0
10856 -10501 -10505 0
-10856 10501 0
-10856 10505 0
10857 -10499 -10475 0
-10857 10499 0
-10857 10475 0
10858 -10499 -10505 0
-10858 10499 0
-10858 10505 0
10859 -10501 -10475 -10511 0
-10859 10501 0
-10859 10475 0
-10859 10511 0
-7137 10493 10856 10857 10858 10859 0
7137 -10493 0
7137 -10856 0
7137 -10857 0
7137 -10858 0
7137 -10859 0
10860 -10501 -10507 0
-10860 10501 0
-10860 10507 0
10861 -10499 -10491 0
-10861 10499 0
-10861 10491 0
10862 -10499 -10507 0
-10862 10499 0
-10862 10507 0
10863 -10501 -10491 -10511 0
-10863 10501 0
-10863 10491 0
-10863 10511 0
-7128 10495 10860 10861 10862 10863 0
7128 -10495 0
7128 -10860 0
7128 -10861 0
7128 -10862 0
7128 -10863 0
10864 -10501 -10499 0
-10864 10501 0
-10864 10499 0
10865 -10499 -10499 0
-10865 10499 0
-10865 10499 0
10866 -10499 -10501 0
-10866 10499 0
-10866 10501 0
10867 -10501 -10501 -10511 0
-10867 10501 0
-10867 10501 0
-10867 10511 0
-7118 10497 10864 10865 10866 10867 0
7118 -10497 0
7118 -10864 0
7118 -10865 0
7118 -10866 0
7118 -10867 0
10868 -10501 -10809 0
-10868 10501 0
-10868 10809 0
10869 -10499 -10809 0
-10869 10499 0
-10869 10809 0
10870 -10499 -10812 0
-10870 10499 0
-10870 10812 0
10871 -10501 -10812 -10511 0
-10871 10501 0
-10871 10812 0
-10871 10511 0
-7142 10872 10868 10869 10870 10871 0
7142 -10872 0
7142 -10868 0
7142 -10869 0
7142 -10870 0
7142 -10871 0
10873 -10501 -10469 0
-10873 10501 0
-10873 10469 0
10874 -10499 -10472 0
-10874 10499 0
-10874 10472 0
10875 -10499 -10469 0
-10875 10499 0
-10875 10469 0
10876 -10501 -10472 -10511 0
-10876 10501 0
-10876 10472 0
-10876 10511 0
-7149 10461 10873 10874 10875 10876 0
7149 -10461 0
7149 -10873 0
7149 -10874 0
7149 -10875 0
7149 -10876 0
10877 -10503 -10469 0
-10877 10503 0
-10877 10469 0
10878 -10509 -10469 0
-10878 10509 0
-10878 10469 0
10879 -10509 -10472 0
-10879 10509 0
-10879 10472 0
10880 -10503 -10472 -10511 0
-10880 10503 0
-10880 10472 0
-10880 10511 0
-7151 10464 10877 10878 10879 10880 0
7151 -10464 0
7151 -10877 0
7151 -10878 0
7151 -10879 0
7151 -10880 0
10881 -10812 -10505 0
-10881 10812 0
-10881 10505 0
10882 -10809 -10475 0
-10882 10809 0
-10882 10475 0
10883 -10809 -10505 0
-10883 10809 0
-10883 10505 0
10884 -10812 -10475 -10511 0
-10884 10812 0
-10884 10475 0
-10884 10511 0
-7189 10885 10881 10882 10883 10884 0
7189 -10885 0
7189 -10881 0
7189 -10882 0
7189 -10883 0
7189 -10884 0
10886 -10812 -10507 0
-10886 10812 0
-10886 10507 0
10887 -10809 -10491 0
-10887 10809 0
-10887 10491 0
10888 -10809 -10507 0
-10888 10809 0
-10888 10507 0
10889 -10812 -10491 -10511 0
-10889 10812 0
-10889 10491 0
-10889 10511 0
-7194 10890 10886 10887 10888 10889 0
7194 -10890 0
7194 -10886 0
7194 -10887 0
7194 -10888 0
7194 -10889 0
10891 -10812 -10509 0
-10891 10812 0
-10891 10509 0
10892 -10809 -10503 0
-10892 10809 0
-10892 10503 0
10893 -10809 -10509 0
-10893 10809 0
-10893 10509 0
10894 -10812 -10503 -10511 0
-10894 10812 0
-10894 10503 0
-10894 10511 0
-7145 10895 10891 10892 10893 10894 0
7145 -10895 0
7145 -10891 0
7145 -10892 0
7145 -10893 0
7145 -10894 0
10896 -10812 -10809 0
-10896 10812 0
-10896 10809 0
10897 -10809 -10809 0
-10897 10809 0
-10897 10809 0
10898 -10809 -10812 0
-10898 10809 0
-10898 10812 0
10899 -10812 -10812 -10511 0
-10899 10812 0
-10899 10812 0
-10899 10511 0
-7199 10900 10896 10897 10898 10899 0
7199 -10900 0
7199 -10896 0
7199 -10897 0
7199 -10898 0
7199 -10899 0
10901 -10473 -10473 0
-10901 10473 0
-10901 10473 0
-7417 10450 10901 0
7417 -10450 0
7417 -10901 0
10902 -10473 -10489 0
-10902 10473 0
-10902 10489 0
-7420 10453 10902 0
7420 -10453 0
7420 -10902 0
10903 -10473 -10491 0
-10903 10473 0
-10903 10491 0
-7423 10456 10903 0
7423 -10456 0
7423 -10903 0
10904 -10475 -10491 0
-10904 10475 0
-10904 10491 0
-7426 10459 10904 0
7426 -10459 0
7426 -10904 0
10905 -10473 -10501 0
-10905 10473 0
-10905 10501 0
-7964 10462 10905 0
7964 -10462 0
7964 -10905 0
10906 -10473 -10503 0
-10906 10473 0
-10906 10503 0
-7416 10465 10906 0
7416 -10465 0
7416 -10906 0
10907 -10475 -10503 0
-10907 10475 0
-10907 10503 0
-7425 10467 10907 0
7425 -10467 0
7425 -10907 0
10908 -10473 -10812 0
-10908 10473 0
-10908 10812 0
-7429 10814 10908 0
7429 -10814 0
7429 -10908 0
10909 -10473 -10472 0
-10909 10473 0
-10909 10472 0
-7432 10449 10909 0
7432 -10449 0
7432 -10909 0
10910 -10475 -10472 0
-10910 10475 0
-10910 10472 0
-7434 10458 10910 0
7434 -10458 0
7434 -10910 0
10911 -10489 -10475 0
-10911 10489 0
-10911 10475 0
-7436 10477 10911 0
7436 -10477 0
7436 -10911 0
10912 -10489 -10489 0
-10912 10489 0
-10912 10489 0
-7438 10479 10912 0
7438 -10479 0
7438 -10912 0
10913 -10489 -10501 0
-10913 10489 0
-10913 10501 0
-8601 10481 10913 0
8601 -10481 0
8601 -10913 0
10914 -10489 -10503 0
-10914 10489 0
-10914 10503 0
-7419 10483 10914 0
7419 -10483 0
7419 -10914 0
10915 -10491 -10503 0
-10915 10491 0
-10915 10503 0
-7422 10485 10915 0
7422 -10485 0
7422 -10915 0
10916 -10489 -10812 0
-10916 10489 0
-10916 10812 0
-7440 10847 10916 0
7440 -10847 0
7440 -10916 0
10917 -10489 -10472 0
-10917 10489 0
-10917 10472 0
-7442 10452 10917 0
7442 -10452 0
7442 -10917 0
10918 -10491 -10472 0
-10918 10491 0
-10918 10472 0
-7444 10455 10918 0
7444 -10455 0
7444 -10918 0
10919 -10501 -10475 0
-10919 10501 0
-10919 10475 0
-7971 10493 10919 0
7971 -10493 0
7971 -10919 0
10920 -10501 -10491 0
-10920 10501 0
-10920 10491 0
-7963 10495 10920 0
7963 -10495 0
7963 -10920 0
10921 -10501 -10501 0
-10921 10501 0
-10921 10501 0
-7973 10497 10921 0
7973 -10497 0
7973 -10921 0
10922 -10501 -10812 0
-10922 10501 0
-10922 10812 0
-7975 10872 10922 0
7975 -10872 0
7975 -10922 0
10923 -10501 -10472 0
-10923 10501 0
-10923 10472 0
-7977 10461 10923 0
7977 -10461 0
7977 -10923 0
10924 -10503 -10472 0
-10924 10503 0
-10924 10472 0
-7431 10464 10924 0
7431 -10464 0
7431 -10924 0
10925 -10812 -10475 0
-10925 10812 0
-10925 10475 0
-7446 10885 10925 0
7446 -10885 0
7446 -10925 0
10926 -10812 -10491 0
-10926 10812 0
-10926 10491 0
-7448 10890 10926 0
7448 -10890 0
7448 -10926 0
10927 -10812 -10503 0
-10927 10812 0
-10927 10503 0
-7428 10895 10927 0
7428 -10895 0
7428 -10927 0
10928 -10812 -10812 0
-10928 10812 0
-10928 10812 0
-7450 10900 10928 0
7450 -10900 0
7450 -10928 0
10929 -10930 -10931 0
-10929 10930 0
-10929 10931 0
10932 -10931 -10931 0
-10932 10931 0
-10932 10931 0
10933 -10931 -10930 0
-10933 10931 0
-10933 10930 0
10934 -10930 -10930 -10935 0
-10934 10930 0
-10934 10930 0
-10934 10935 0
-7725 10936 10929 10932 10933 10934 0
7725 -10936 0
7725 -10929 0
7725 -10932 0
7725 -10933 0
7725 -10934 0
10937 -10930 -10938 0
-10937 10930 0
-10937 10938 0
10939 -10931 -10938 0
-10939 10931 0
-10939 10938 0
10940 -10931 -10941 0
-10940 10931 0
-10940 10941 0
10942 -10930 -10941 -10935 0
-10942 10930 0
-10942 10941 0
-10942 10935 0
-8623 10943 10937 10939 10940 10942 0
8623 -10943 0
8623 -10937 0
8623 -10939 0
8623 -10940 0
8623 -10942 0
10944 -10930 -10945 0
-10944 10930 0
-10944 10945 0
10946 -10931 -10947 0
-10946 10931 0
-10946 10947 0
10948 -10931 -10945 0
-10948 10931 0
-10948 10945 0
10949 -10930 -10947 -10935 0
-10949 10930 0
-10949 10947 0
-10949 10935 0
-7724 10950 10944 10946 10948 10949 0
7724 -10950 0
7724 -10944 0
7724 -10946 0
7724 -10948 0
7724 -10949 0
10951 -10952 -10945 0
-10951 10952 0
-10951 10945 0
10953 -10954 -10945 0
-10953 10954 0
-10953 10945 0
10955 -10954 -10947 0
-10955 10954 0
-10955 10947 0
10956 -10952 -10947 -10935 0
-10956 10952 0
-10956 10947 0
-10956 10935 0
-7733 10957 10951 10953 10955 10956 0
7733 -10957 0
7733 -10951 0
7733 -10953 0
7733 -10955 0
7733 -10956 0
10958 -10930 -10959 0
-10958 10930 0
-10958 10959 0
10960 -10931 -10959 0
-10960 10931 0
-10960 10959 0
10961 -10931 -10962 0
-10961 10931 0
-10961 10962 0
10963 -10930 -10962 -10935 0
-10963 10930 0
-10963 10962 0
-10963 10935 0
-7728 10964 10958 10960 10961 10963 0
7728 -10964 0
7728 -10958 0
7728 -10960 0
7728 -10961 0
7728 -10963 0
10965 -10930 -10966 0
-10965 10930 0
-10965 10966 0
10967 -10931 -10968 0
-10967 10931 0
-10967 10968 0
10969 -10931 -10966 0
-10969 10931 0
-10969 10966 0
10970 -10930 -10968 -10935 0
-10970 10930 0
-10970 10968 0
-10970 10935 0
-7731 10971 10965 10967 10969 10970 0
7731 -10971 0
7731 -10965 0
7731 -10967 0
7731 -10969 0
7731 -10970 0
10972 -10952 -10966 0
-10972 10952 0
-10972 10966 0
10973 -10954 -10966 0
-10973 10954 0
-10973 10966 0
10974 -10954 -10968 0
-10974 10954 0
-10974 10968 0
10975 -10952 -10968 -10935 0
-10975 10952 0
-10975 10968 0
-10975 10935 0
-7734 10976 10972 10973 10974 10975 0
7734 -10976 0
7734 -10972 0
7734 -10973 0
7734 -10974 0
7734 -10975 0
10977 -10930 -10978 0
-10977 10930 0
-10977 10978 0
10979 -10931 -10978 0
-10979 10931 0
-10979 10978 0
10980 -10931 -10981 0
-10980 10931 0
-10980 10981 0
10982 -10930 -10981 -10935 0
-10982 10930 0
-10982 10981 0
-10982 10935 0
-7737 10983 10977 10979 10980 10982 0
7737 -10983 0
7737 -10977 0
7737 -10979 0
7737 -10980 0
7737 -10982 0
10984 -10930 -10985 0
-10984 10930 0
-10984 10985 0
10986 -10931 -10987 0
-10986 10931 0
-10986 10987 0
10988 -10931 -10985 0
-10988 10931 0
-10988 10985 0
10989 -10930 -10987 -10935 0
-10989 10930 0
-10989 10987 0
-10989 10935 0
-7740 10990 10984 10986 10988 10989 0
7740 -10990 0
7740 -10984 0
7740 -10986 0
7740 -10988 0
7740 -10989 0
10991 -10952 -10985 0
-10991 10952 0
-10991 10985 0
10992 -10954 -10985 0
-10992 10954 0
-10992 10985 0
10993 -10954 -10987 0
-10993 10954 0
-10993 10987 0
10994 -10952 -10987 -10935 0
-10994 10952 0
-10994 10987 0
-10994 10935 0
-7742 10995 10991 10992 10993 10994 0
7742 -10995 0
7742 -10991 0
7742 -10992 0
7742 -10993 0
7742 -10994 0
10996 -10941 -10954 0
-10996 10941 0
-10996 10954 0
10997 -10938 -10952 0
-10997 10938 0
-10997 10952 0
10998 -10938 -10954 0
-10998 10938 0
-10998 10954 0
10999 -10941 -10952 -10935 0
-10999 10941 0
-10999 10952 0
-10999 10935 0
-8640 11000 10996 10997 10998 10999 0
8640 -11000 0
8640 -10996 0
8640 -10997 0
8640 -10998 0
8640 -10999 0
11001 -10941 -10938 0
-11001 10941 0
-11001 10938 0
11002 -10938 -10938 0
-11002 10938 0
-11002 10938 0
11003 -10938 -10941 0
-11003 10938 0
-11003 10941 0
11004 -10941 -10941 -10935 0
-11004 10941 0
-11004 10941 0
-11004 10935 0
-8627 11005 11001 11002 11003 11004 0
8627 -11005 0
8627 -11001 0
8627 -11002 0
8627 -11003 0
8627 -11004 0
11006 -10941 -10959 0
-11006 10941 0
-11006 10959 0
11007 -10938 -10959 0
-11007 10938 0
-11007 10959 0
11008 -10938 -10962 0
-11008 10938 0
-11008 10962 0
11009 -10941 -10962 -10935 0
-11009 10941 0
-11009 10962 0
-11009 10935 0
-8629 11010 11006 11007 11008 11009 0
8629 -11010 0
8629 -11006 0
8629 -11007 0
8629 -11008 0
8629 -11009 0
11011 -10941 -10966 0
-11011 10941 0
-11011 10966 0
11012 -10938 -10968 0
-11012 10938 0
-11012 10968 0
11013 -10938 -10966 0
-11013 10938 0
-11013 10966 0
11014 -10941 -10968 -10935 0
-11014 10941 0
-11014 10968 0
-11014 10935 0
-8634 11015 11011 11012 11013 11014 0
8634 -11015 0
8634 -11011 0
8634 -11012 0
8634 -11013 0
8634 -11014 0
11016 -10947 -10966 0
-11016 10947 0
-11016 10966 0
11017 -10945 -10966 0
-11017 10945 0
-11017 10966 0
11018 -10945 -10968 0
-11018 10945 0
-11018 10968 0
11019 -10947 -10968 -10935 0
-11019 10947 0
-11019 10968 0
-11019 10935 0
-7730 11020 11016 11017 11018 11019 0
7730 -11020 0
7730 -11016 0
7730 -11017 0
7730 -11018 0
7730 -11019 0
11021 -10941 -10978 0
-11021 10941 0
-11021 10978 0
11022 -10938 -10978 0
-11022 10938 0
-11022 10978 0
11023 -10938 -10981 0
-11023 10938 0
-11023 10981 0
11024 -10941 -10981 -10935 0
-11024 10941 0
-11024 10981 0
-11024 10935 0
-8644 11025 11021 11022 11023 11024 0
8644 -11025 0
8644 -11021 0
8644 -11022 0
8644 -11023 0
8644 -11024 0
11026 -10941 -10985 0
-11026 10941 0
-11026 10985 0
11027 -10938 -10987 0
-11027 10938 0
-11027 10987 0
11028 -10938 -10985 0
-11028 10938 0
-11028 10985 0
11029 -10941 -10987 -10935 0
-11029 10941 0
-11029 10987 0
-11029 10935 0
-8649 11030 11026 11027 11028 11029 0
8649 -11030 0
8649 -11026 0
8649 -11027 0
8649 -11028 0
8649 -11029 0
11031 -10947 -10985 0
-11031 10947 0
-11031 10985 0
11032 -10945 -10985 0
-11032 10945 0
-11032 10985 0
11033 -10945 -10987 0
-11033 10945 0
-11033 10987 0
11034 -10947 -10987 -10935 0
-11034 10947 0
-11034 10987 0
-11034 10935 0
-7739 11035 11031 11032 11033 11034 0
7739 -11035 0
7739 -11031 0
7739 -11032 0
7739 -11033 0
7739 -11034 0
11036 -10962 -10954 0
-11036 10962 0
-11036 10954 0
11037 -10959 -10952 0
-11037 10959 0
-11037 10952 0
11038 -10959 -10954 0
-11038 10959 0
-11038 10954 0
11039 -10962 -10952 -10935 0
-11039 10962 0
-11039 10952 0
-11039 10935 0
-7744 11040 11036 11037 11038 11039 0
7744 -11040 0
7744 -11036 0
7744 -11037 0
7744 -11038 0
7744 -11039 0
11041 -10962 -10945 0
-11041 10962 0
-11041 10945 0
11042 -10959 -10947 0
-11042 10959 0
-11042 10947 0
11043 -10959 -10945 0
-11043 10959 0
-11043 10945 0
11044 -10962 -10947 -10935 0
-11044 10962 0
-11044 10947 0
-11044 10935 0
-7727 11045 11041 11042 11043 11044 0
7727 -11045 0
7727 -11041 0
7727 -11042 0
7727 -11043 0
7727 -11044 0
11046 -10962 -10959 0
-11046 10962 0
-11046 10959 0
11047 -10959 -10959 0
-11047 10959 0
-11047 10959 0
11048 -10959 -10962 0
-11048 10959 0
-11048 10962 0
11049 -10962 -10962 -10935 0
-11049 10962 0
-11049 10962 0
-11049 10935 0
-7746 11050 11046 11047 11048 11049 0
7746 -11050 0
7746 -11046 0
7746 -11047 0
7746 -11048 0
7746 -11049 0
11051 -10962 -10978 0
-11051 10962 0
-11051 10978 0
11052 -10959 -10978 0
-11052 10959 0
-11052 10978 0
11053 -10959 -10981 0
-11053 10959 0
-11053 10981 0
11054 -10962 -10981 -10935 0
-11054 10962 0
-11054 10981 0
-11054 10935 0
-7748 11055 11051 11052 11053 11054 0
7748 -11055 0
7748 -11051 0
7748 -11052 0
7748 -11053 0
7748 -11054 0
11056 -10962 -10985 0
-11056 10962 0
-11056 10985 0
11057 -10959 -10987 0
-11057 10959 0
-11057 10987 0
11058 -10959 -10985 0
-11058 10959 0
-11058 10985 0
11059 -10962 -10987 -10935 0
-11059 10962 0
-11059 10987 0
-11059 10935 0
-7750 11060 11056 11057 11058 11059 0
7750 -11060 0
7750 -11056 0
7750 -11057 0
7750 -11058 0
7750 -11059 0
11061 -10968 -10985 0
-11061 10968 0
-11061 10985 0
11062 -10966 -10985 0
-11062 10966 0
-11062 10985 0
11063 -10966 -10987 0
-11063 10966 0
-11063 10987 0
11064 -10968 -10987 -10935 0
-11064 10968 0
-11064 10987 0
-11064 10935 0
-7752 11065 11061 11062 11063 11064 0
7752 -11065 0
7752 -11061 0
7752 -11062 0
7752 -11063 0
7752 -11064 0
11066 -10981 -10954 0
-11066 10981 0
-11066 10954 0
11067 -10978 -10952 0
-11067 10978 0
-11067 10952 0
11068 -10978 -10954 0
-11068 10978 0
-11068 10954 0
11069 -10981 -10952 -10935 0
-11069 10981 0
-11069 10952 0
-11069 10935 0
-7754 11070 11066 11067 11068 11069 0
7754 -11070 0
7754 -11066 0
7754 -11067 0
7754 -11068 0
7754 -11069 0
11071 -10981 -10945 0
-11071 10981 0
-11071 10945 0
11072 -10978 -10947 0
-11072 10978 0
-11072 10947 0
11073 -10978 -10945 0
-11073 10978 0
-11073 10945 0
11074 -10981 -10947 -10935 0
-11074 10981 0
-11074 10947 0
-11074 10935 0
-7736 11075 11071 11072 11073 11074 0
7736 -11075 0
7736 -11071 0
7736 -11072 0
7736 -11073 0
7736 -11074 0
11076 -10981 -10966 0
-11076 10981 0
-11076 10966 0
11077 -10978 -10968 0
-11077 10978 0
-11077 10968 0
11078 -10978 -10966 0
-11078 10978 0
-11078 10966 0
11079 -10981 -10968 -10935 0
-11079 10981 0
-11079 10968 0
-11079 10935 0
-7756 11080 11076 11077 11078 11079 0
7756 -11080 0
7756 -11076 0
7756 -11077 0
7756 -11078 0
7756 -11079 0
11081 -10981 -10978 0
-11081 10981 0
-11081 10978 0
11082 -10978 -10978 0
-11082 10978 0
-11082 10978 0
11083 -10978 -10981 0
-11083 10978 0
-11083 10981 0
11084 -10981 -10981 -10935 0
-11084 10981 0
-11084 10981 0
-11084 10935 0
-7758 11085 11081 11082 11083 11084 0
7758 -11085 0
7758 -11081 0
7758 -11082 0
7758 -11083 0
7758 -11084 0
11086 -10167 -10160 0
-11086 10167 0
-11086 10160 0
11087 -10160 -10160 0
-11087 10160 0
-11087 10160 0
11088 -10160 -10167 0
-11088 10160 0
-11088 10167 0
11089 -10167 -10167 -10262 0
-11089 10167 0
-11089 10167 0
-11089 10262 0
-7063 10113 11086 11087 11088 11089 0
7063 -10113 0
7063 -11086 0
7063 -11087 0
7063 -11088 0
7063 -11089 0
11090 -10167 -10202 0
-11090 10167 0
-11090 10202 0
11091 -10160 -10202 0
-11091 10160 0
-11091 10202 0
11092 -10160 -10207 0
-11092 10160 0
-11092 10207 0
11093 -10167 -10207 -10262 0
-11093 10167 0
-11093 10207 0
-11093 10262 0
-7066 10120 11090 11091 11092 11093 0
7066 -10120 0
7066 -11090 0
7066 -11091 0
7066 -11092 0
7066 -11093 0
11094 -10167 -10252 0
-11094 10167 0
-11094 10252 0
11095 -10160 -10212 0
-11095 10160 0
-11095 10212 0
11096 -10160 -10252 0
-11096 10160 0
-11096 10252 0
11097 -10167 -10212 -10262 0
-11097 10167 0
-11097 10212 0
-11097 10262 0
-7069 10127 11094 11095 11096 11097 0
7069 -10127 0
7069 -11094 0
7069 -11095 0
7069 -11096 0
7069 -11097 0
11098 -10172 -10252 0
-11098 10172 0
-11098 10252 0
11099 -10247 -10252 0
-11099 10247 0
-11099 10252 0
11100 -10247 -10212 0
-11100 10247 0
-11100 10212 0
11101 -10172 -10212 -10262 0
-11101 10172 0
-11101 10212 0
-11101 10262 0
-7072 10134 11098 11099 11100 11101 0
7072 -10134 0
7072 -11098 0
7072 -11099 0
7072 -11100 0
7072 -11101 0
11102 -10167 -10232 0
-11102 10167 0
-11102 10232 0
11103 -10160 -10232 0
-11103 10160 0
-11103 10232 0
11104 -10160 -10237 0
-11104 10160 0
-11104 10237 0
11105 -10167 -10237 -10262 0
-11105 10167 0
-11105 10237 0
-11105 10262 0
-7075 10141 11102 11103 11104 11105 0
7075 -10141 0
7075 -11102 0
7075 -11103 0
7075 -11104 0
7075 -11105 0
11106 -10167 -10257 0
-11106 10167 0
-11106 10257 0
11107 -10160 -10242 0
-11107 10160 0
-11107 10242 0
11108 -10160 -10257 0
-11108 10160 0
-11108 10257 0
11109 -10167 -10242 -10262 0
-11109 10167 0
-11109 10242 0
-11109 10262 0
-7078 10148 11106 11107 11108 11109 0
7078 -10148 0
7078 -11106 0
7078 -11107 0
7078 -11108 0
7078 -11109 0
11110 -10172 -10257 0
-11110 10172 0
-11110 10257 0
11111 -10247 -10257 0
-11111 10247 0
-11111 10257 0
11112 -10247 -10242 0
-11112 10247 0
-11112 10242 0
11113 -10172 -10242 -10262 0
-11113 10172 0
-11113 10242 0
-11113 10262 0
-7080 10153 11110 11111 11112 11113 0
7080 -10153 0
7080 -11110 0
7080 -11111 0
7080 -11112 0
7080 -11113 0
11114 -10167 -10155 0
-11114 10167 0
-11114 10155 0
11115 -10160 -10155 0
-11115 10160 0
-11115 10155 0
11116 -10160 -10162 0
-11116 10160 0
-11116 10162 0
11117 -10167 -10162 -10262 0
-11117 10167 0
-11117 10162 0
-11117 10262 0
-8197 10108 11114 11115 11116 11117 0
8197 -10108 0
8197 -11114 0
8197 -11115 0
8197 -11116 0
8197 -11117 0
11118 -10167 -10158 0
-11118 10167 0
-11118 10158 0
11119 -10160 -10164 0
-11119 10160 0
-11119 10164 0
11120 -10160 -10158 0
-11120 10160 0
-11120 10158 0
11121 -10167 -10164 -10262 0
-11121 10167 0
-11121 10164 0
-11121 10262 0
-7062 10107 11118 11119 11120 11121 0
7062 -10107 0
7062 -11118 0
7062 -11119 0
7062 -11120 0
7062 -11121 0
11122 -10172 -10158 0
-11122 10172 0
-11122 10158 0
11123 -10247 -10158 0
-11123 10247 0
-11123 10158 0
11124 -10247 -10164 0
-11124 10247 0
-11124 10164 0
11125 -10172 -10164 -10262 0
-11125 10172 0
-11125 10164 0
-11125 10262 0
-7071 10129 11122 11123 11124 11125 0
7071 -10129 0
7071 -11122 0
7071 -11123 0
7071 -11124 0
7071 -11125 0
11126 -10207 -10247 0
-11126 10207 0
-11126 10247 0
11127 -10202 -10172 0
-11127 10202 0
-11127 10172 0
11128 -10202 -10247 0
-11128 10202 0
-11128 10247 0
11129 -10207 -10172 -10262 0
-11129 10207 0
-11129 10172 0
-11129 10262 0
-7082 10177 11126 11127 11128 11129 0
7082 -10177 0
7082 -11126 0
7082 -11127 0
7082 -11128 0
7082 -11129 0
11130 -10207 -10202 0
-11130 10207 0
-11130 10202 0
11131 -10202 -10202 0
-11131 10202 0
-11131 10202 0
11132 -10202 -10207 0
-11132 10202 0
-11132 10207 0
11133 -10207 -10207 -10262 0
-11133 10207 0
-11133 10207 0
-11133 10262 0
-7084 10182 11130 11131 11132 11133 0
7084 -10182 0
7084 -11130 0
7084 -11131 0
7084 -11132 0
7084 -11133 0
11134 -10207 -10232 0
-11134 10207 0
-11134 10232 0
11135 -10202 -10232 0
-11135 10202 0
-11135 10232 0
11136 -10202 -10237 0
-11136 10202 0
-11136 10237 0
11137 -10207 -10237 -10262 0
-11137 10207 0
-11137 10237 0
-11137 10262 0
-7086 10187 11134 11135 11136 11137 0
7086 -10187 0
7086 -11134 0
7086 -11135 0
7086 -11136 0
7086 -11137 0
11138 -10207 -10257 0
-11138 10207 0
-11138 10257 0
11139 -10202 -10242 0
-11139 10202 0
-11139 10242 0
11140 -10202 -10257 0
-11140 10202 0
-11140 10257 0
11141 -10207 -10242 -10262 0
-11141 10207 0
-11141 10242 0
-11141 10262 0
-7088 10192 11138 11139 11140 11141 0
7088 -10192 0
7088 -11138 0
7088 -11139 0
7088 -11140 0
7088 -11141 0
11142 -10212 -10257 0
-11142 10212 0
-11142 10257 0
11143 -10252 -10257 0
-11143 10252 0
-11143 10257 0
11144 -10252 -10242 0
-11144 10252 0
-11144 10242 0
11145 -10212 -10242 -10262 0
-11145 10212 0
-11145 10242 0
-11145 10262 0
-7090 10197 11142 11143 11144 11145 0
7090 -10197 0
7090 -11142 0
7090 -11143 0
7090 -11144 0
7090 -11145 0
11146 -10207 -10155 0
-11146 10207 0
-11146 10155 0
11147 -10202 -10155 0
-11147 10202 0
-11147 10155 0
11148 -10202 -10162 0
-11148 10202 0
-11148 10162 0
11149 -10207 -10162 -10262 0
-11149 10207 0
-11149 10162 0
-11149 10262 0
-8203 10115 11146 11147 11148 11149 0
8203 -10115 0
8203 -11146 0
8203 -11147 0
8203 -11148 0
8203 -11149 0
11150 -10207 -10158 0
-11150 10207 0
-11150 10158 0
11151 -10202 -10164 0
-11151 10202 0
-11151 10164 0
11152 -10202 -10158 0
-11152 10202 0
-11152 10158 0
11153 -10207 -10164 -10262 0
-11153 10207 0
-11153 10164 0
-11153 10262 0
-7065 10118 11150 11151 11152 11153 0
7065 -10118 0
7065 -11150 0
7065 -11151 0
7065 -11152 0
7065 -11153 0
11154 -10212 -10158 0
-11154 10212 0
-11154 10158 0
11155 -10252 -10158 0
-11155 10252 0
-11155 10158 0
11156 -10252 -10164 0
-11156 10252 0
-11156 10164 0
11157 -10212 -10164 -10262 0
-11157 10212 0
-11157 10164 0
-11157 10262 0
-7068 10124 11154 11155 11156 11157 0
7068 -10124 0
7068 -11154 0
7068 -11155 0
7068 -11156 0
7068 -11157 0
11158 -10237 -10247 0
-11158 10237 0
-11158 10247 0
11159 -10232 -10172 0
-11159 10232 0
-11159 10172 0
11160 -10232 -10247 0
-11160 10232 0
-11160 10247 0
11161 -10237 -10172 -10262 0
-11161 10237 0
-11161 10172 0
-11161 10262 0
-7092 10217 11158 11159 11160 11161 0
7092 -10217 0
7092 -11158 0
7092 -11159 0
7092 -11160 0
7092 -11161 0
11162 -10237 -10252 0
-11162 10237 0
-11162 10252 0
11163 -10232 -10212 0
-11163 10232 0
-11163 10212 0
11164 -10232 -10252 0
-11164 10232 0
-11164 10252 0
11165 -10237 -10212 -10262 0
-11165 10237 0
-11165 10212 0
-11165 10262 0
-7094 10222 11162 11163 11164 11165 0
7094 -10222 0
7094 -11162 0
7094 -11163 0
7094 -11164 0
7094 -11165 0
11166 -10237 -10232 0
-11166 10237 0
-11166 10232 0
10777 -10232 -10232 0
-10777 10232 0
-10777 10232 0
11167 -10232 -10237 0
-11167 10232 0
-11167 10237 0
11168 -10237 -10237 -10262 0
-11168 10237 0
-11168 10237 0
-11168 10262 0
-7096 10227 11166 10777 11167 11168 0
7096 -10227 0
7096 -11166 0
7096 -10777 0
7096 -11167 0
7096 -11168 0
11169 -10237 -10155 0
-11169 10237 0
-11169 10155 0
11170 -10232 -10155 0
-11170 10232 0
-11170 10155 0
11171 -10232 -10162 0
-11171 10232 0
-11171 10162 0
11172 -10237 -10162 -10262 0
-11172 10237 0
-11172 10162 0
-11172 10262 0
-8355 10136 11169 11170 11171 11172 0
8355 -10136 0
8355 -11169 0
8355 -11170 0
8355 -11171 0
8355 -11172 0
11173 -10237 -10158 0
-11173 10237 0
-11173 10158 0
11174 -10232 -10164 0
-11174 10232 0
-11174 10164 0
11175 -10232 -10158 0
-11175 10232 0
-11175 10158 0
11176 -10237 -10164 -10262 0
-11176 10237 0
-11176 10164 0
-11176 10262 0
-7074 10139 11173 11174 11175 11176 0
7074 -10139 0
7074 -11173 0
7074 -11174 0
7074 -11175 0
7074 -11176 0
11177 -10242 -10158 0
-11177 10242 0
-11177 10158 0
11178 -10257 -10158 0
-11178 10257 0
-11178 10158 0
11179 -10257 -10164 0
-11179 10257 0
-11179 10164 0
11180 -10242 -10164 -10262 0
-11180 10242 0
-11180 10164 0
-11180 10262 0
-7077 10145 11177 11178 11179 11180 0
7077 -10145 0
7077 -11177 0
7077 -11178 0
7077 -11179 0
7077 -11180 0
11181 -10162 -10247 0
-11181 10162 0
-11181 10247 0
11182 -10155 -10172 0
-11182 10155 0
-11182 10172 0
11183 -10155 -10247 0
-11183 10155 0
-11183 10247 0
11184 -10162 -10172 -10262 0
-11184 10162 0
-11184 10172 0
-11184 10262 0
-8207 10131 11181 11182 11183 11184 0
8207 -10131 0
8207 -11181 0
8207 -11182 0
8207 -11183 0
8207 -11184 0
11185 -10162 -10252 0
-11185 10162 0
-11185 10252 0
11186 -10155 -10212 0
-11186 10155 0
-11186 10212 0
11187 -10155 -10252 0
-11187 10155 0
-11187 10252 0
11188 -10162 -10212 -10262 0
-11188 10162 0
-11188 10212 0
-11188 10262 0
-8209 10122 11185 11186 11187 11188 0
8209 -10122 0
8209 -11185 0
8209 -11186 0
8209 -11187 0
8209 -11188 0
11189 -10162 -10257 0
-11189 10162 0
-11189 10257 0
11190 -10155 -10242 0
-11190 10155 0
-11190 10242 0
11191 -10155 -10257 0
-11191 10155 0
-11191 10257 0
11192 -10162 -10242 -10262 0
-11192 10162 0
-11192 10242 0
-11192 10262 0
-8196 10143 11189 11190 11191 11192 0
8196 -10143 0
8196 -11189 0
8196 -11190 0
8196 -11191 0
8196 -11192 0
11193 -10162 -10155 0
-11193 10162 0
-11193 10155 0
10259 -10155 -10155 0
-10259 10155 0
-10259 10155 0
11194 -10155 -10162 0
-11194 10155 0
-11194 10162 0
11195 -10162 -10162 -10262 0
-11195 10162 0
-11195 10162 0
-11195 10262 0
-8211 10112 11193 10259 11194 11195 0
8211 -10112 0
8211 -11193 0
8211 -10259 0
8211 -11194 0
8211 -11195 0
11196 -10167 -10167 0
-11196 10167 0
-11196 10167 0
-7849 10113 11196 0
7849 -10113 0
7849 -11196 0
11197 -10167 -10207 0
-11197 10167 0
-11197 10207 0
-7852 10120 11197 0
7852 -10120 0
7852 -11197 0
11198 -10167 -10212 0
-11198 10167 0
-11198 10212 0
-7855 10127 11198 0
7855 -10127 0
7855 -11198 0
11199 -10172 -10212 0
-11199 10172 0
-11199 10212 0
-7858 10134 11199 0
7858 -10134 0
7858 -11199 0
11200 -10167 -10237 0
-11200 10167 0
-11200 10237 0
-7861 10141 11200 0
7861 -10141 0
7861 -11200 0
11201 -10167 -10242 0
-11201 10167 0
-11201 10242 0
-7864 10148 11201 0
7864 -10148 0
7864 -11201 0
11202 -10172 -10242 0
-11202 10172 0
-11202 10242 0
-7866 10153 11202 0
7866 -10153 0
7866 -11202 0
11203 -10167 -10162 0
-11203 10167 0
-11203 10162 0
-7889 10108 11203 0
7889 -10108 0
7889 -11203 0
11204 -10167 -10164 0
-11204 10167 0
-11204 10164 0
-7848 10107 11204 0
7848 -10107 0
7848 -11204 0
11205 -10172 -10164 0
-11205 10172 0
-11205 10164 0
-7857 10129 11205 0
7857 -10129 0
7857 -11205 0
11206 -10207 -10172 0
-11206 10207 0
-11206 10172 0
-7868 10177 11206 0
7868 -10177 0
7868 -11206 0
11207 -10207 -10207 0
-11207 10207 0
-11207 10207 0
-7870 10182 11207 0
7870 -10182 0
7870 -11207 0
11208 -10207 -10237 0
-11208 10207 0
-11208 10237 0
-7872 10187 11208 0
7872 -10187 0
7872 -11208 0
11209 -10207 -10242 0
-11209 10207 0
-11209 10242 0
-7874 10192 11209 0
7874 -10192 0
7874 -11209 0
11210 -10212 -10242 0
-11210 10212 0
-11210 10242 0
-7876 10197 11210 0
7876 -10197 0
7876 -11210 0
11211 -10207 -10162 0
-11211 10207 0
-11211 10162 0
-7987 10115 11211 0
7987 -10115 0
7987 -11211 0
11212 -10207 -10164 0
-11212 10207 0
-11212 10164 0
-7851 10118 11212 0
7851 -10118 0
7851 -11212 0
11213 -10212 -10164 0
-11213 10212 0
-11213 10164 0
-7854 10124 11213 0
7854 -10124 0
7854 -11213 0
11214 -10237 -10172 0
-11214 10237 0
-11214 10172 0
-7878 10217 11214 0
7878 -10217 0
7878 -11214 0
11215 -10237 -10212 0
-11215 10237 0
-11215 10212 0
-7880 10222 11215 0
7880 -10222 0
7880 -11215 0
11216 -10237 -10237 0
-11216 10237 0
-11216 10237 0
-7882 10227 11216 0
7882 -10227 0
7882 -11216 0
11217 -10237 -10162 0
-11217 10237 0
-11217 10162 0
-7895 10136 11217 0
7895 -10136 0
7895 -11217 0
11218 -10237 -10164 0
-11218 10237 0
-11218 10164 0
-7860 10139 11218 0
7860 -10139 0
7860 -11218 0
11219 -10242 -10164 0
-11219 10242 0
-11219 10164 0
-7863 10145 11219 0
7863 -10145 0
7863 -11219 0
11220 -10162 -10172 0
-11220 10162 0
-11220 10172 0
-7899 10131 11220 0
7899 -10131 0
7899 -11220 0
11221 -10162 -10212 0
-11221 10162 0
-11221 10212 0
-7888 10122 11221 0
7888 -10122 0
7888 -11221 0
11222 -10162 -10242 0
-11222 10162 0
-11222 10242 0
-7901 10143 11222 0
7901 -10143 0
7901 -11222 0
11223 -10162 -10162 0
-11223 10162 0
-11223 10162 0
-7903 10112 11223 0
7903 -10112 0
7903 -11223 0
11224 -10971 -10964 0
-11224 10971 0
-11224 10964 0
11225 -10964 -10964 0
-11225 10964 0
-11225 10964 0
11226 -10964 -10971 0
-11226 10964 0
-11226 10971 0
11227 -10971 -10971 -11050 0
-11227 10971 0
-11227 10971 0
-11227 11050 0
-6877 10936 11224 11225 11226 11227 0
6877 -10936 0
6877 -11224 0
6877 -11225 0
6877 -11226 0
6877 -11227 0
11228 -10971 -11010 0
-11228 10971 0
-11228 11010 0
11229 -10964 -11010 0
-11229 10964 0
-11229 11010 0
11230 -10964 -11015 0
-11230 10964 0
-11230 11015 0
11231 -10971 -11015 -11050 0
-11231 10971 0
-11231 11015 0
-11231 11050 0
-6884 10943 11228 11229 11230 11231 0
6884 -10943 0
6884 -11228 0
6884 -11229 0
6884 -11230 0
6884 -11231 0
11232 -10971 -11045 0
-11232 10971 0
-11232 11045 0
11233 -10964 -11020 0
-11233 10964 0
-11233 11020 0
11234 -10964 -11045 0
-11234 10964 0
-11234 11045 0
11235 -10971 -11020 -11050 0
-11235 10971 0
-11235 11020 0
-11235 11050 0
-6891 10950 11232 11233 11234 11235 0
6891 -10950 0
6891 -11232 0
6891 -11233 0
6891 -11234 0
6891 -11235 0
11236 -10976 -11045 0
-11236 10976 0
-11236 11045 0
11237 -11040 -11045 0
-11237 11040 0
-11237 11045 0
11238 -11040 -11020 0
-11238 11040 0
-11238 11020 0
11239 -10976 -11020 -11050 0
-11239 10976 0
-11239 11020 0
-11239 11050 0
-6898 10957 11236 11237 11238 11239 0
6898 -10957 0
6898 -11236 0
6898 -11237 0
6898 -11238 0
6898 -11239 0
11240 -10971 -10959 0
-11240 10971 0
-11240 10959 0
11241 -10964 -10959 0
-11241 10964 0
-11241 10959 0
11242 -10964 -10966 0
-11242 10964 0
-11242 10966 0
11243 -10971 -10966 -11050 0
-11243 10971 0
-11243 10966 0
-11243 11050 0
-6872 10931 11240 11241 11242 11243 0
6872 -10931 0
6872 -11240 0
6872 -11241 0
6872 -11242 0
6872 -11243 0
11244 -10971 -10962 0
-11244 10971 0
-11244 10962 0
11245 -10964 -10968 0
-11245 10964 0
-11245 10968 0
11246 -10964 -10962 0
-11246 10964 0
-11246 10962 0
11247 -10971 -10968 -11050 0
-11247 10971 0
-11247 10968 0
-11247 11050 0
-6871 10930 11244 11245 11246 11247 0
6871 -10930 0
6871 -11244 0
6871 -11245 0
6871 -11246 0
6871 -11247 0
11248 -10976 -10962 0
-11248 10976 0
-11248 10962 0
11249 -11040 -10962 0
-11249 11040 0
-11249 10962 0
11250 -11040 -10968 0
-11250 11040 0
-11250 10968 0
11251 -10976 -10968 -11050 0
-11251 10976 0
-11251 10968 0
-11251 11050 0
-6893 10952 11248 11249 11250 11251 0
6893 -10952 0
6893 -11248 0
6893 -11249 0
6893 -11250 0
6893 -11251 0
11252 -10971 -11055 0
-11252 10971 0
-11252 11055 0
11253 -10964 -11055 0
-11253 10964 0
-11253 11055 0
11254 -10964 -11080 0
-11254 10964 0
-11254 11080 0
11255 -10971 -11080 -11050 0
-11255 10971 0
-11255 11080 0
-11255 11050 0
-6905 10983 11252 11253 11254 11255 0
6905 -10983 0
6905 -11252 0
6905 -11253 0
6905 -11254 0
6905 -11255 0
11256 -10971 -11060 0
-11256 10971 0
-11256 11060 0
11257 -10964 -11065 0
-11257 10964 0
-11257 11065 0
11258 -10964 -11060 0
-11258 10964 0
-11258 11060 0
11259 -10971 -11065 -11050 0
-11259 10971 0
-11259 11065 0
-11259 11050 0
-6912 10990 11256 11257 11258 11259 0
6912 -10990 0
6912 -11256 0
6912 -11257 0
6912 -11258 0
6912 -11259 0
11260 -10976 -11060 0
-11260 10976 0
-11260 11060 0
11261 -11040 -11060 0
-11261 11040 0
-11261 11060 0
11262 -11040 -11065 0
-11262 11040 0
-11262 11065 0
11263 -10976 -11065 -11050 0
-11263 10976 0
-11263 11065 0
-11263 11050 0
-6917 10995 11260 11261 11262 11263 0
6917 -10995 0
6917 -11260 0
6917 -11261 0
6917 -11262 0
6917 -11263 0
11264 -11015 -11040 0
-11264 11015 0
-11264 11040 0
11265 -11010 -10976 0
-11265 11010 0
-11265 10976 0
11266 -11010 -11040 0
-11266 11010 0
-11266 11040 0
11267 -11015 -10976 -11050 0
-11267 11015 0
-11267 10976 0
-11267 11050 0
-6922 11000 11264 11265 11266 11267 0
6922 -11000 0
6922 -11264 0
6922 -11265 0
6922 -11266 0
6922 -11267 0
11268 -11015 -11010 0
-11268 11015 0
-11268 11010 0
11269 -11010 -11010 0
-11269 11010 0
-11269 11010 0
11270 -11010 -11015 0
-11270 11010 0
-11270 11015 0
11271 -11015 -11015 -11050 0
-11271 11015 0
-11271 11015 0
-11271 11050 0
-6927 11005 11268 11269 11270 11271 0
6927 -11005 0
6927 -11268 0
6927 -11269 0
6927 -11270 0
6927 -11271 0
11272 -11015 -10959 0
-11272 11015 0
-11272 10959 0
11273 -11010 -10959 0
-11273 11010 0
-11273 10959 0
11274 -11010 -10966 0
-11274 11010 0
-11274 10966 0
11275 -11015 -10966 -11050 0
-11275 11015 0
-11275 10966 0
-11275 11050 0
-6879 10938 11272 11273 11274 11275 0
6879 -10938 0
6879 -11272 0
6879 -11273 0
6879 -11274 0
6879 -11275 0
11276 -11015 -10962 0
-11276 11015 0
-11276 10962 0
11277 -11010 -10968 0
-11277 11010 0
-11277 10968 0
11278 -11010 -10962 0
-11278 11010 0
-11278 10962 0
11279 -11015 -10968 -11050 0
-11279 11015 0
-11279 10968 0
-11279 11050 0
-6882 10941 11276 11277 11278 11279 0
6882 -10941 0
6882 -11276 0
6882 -11277 0
6882 -11278 0
6882 -11279 0
11280 -11020 -10962 0
-11280 11020 0
-11280 10962 0
11281 -11045 -10962 0
-11281 11045 0
-11281 10962 0
11282 -11045 -10968 0
-11282 11045 0
-11282 10968 0
11283 -11020 -10968 -11050 0
-11283 11020 0
-11283 10968 0
-11283 11050 0
-6888 10947 11280 11281 11282 11283 0
6888 -10947 0
6888 -11280 0
6888 -11281 0
6888 -11282 0
6888 -11283 0
11284 -11015 -11055 0
-11284 11015 0
-11284 11055 0
11285 -11010 -11055 0
-11285 11010 0
-11285 11055 0
11286 -11010 -11080 0
-11286 11010 0
-11286 11080 0
11287 -11015 -11080 -11050 0
-11287 11015 0
-11287 11080 0
-11287 11050 0
-6932 11025 11284 11285 11286 11287 0
6932 -11025 0
6932 -11284 0
6932 -11285 0
6932 -11286 0
6932 -11287 0
11288 -11015 -11060 0
-11288 11015 0
-11288 11060 0
11289 -11010 -11065 0
-11289 11010 0
-11289 11065 0
11290 -11010 -11060 0
-11290 11010 0
-11290 11060 0
11291 -11015 -11065 -11050 0
-11291 11015 0
-11291 11065 0
-11291 11050 0
-6937 11030 11288 11289 11290 11291 0
6937 -11030 0
6937 -11288 0
6937 -11289 0
6937 -11290 0
6937 -11291 0
11292 -11020 -11060 0
-11292 11020 0
-11292 11060 0
11293 -11045 -11060 0
-11293 11045 0
-11293 11060 0
11294 -11045 -11065 0
-11294 11045 0
-11294 11065 0
11295 -11020 -11065 -11050 0
-11295 11020 0
-11295 11065 0
-11295 11050 0
-6942 11035 11292 11293 11294 11295 0
6942 -11035 0
6942 -11292 0
6942 -11293 0
6942 -11294 0
6942 -11295 0
11296 -10966 -11040 0
-11296 10966 0
-11296 11040 0
11297 -10959 -10976 0
-11297 10959 0
-11297 10976 0
11298 -10959 -11040 0
-11298 10959 0
-11298 11040 0
11299 -10966 -10976 -11050 0
-11299 10966 0
-11299 10976 0
-11299 11050 0
-6895 10954 11296 11297 11298 11299 0
6895 -10954 0
6895 -11296 0
6895 -11297 0
6895 -11298 0
6895 -11299 0
11300 -10966 -11045 0
-11300 10966 0
-11300 11045 0
11301 -10959 -11020 0
-11301 10959 0
-11301 11020 0
11302 -10959 -11045 0
-11302 10959 0
-11302 11045 0
11303 -10966 -11020 -11050 0
-11303 10966 0
-11303 11020 0
-11303 11050 0
-6886 10945 11300 11301 11302 11303 0
6886 -10945 0
6886 -11300 0
6886 -11301 0
6886 -11302 0
6886 -11303 0
11304 -10966 -10959 0
-11304 10966 0
-11304 10959 0
11047 -10959 -10959 0
-11047 10959 0
-11047 10959 0
11305 -10959 -10966 0
-11305 10959 0
-11305 10966 0
11306 -10966 -10966 -11050 0
-11306 10966 0
-11306 10966 0
-11306 11050 0
-6876 10935 11304 11047 11305 11306 0
6876 -10935 0
6876 -11304 0
6876 -11047 0
6876 -11305 0
6876 -11306 0
11307 -10966 -11055 0
-11307 10966 0
-11307 11055 0
11308 -10959 -11055 0
-11308 10959 0
-11308 11055 0
11309 -10959 -11080 0
-11309 10959 0
-11309 11080 0
11310 -10966 -11080 -11050 0
-11310 10966 0
-11310 11080 0
-11310 11050 0
-6900 10978 11307 11308 11309 11310 0
6900 -10978 0
6900 -11307 0
6900 -11308 0
6900 -11309 0
6900 -11310 0
11311 -10966 -11060 0
-11311 10966 0
-11311 11060 0
11312 -10959 -11065 0
-11312 10959 0
-11312 11065 0
11313 -10959 -11060 0
-11313 10959 0
-11313 11060 0
11314 -10966 -11065 -11050 0
-11314 10966 0
-11314 11065 0
-11314 11050 0
-6907 10985 11311 11312 11313 11314 0
6907 -10985 0
6907 -11311 0
6907 -11312 0
6907 -11313 0
6907 -11314 0
11315 -10968 -11060 0
-11315 10968 0
-11315 11060 0
11316 -10962 -11060 0
-11316 10962 0
-11316 11060 0
11317 -10962 -11065 0
-11317 10962 0
-11317 11065 0
11318 -10968 -11065 -11050 0
-11318 10968 0
-11318 11065 0
-11318 11050 0
-6909 10987 11315 11316 11317 11318 0
6909 -10987 0
6909 -11315 0
6909 -11316 0
6909 -11317 0
6909 -11318 0
11319 -11080 -11040 0
-11319 11080 0
-11319 11040 0
11320 -11055 -10976 0
-11320 11055 0
-11320 10976 0
11321 -11055 -11040 0
-11321 11055 0
-11321 11040 0
11322 -11080 -10976 -11050 0
-11322 11080 0
-11322 10976 0
-11322 11050 0
-6947 11070 11319 11320 11321 11322 0
6947 -11070 0
6947 -11319 0
6947 -11320 0
6947 -11321 0
6947 -11322 0
11323 -11080 -11045 0
-11323 11080 0
-11323 11045 0
11324 -11055 -11020 0
-11324 11055 0
-11324 11020 0
11325 -11055 -11045 0
-11325 11055 0
-11325 11045 0
11326 -11080 -11020 -11050 0
-11326 11080 0
-11326 11020 0
-11326 11050 0
-6952 11075 11323 11324 11325 11326 0
6952 -11075 0
6952 -11323 0
6952 -11324 0
6952 -11325 0
6952 -11326 0
11327 -11080 -10962 0
-11327 11080 0
-11327 10962 0
11328 -11055 -10968 0
-11328 11055 0
-11328 10968 0
11329 -11055 -10962 0
-11329 11055 0
-11329 10962 0
11330 -11080 -10968 -11050 0
-11330 11080 0
-11330 10968 0
-11330 11050 0
-6903 10981 11327 11328 11329 11330 0
6903 -10981 0
6903 -11327 0
6903 -11328 0
6903 -11329 0
6903 -11330 0
11331 -11080 -11055 0
-11331 11080 0
-11331 11055 0
11332 -11055 -11055 0
-11332 11055 0
-11332 11055 0
11333 -11055 -11080 0
-11333 11055 0
-11333 11080 0
11334 -11080 -11080 -11050 0
-11334 11080 0
-11334 11080 0
-11334 11050 0
-6957 11085 11331 11332 11333 11334 0
6957 -11085 0
6957 -11331 0
6957 -11332 0
6957 -11333 0
6957 -11334 0
11335 -10333 -10333 0
-11335 10333 0
-11335 10333 0
-7659 10298 11335 0
7659 -10298 0
7659 -11335 0
11336 -10333 -10377 0
-11336 10333 0
-11336 10377 0
-7662 10305 11336 0
7662 -10305 0
7662 -11336 0
11337 -10333 -10382 0
-11337 10333 0
-11337 10382 0
-7665 10312 11337 0
7665 -10312 0
7665 -11337 0
11338 -10338 -10382 0
-11338 10338 0
-11338 10382 0
-7668 10319 11338 0
7668 -10319 0
7668 -11338 0
11339 -10333 -10328 0
-11339 10333 0
-11339 10328 0
-7907 10293 11339 0
7907 -10293 0
7907 -11339 0
11340 -10333 -10330 0
-11340 10333 0
-11340 10330 0
-7658 10292 11340 0
7658 -10292 0
7658 -11340 0
11341 -10338 -10330 0
-11341 10338 0
-11341 10330 0
-7667 10314 11341 0
7667 -10314 0
7667 -11341 0
11342 -10333 -10442 0
-11342 10333 0
-11342 10442 0
-7671 10345 11342 0
7671 -10345 0
7671 -11342 0
11343 -10333 -10427 0
-11343 10333 0
-11343 10427 0
-7674 10352 11343 0
7674 -10352 0
7674 -11343 0
11344 -10338 -10427 0
-11344 10338 0
-11344 10427 0
-7676 10357 11344 0
7676 -10357 0
7676 -11344 0
11345 -10377 -10338 0
-11345 10377 0
-11345 10338 0
-7678 10362 11345 0
7678 -10362 0
7678 -11345 0
11346 -10377 -10377 0
-11346 10377 0
-11346 10377 0
-7680 10367 11346 0
7680 -10367 0
7680 -11346 0
11347 -10377 -10328 0
-11347 10377 0
-11347 10328 0
-8084 10300 11347 0
8084 -10300 0
8084 -11347 0
11348 -10377 -10330 0
-11348 10377 0
-11348 10330 0
-7661 10303 11348 0
7661 -10303 0
7661 -11348 0
11349 -10382 -10330 0
-11349 10382 0
-11349 10330 0
-7664 10309 11349 0
7664 -10309 0
7664 -11349 0
11350 -10377 -10442 0
-11350 10377 0
-11350 10442 0
-7682 10387 11350 0
7682 -10387 0
7682 -11350 0
11351 -10377 -10427 0
-11351 10377 0
-11351 10427 0
-7684 10392 11351 0
7684 -10392 0
7684 -11351 0
11352 -10382 -10427 0
-11352 10382 0
-11352 10427 0
-7686 10397 11352 0
7686 -10397 0
7686 -11352 0
11353 -10328 -10338 0
-11353 10328 0
-11353 10338 0
-7914 10316 11353 0
7914 -10316 0
7914 -11353 0
11354 -10328 -10382 0
-11354 10328 0
-11354 10382 0
-7906 10307 11354 0
7906 -10307 0
7906 -11354 0
11355 -10328 -10328 0
-11355 10328 0
-11355 10328 0
-7916 10297 11355 0
7916 -10297 0
7916 -11355 0
11356 -10328 -10442 0
-11356 10328 0
-11356 10442 0
-7918 10340 11356 0
7918 -10340 0
7918 -11356 0
11357 -10328 -10427 0
-11357 10328 0
-11357 10427 0
-7920 10347 11357 0
7920 -10347 0
7920 -11357 0
11358 -10330 -10427 0
-11358 10330 0
-11358 10427 0
-7673 10349 11358 0
7673 -10349 0
7673 -11358 0
11359 -10442 -10338 0
-11359 10442 0
-11359 10338 0
-7688 10432 11359 0
7688 -10432 0
7688 -11359 0
11360 -10442 -10382 0
-11360 10442 0
-11360 10382 0
-7690 10437 11360 0
7690 -10437 0
7690 -11360 0
11361 -10442 -10330 0
-11361 10442 0
-11361 10330 0
-7670 10343 11361 0
7670 -10343 0
7670 -11361 0
11362 -10442 -10442 0
-11362 10442 0
-11362 10442 0
-7692 10447 11362 0
7692 -10447 0
7692 -11362 0
11363 -10333 -10326 0
-11363 10333 0
-11363 10326 0
11364 -10326 -10326 0
-11364 10326 0
-11364 10326 0
11365 -10326 -10333 0
-11365 10326 0
-11365 10333 0
11366 -10333 -10333 -10412 0
-11366 10333 0
-11366 10333 0
-11366 10412 0
-7766 10298 11363 11364 11365 11366 0
7766 -10298 0
7766 -11363 0
7766 -11364 0
7766 -11365 0
7766 -11366 0
11367 -10333 -10372 0
-11367 10333 0
-11367 10372 0
11368 -10326 -10372 0
-11368 10326 0
-11368 10372 0
11369 -10326 -10377 0
-11369 10326 0
-11369 10377 0
11370 -10333 -10377 -10412 0
-11370 10333 0
-11370 10377 0
-11370 10412 0
-7773 10305 11367 11368 11369 11370 0
7773 -10305 0
7773 -11367 0
7773 -11368 0
7773 -11369 0
7773 -11370 0
11371 -10333 -10407 0
-11371 10333 0
-11371 10407 0
11372 -10326 -10382 0
-11372 10326 0
-11372 10382 0
11373 -10326 -10407 0
-11373 10326 0
-11373 10407 0
11374 -10333 -10382 -10412 0
-11374 10333 0
-11374 10382 0
-11374 10412 0
-7780 10312 11371 11372 11373 11374 0
7780 -10312 0
7780 -11371 0
7780 -11372 0
7780 -11373 0
7780 -11374 0
11375 -10338 -10407 0
-11375 10338 0
-11375 10407 0
11376 -10402 -10407 0
-11376 10402 0
-11376 10407 0
11377 -10402 -10382 0
-11377 10402 0
-11377 10382 0
11378 -10338 -10382 -10412 0
-11378 10338 0
-11378 10382 0
-11378 10412 0
-7787 10319 11375 11376 11377 11378 0
7787 -10319 0
7787 -11375 0
7787 -11376 0
7787 -11377 0
7787 -11378 0
11379 -10333 -10321 0
-11379 10333 0
-11379 10321 0
11380 -10326 -10321 0
-11380 10326 0
-11380 10321 0
11381 -10326 -10328 0
-11381 10326 0
-11381 10328 0
11382 -10333 -10328 -10412 0
-11382 10333 0
-11382 10328 0
-11382 10412 0
-7761 10293 11379 11380 11381 11382 0
7761 -10293 0
7761 -11379 0
7761 -11380 0
7761 -11381 0
7761 -11382 0
11383 -10333 -10324 0
-11383 10333 0
-11383 10324 0
11384 -10326 -10330 0
-11384 10326 0
-11384 10330 0
11385 -10326 -10324 0
-11385 10326 0
-11385 10324 0
11386 -10333 -10330 -10412 0
-11386 10333 0
-11386 10330 0
-11386 10412 0
-7760 10292 11383 11384 11385 11386 0
7760 -10292 0
7760 -11383 0
7760 -11384 0
7760 -11385 0
7760 -11386 0
11387 -10338 -10324 0
-11387 10338 0
-11387 10324 0
11388 -10402 -10324 0
-11388 10402 0
-11388 10324 0
11389 -10402 -10330 0
-11389 10402 0
-11389 10330 0
11390 -10338 -10330 -10412 0
-11390 10338 0
-11390 10330 0
-11390 10412 0
-7782 10314 11387 11388 11389 11390 0
7782 -10314 0
7782 -11387 0
7782 -11388 0
7782 -11389 0
7782 -11390 0
11391 -10333 -10417 0
-11391 10333 0
-11391 10417 0
11392 -10326 -10417 0
-11392 10326 0
-11392 10417 0
11393 -10326 -10442 0
-11393 10326 0
-11393 10442 0
11394 -10333 -10442 -10412 0
-11394 10333 0
-11394 10442 0
-11394 10412 0
-7794 10345 11391 11392 11393 11394 0
7794 -10345 0
7794 -11391 0
7794 -11392 0
7794 -11393 0
7794 -11394 0
11395 -10333 -10422 0
-11395 10333 0
-11395 10422 0
11396 -10326 -10427 0
-11396 10326 0
-11396 10427 0
11397 -10326 -10422 0
-11397 10326 0
-11397 10422 0
11398 -10333 -10427 -10412 0
-11398 10333 0
-11398 10427 0
-11398 10412 0
-7801 10352 11395 11396 11397 11398 0
7801 -10352 0
7801 -11395 0
7801 -11396 0
7801 -11397 0
7801 -11398 0
11399 -10338 -10422 0
-11399 10338 0
-11399 10422 0
11400 -10402 -10422 0
-11400 10402 0
-11400 10422 0
11401 -10402 -10427 0
-11401 10402 0
-11401 10427 0
11402 -10338 -10427 -10412 0
-11402 10338 0
-11402 10427 0
-11402 10412 0
-7806 10357 11399 11400 11401 11402 0
7806 -10357 0
7806 -11399 0
7806 -11400 0
7806 -11401 0
7806 -11402 0
11403 -10377 -10402 0
-11403 10377 0
-11403 10402 0
11404 -10372 -10338 0
-11404 10372 0
-11404 10338 0
11405 -10372 -10402 0
-11405 10372 0
-11405 10402 0
11406 -10377 -10338 -10412 0
-11406 10377 0
-11406 10338 0
-11406 10412 0
-7811 10362 11403 11404 11405 11406 0
7811 -10362 0
7811 -11403 0
7811 -11404 0
7811 -11405 0
7811 -11406 0
11407 -10377 -10372 0
-11407 10377 0
-11407 10372 0
11408 -10372 -10372 0
-11408 10372 0
-11408 10372 0
11409 -10372 -10377 0
-11409 10372 0
-11409 10377 0
11410 -10377 -10377 -10412 0
-11410 10377 0
-11410 10377 0
-11410 10412 0
-7816 10367 11407 11408 11409 11410 0
7816 -10367 0
7816 -11407 0
7816 -11408 0
7816 -11409 0
7816 -11410 0
11411 -10377 -10321 0
-11411 10377 0
-11411 10321 0
11412 -10372 -10321 0
-11412 10372 0
-11412 10321 0
11413 -10372 -10328 0
-11413 10372 0
-11413 10328 0
11414 -10377 -10328 -10412 0
-11414 10377 0
-11414 10328 0
-11414 10412 0
-7768 10300 11411 11412 11413 11414 0
7768 -10300 0
7768 -11411 0
7768 -11412 0
7768 -11413 0
7768 -11414 0
11415 -10377 -10324 0
-11415 10377 0
-11415 10324 0
11416 -10372 -10330 0
-11416 10372 0
-11416 10330 0
11417 -10372 -10324 0
-11417 10372 0
-11417 10324 0
11418 -10377 -10330 -10412 0
-11418 10377 0
-11418 10330 0
-11418 10412 0
-7771 10303 11415 11416 11417 11418 0
7771 -10303 0
7771 -11415 0
7771 -11416 0
7771 -11417 0
7771 -11418 0
11419 -10382 -10324 0
-11419 10382 0
-11419 10324 0
11420 -10407 -10324 0
-11420 10407 0
-11420 10324 0
11421 -10407 -10330 0
-11421 10407 0
-11421 10330 0
11422 -10382 -10330 -10412 0
-11422 10382 0
-11422 10330 0
-11422 10412 0
-7777 10309 11419 11420 11421 11422 0
7777 -10309 0
7777 -11419 0
7777 -11420 0
7777 -11421 0
7777 -11422 0
11423 -10377 -10417 0
-11423 10377 0
-11423 10417 0
11424 -10372 -10417 0
-11424 10372 0
-11424 10417 0
11425 -10372 -10442 0
-11425 10372 0
-11425 10442 0
11426 -10377 -10442 -10412 0
-11426 10377 0
-11426 10442 0
-11426 10412 0
-7821 10387 11423 11424 11425 11426 0
7821 -10387 0
7821 -11423 0
7821 -11424 0
7821 -11425 0
7821 -11426 0
11427 -10377 -10422 0
-11427 10377 0
-11427 10422 0
11428 -10372 -10427 0
-11428 10372 0
-11428 10427 0
11429 -10372 -10422 0
-11429 10372 0
-11429 10422 0
11430 -10377 -10427 -10412 0
-11430 10377 0
-11430 10427 0
-11430 10412 0
-7826 10392 11427 11428 11429 11430 0
7826 -10392 0
7826 -11427 0
7826 -11428 0
7826 -11429 0
7826 -11430 0
11431 -10382 -10422 0
-11431 10382 0
-11431 10422 0
11432 -10407 -10422 0
-11432 10407 0
-11432 10422 0
11433 -10407 -10427 0
-11433 10407 0
-11433 10427 0
11434 -10382 -10427 -10412 0
-11434 10382 0
-11434 10427 0
-11434 10412 0
-7831 10397 11431 11432 11433 11434 0
7831 -10397 0
7831 -11431 0
7831 -11432 0
7831 -11433 0
7831 -11434 0
11435 -10328 -10402 0
-11435 10328 0
-11435 10402 0
11436 -10321 -10338 0
-11436 10321 0
-11436 10338 0
11437 -10321 -10402 0
-11437 10321 0
-11437 10402 0
11438 -10328 -10338 -10412 0
-11438 10328 0
-11438 10338 0
-11438 10412 0
-7784 10316 11435 11436 11437 11438 0
7784 -10316 0
7784 -11435 0
7784 -11436 0
7784 -11437 0
7784 -11438 0
11439 -10328 -10407 0
-11439 10328 0
-11439 10407 0
11440 -10321 -10382 0
-11440 10321 0
-11440 10382 0
11441 -10321 -10407 0
-11441 10321 0
-11441 10407 0
11442 -10328 -10382 -10412 0
-11442 10328 0
-11442 10382 0
-11442 10412 0
-7775 10307 11439 11440 11441 11442 0
7775 -10307 0
7775 -11439 0
7775 -11440 0
7775 -11441 0
7775 -11442 0
11443 -10328 -10321 0
-11443 10328 0
-11443 10321 0
10409 -10321 -10321 0
-10409 10321 0
-10409 10321 0
11444 -10321 -10328 0
-11444 10321 0
-11444 10328 0
11445 -10328 -10328 -10412 0
-11445 10328 0
-11445 10328 0
-11445 10412 0
-7765 10297 11443 10409 11444 11445 0
7765 -10297 0
7765 -11443 0
7765 -10409 0
7765 -11444 0
7765 -11445 0
11446 -10328 -10417 0
-11446 10328 0
-11446 10417 0
11447 -10321 -10417 0
-11447 10321 0
-11447 10417 0
11448 -10321 -10442 0
-11448 10321 0
-11448 10442 0
11449 -10328 -10442 -10412 0
-11449 10328 0
-11449 10442 0
-11449 10412 0
-7789 10340 11446 11447 11448 11449 0
7789 -10340 0
7789 -11446 0
7789 -11447 0
7789 -11448 0
7789 -11449 0
11450 -10328 -10422 0
-11450 10328 0
-11450 10422 0
11451 -10321 -10427 0
-11451 10321 0
-11451 10427 0
11452 -10321 -10422 0
-11452 10321 0
-11452 10422 0
11453 -10328 -10427 -10412 0
-11453 10328 0
-11453 10427 0
-11453 10412 0
-7796 10347 11450 11451 11452 11453 0
7796 -10347 0
7796 -11450 0
7796 -11451 0
7796 -11452 0
7796 -11453 0
11454 -10330 -10422 0
-11454 10330 0
-11454 10422 0
11455 -10324 -10422 0
-11455 10324 0
-11455 10422 0
11456 -10324 -10427 0
-11456 10324 0
-11456 10427 0
11457 -10330 -10427 -10412 0
-11457 10330 0
-11457 10427 0
-11457 10412 0
-7798 10349 11454 11455 11456 11457 0
7798 -10349 0
7798 -11454 0
7798 -11455 0
7798 -11456 0
7798 -11457 0
11458 -10442 -10402 0
-11458 10442 0
-11458 10402 0
11459 -10417 -10338 0
-11459 10417 0
-11459 10338 0
11460 -10417 -10402 0
-11460 10417 0
-11460 10402 0
11461 -10442 -10338 -10412 0
-11461 10442 0
-11461 10338 0
-11461 10412 0
-7836 10432 11458 11459 11460 11461 0
7836 -10432 0
7836 -11458 0
7836 -11459 0
7836 -11460 0
7836 -11461 0
11462 -10442 -10407 0
-11462 10442 0
-11462 10407 0
11463 -10417 -10382 0
-11463 10417 0
-11463 10382 0
11464 -10417 -10407 0
-11464 10417 0
-11464 10407 0
11465 -10442 -10382 -10412 0
-11465 10442 0
-11465 10382 0
-11465 10412 0
-7841 10437 11462 11463 11464 11465 0
7841 -10437 0
7841 -11462 0
7841 -11463 0
7841 -11464 0
7841 -11465 0
11466 -10442 -10324 0
-11466 10442 0
-11466 10324 0
11467 -10417 -10330 0
-11467 10417 0
-11467 10330 0
11468 -10417 -10324 0
-11468 10417 0
-11468 10324 0
11469 -10442 -10330 -10412 0
-11469 10442 0
-11469 10330 0
-11469 10412 0
-7792 10343 11466 11467 11468 11469 0
7792 -10343 0
7792 -11466 0
7792 -11467 0
7792 -11468 0
7792 -11469 0
11470 -10442 -10417 0
-11470 10442 0
-11470 10417 0
11471 -10417 -10417 0
-11471 10417 0
-11471 10417 0
11472 -10417 -10442 0
-11472 10417 0
-11472 10442 0
11473 -10442 -10442 -10412 0
-11473 10442 0
-11473 10442 0
-11473 10412 0
-7846 10447 11470 11471 11472 11473 0
7846 -10447 0
7846 -11470 0
7846 -11471 0
7846 -11472 0
7846 -11473 0
11474 -10449 -10814 0
-11474 10449 0
-11474 10814 0
11475 -10814 -10814 0
-11475 10814 0
-11475 10814 0
11476 -10814 -10449 0
-11476 10814 0
-11476 10449 0
11477 -10449 -10449 -10900 0
-11477 10449 0
-11477 10449 0
-11477 10900 0
-6544 10450 11474 11475 11476 11477 0
6544 -10450 0
6544 -11474 0
6544 -11475 0
6544 -11476 0
6544 -11477 0
11478 -10449 -10847 0
-11478 10449 0
-11478 10847 0
11479 -10814 -10847 0
-11479 10814 0
-11479 10847 0
11480 -10814 -10452 0
-11480 10814 0
-11480 10452 0
11481 -10449 -10452 -10900 0
-11481 10449 0
-11481 10452 0
-11481 10900 0
-6764 10453 11478 11479 11480 11481 0
6764 -10453 0
6764 -11478 0
6764 -11479 0
6764 -11480 0
6764 -11481 0
11482 -10449 -10890 0
-11482 10449 0
-11482 10890 0
11483 -10814 -10455 0
-11483 10814 0
-11483 10455 0
11484 -10814 -10890 0
-11484 10814 0
-11484 10890 0
11485 -10449 -10455 -10900 0
-11485 10449 0
-11485 10455 0
-11485 10900 0
-6543 10456 11482 11483 11484 11485 0
6543 -10456 0
6543 -11482 0
6543 -11483 0
6543 -11484 0
6543 -11485 0
11486 -10458 -10890 0
-11486 10458 0
-11486 10890 0
11487 -10885 -10890 0
-11487 10885 0
-11487 10890 0
11488 -10885 -10455 0
-11488 10885 0
-11488 10455 0
11489 -10458 -10455 -10900 0
-11489 10458 0
-11489 10455 0
-11489 10900 0
-6552 10459 11486 11487 11488 11489 0
6552 -10459 0
6552 -11486 0
6552 -11487 0
6552 -11488 0
6552 -11489 0
11490 -10449 -10872 0
-11490 10449 0
-11490 10872 0
11491 -10814 -10872 0
-11491 10814 0
-11491 10872 0
11492 -10814 -10461 0
-11492 10814 0
-11492 10461 0
11493 -10449 -10461 -10900 0
-11493 10449 0
-11493 10461 0
-11493 10900 0
-6547 10462 11490 11491 11492 11493 0
6547 -10462 0
6547 -11490 0
6547 -11491 0
6547 -11492 0
6547 -11493 0
11494 -10449 -10895 0
-11494 10449 0
-11494 10895 0
11495 -10814 -10464 0
-11495 10814 0
-11495 10464 0
11496 -10814 -10895 0
-11496 10814 0
-11496 10895 0
11497 -10449 -10464 -10900 0
-11497 10449 0
-11497 10464 0
-11497 10900 0
-6550 10465 11494 11495 11496 11497 0
6550 -10465 0
6550 -11494 0
6550 -11495 0
6550 -11496 0
6550 -11497 0
11498 -10458 -10895 0
-11498 10458 0
-11498 10895 0
11499 -10885 -10895 0
-11499 10885 0
-11499 10895 0
11500 -10885 -10464 0
-11500 10885 0
-11500 10464 0
11501 -10458 -10464 -10900 0
-11501 10458 0
-11501 10464 0
-11501 10900 0
-6553 10467 11498 11499 11500 11501 0
6553 -10467 0
6553 -11498 0
6553 -11499 0
6553 -11500 0
6553 -11501 0
11502 -10449 -10809 0
-11502 10449 0
-11502 10809 0
11503 -10814 -10809 0
-11503 10814 0
-11503 10809 0
11504 -10814 -10469 0
-11504 10814 0
-11504 10469 0
11505 -10449 -10469 -10900 0
-11505 10449 0
-11505 10469 0
-11505 10900 0
-6556 10470 11502 11503 11504 11505 0
6556 -10470 0
6556 -11502 0
6556 -11503 0
6556 -11504 0
6556 -11505 0
11506 -10449 -10812 0
-11506 10449 0
-11506 10812 0
11507 -10814 -10472 0
-11507 10814 0
-11507 10472 0
11508 -10814 -10812 0
-11508 10814 0
-11508 10812 0
11509 -10449 -10472 -10900 0
-11509 10449 0
-11509 10472 0
-11509 10900 0
-6559 10473 11506 11507 11508 11509 0
6559 -10473 0
6559 -11506 0
6559 -11507 0
6559 -11508 0
6559 -11509 0
11510 -10458 -10812 0
-11510 10458 0
-11510 10812 0
11511 -10885 -10812 0
-11511 10885 0
-11511 10812 0
11512 -10885 -10472 0
-11512 10885 0
-11512 10472 0
11513 -10458 -10472 -10900 0
-11513 10458 0
-11513 10472 0
-11513 10900 0
-6561 10475 11510 11511 11512 11513 0
6561 -10475 0
6561 -11510 0
6561 -11511 0
6561 -11512 0
6561 -11513 0
11514 -10452 -10885 0
-11514 10452 0
-11514 10885 0
11515 -10847 -10458 0
-11515 10847 0
-11515 10458 0
11516 -10847 -10885 0
-11516 10847 0
-11516 10885 0
11517 -10452 -10458 -10900 0
-11517 10452 0
-11517 10458 0
-11517 10900 0
-6771 10477 11514 11515 11516 11517 0
6771 -10477 0
6771 -11514 0
6771 -11515 0
6771 -11516 0
6771 -11517 0
11518 -10452 -10847 0
-11518 10452 0
-11518 10847 0
11519 -10847 -10847 0
-11519 10847 0
-11519 10847 0
11520 -10847 -10452 0
-11520 10847 0
-11520 10452 0
11521 -10452 -10452 -10900 0
-11521 10452 0
-11521 10452 0
-11521 10900 0
-6773 10479 11518 11519 11520 11521 0
6773 -10479 0
6773 -11518 0
6773 -11519 0
6773 -11520 0
6773 -11521 0
11522 -10452 -10872 0
-11522 10452 0
-11522 10872 0
11523 -10847 -10872 0
-11523 10847 0
-11523 10872 0
11524 -10847 -10461 0
-11524 10847 0
-11524 10461 0
11525 -10452 -10461 -10900 0
-11525 10452 0
-11525 10461 0
-11525 10900 0
-7293 10481 11522 11523 11524 11525 0
7293 -10481 0
7293 -11522 0
7293 -11523 0
7293 -11524 0
7293 -11525 0
11526 -10452 -10895 0
-11526 10452 0
-11526 10895 0
11527 -10847 -10464 0
-11527 10847 0
-11527 10464 0
11528 -10847 -10895 0
-11528 10847 0
-11528 10895 0
11529 -10452 -10464 -10900 0
-11529 10452 0
-11529 10464 0
-11529 10900 0
-6763 10483 11526 11527 11528 11529 0
6763 -10483 0
6763 -11526 0
6763 -11527 0
6763 -11528 0
6763 -11529 0
11530 -10455 -10895 0
-11530 10455 0
-11530 10895 0
11531 -10890 -10895 0
-11531 10890 0
-11531 10895 0
11532 -10890 -10464 0
-11532 10890 0
-11532 10464 0
11533 -10455 -10464 -10900 0
-11533 10455 0
-11533 10464 0
-11533 10900 0
-6549 10485 11530 11531 11532 11533 0
6549 -10485 0
6549 -11530 0
6549 -11531 0
6549 -11532 0
6549 -11533 0
11534 -10452 -10809 0
-11534 10452 0
-11534 10809 0
11535 -10847 -10809 0
-11535 10847 0
-11535 10809 0
11536 -10847 -10469 0
-11536 10847 0
-11536 10469 0
11537 -10452 -10469 -10900 0
-11537 10452 0
-11537 10469 0
-11537 10900 0
-6775 10487 11534 11535 11536 11537 0
6775 -10487 0
6775 -11534 0
6775 -11535 0
6775 -11536 0
6775 -11537 0
11538 -10452 -10812 0
-11538 10452 0
-11538 10812 0
11539 -10847 -10472 0
-11539 10847 0
-11539 10472 0
11540 -10847 -10812 0
-11540 10847 0
-11540 10812 0
11541 -10452 -10472 -10900 0
-11541 10452 0
-11541 10472 0
-11541 10900 0
-6777 10489 11538 11539 11540 11541 0
6777 -10489 0
6777 -11538 0
6777 -11539 0
6777 -11540 0
6777 -11541 0
11542 -10455 -10812 0
-11542 10455 0
-11542 10812 0
11543 -10890 -10812 0
-11543 10890 0
-11543 10812 0
11544 -10890 -10472 0
-11544 10890 0
-11544 10472 0
11545 -10455 -10472 -10900 0
-11545 10455 0
-11545 10472 0
-11545 10900 0
-6558 10491 11542 11543 11544 11545 0
6558 -10491 0
6558 -11542 0
6558 -11543 0
6558 -11544 0
6558 -11545 0
11546 -10461 -10885 0
-11546 10461 0
-11546 10885 0
11547 -10872 -10458 0
-11547 10872 0
-11547 10458 0
11548 -10872 -10885 0
-11548 10872 0
-11548 10885 0
11549 -10461 -10458 -10900 0
-11549 10461 0
-11549 10458 0
-11549 10900 0
-6563 10493 11546 11547 11548 11549 0
6563 -10493 0
6563 -11546 0
6563 -11547 0
6563 -11548 0
6563 -11549 0
11550 -10461 -10890 0
-11550 10461 0
-11550 10890 0
11551 -10872 -10455 0
-11551 10872 0
-11551 10455 0
11552 -10872 -10890 0
-11552 10872 0
-11552 10890 0
11553 -10461 -10455 -10900 0
-11553 10461 0
-11553 10455 0
-11553 10900 0
-6546 10495 11550 11551 11552 11553 0
6546 -10495 0
6546 -11550 0
6546 -11551 0
6546 -11552 0
6546 -11553 0
11554 -10461 -10872 0
-11554 10461 0
-11554 10872 0
11555 -10872 -10872 0
-11555 10872 0
-11555 10872 0
11556 -10872 -10461 0
-11556 10872 0
-11556 10461 0
11557 -10461 -10461 -10900 0
-11557 10461 0
-11557 10461 0
-11557 10900 0
-6565 10497 11554 11555 11556 11557 0
6565 -10497 0
6565 -11554 0
6565 -11555 0
6565 -11556 0
6565 -11557 0
11558 -10461 -10809 0
-11558 10461 0
-11558 10809 0
11559 -10872 -10809 0
-11559 10872 0
-11559 10809 0
11560 -10872 -10469 0
-11560 10872 0
-11560 10469 0
11561 -10461 -10469 -10900 0
-11561 10461 0
-11561 10469 0
-11561 10900 0
-6567 10499 11558 11559 11560 11561 0
6567 -10499 0
6567 -11558 0
6567 -11559 0
6567 -11560 0
6567 -11561 0
11562 -10461 -10812 0
-11562 10461 0
-11562 10812 0
11563 -10872 -10472 0
-11563 10872 0
-11563 10472 0
11564 -10872 -10812 0
-11564 10872 0
-11564 10812 0
11565 -10461 -10472 -10900 0
-11565 10461 0
-11565 10472 0
-11565 10900 0
-6569 10501 11562 11563 11564 11565 0
6569 -10501 0
6569 -11562 0
6569 -11563 0
6569 -11564 0
6569 -11565 0
11566 -10464 -10812 0
-11566 10464 0
-11566 10812 0
11567 -10895 -10812 0
-11567 10895 0
-11567 10812 0
11568 -10895 -10472 0
-11568 10895 0
-11568 10472 0
11569 -10464 -10472 -10900 0
-11569 10464 0
-11569 10472 0
-11569 10900 0
-6571 10503 11566 11567 11568 11569 0
6571 -10503 0
6571 -11566 0
6571 -11567 0
6571 -11568 0
6571 -11569 0
11570 -10469 -10885 0
-11570 10469 0
-11570 10885 0
11571 -10809 -10458 0
-11571 10809 0
-11571 10458 0
11572 -10809 -10885 0
-11572 10809 0
-11572 10885 0
11573 -10469 -10458 -10900 0
-11573 10469 0
-11573 10458 0
-11573 10900 0
-6573 10505 11570 11571 11572 11573 0
6573 -10505 0
6573 -11570 0
6573 -11571 0
6573 -11572 0
6573 -11573 0
11574 -10469 -10890 0
-11574 10469 0
-11574 10890 0
11575 -10809 -10455 0
-11575 10809 0
-11575 10455 0
11576 -10809 -10890 0
-11576 10809 0
-11576 10890 0
11577 -10469 -10455 -10900 0
-11577 10469 0
-11577 10455 0
-11577 10900 0
-6555 10507 11574 11575 11576 11577 0
6555 -10507 0
6555 -11574 0
6555 -11575 0
6555 -11576 0
6555 -11577 0
11578 -10469 -10895 0
-11578 10469 0
-11578 10895 0
11579 -10809 -10464 0
-11579 10809 0
-11579 10464 0
11580 -10809 -10895 0
-11580 10809 0
-11580 10895 0
11581 -10469 -10464 -10900 0
-11581 10469 0
-11581 10464 0
-11581 10900 0
-6575 10509 11578 11579 11580 11581 0
6575 -10509 0
6575 -11578 0
6575 -11579 0
6575 -11580 0
6575 -11581 0
11582 -10469 -10809 0
-11582 10469 0
-11582 10809 0
10897 -10809 -10809 0
-10897 10809 0
-10897 10809 0
11583 -10809 -10469 0
-11583 10809 0
-11583 10469 0
11584 -10469 -10469 -10900 0
-11584 10469 0
-11584 10469 0
-11584 10900 0
-6577 10511 11582 10897 11583 11584 0
6577 -10511 0
6577 -11582 0
6577 -10897 0
6577 -11583 0
6577 -11584 0
11585 -10930 -10930 0
-11585 10930 0
-11585 10930 0
-7458 10936 11585 0
7458 -10936 0
7458 -11585 0
11586 -10930 -10941 0
-11586 10930 0
-11586 10941 0
-7453 10943 11586 0
7453 -10943 0
7453 -11586 0
11587 -10930 -10947 0
-11587 10930 0
-11587 10947 0
-7452 10950 11587 0
7452 -10950 0
7452 -11587 0
11588 -10952 -10947 0
-11588 10952 0
-11588 10947 0
-7474 10957 11588 0
7474 -10957 0
7474 -11588 0
11589 -10930 -10962 0
-11589 10930 0
-11589 10962 0
-7465 10964 11589 0
7465 -10964 0
7465 -11589 0
11590 -10930 -10968 0
-11590 10930 0
-11590 10968 0
-7472 10971 11590 0
7472 -10971 0
7472 -11590 0
11591 -10952 -10968 0
-11591 10952 0
-11591 10968 0
-7479 10976 11591 0
7479 -10976 0
7479 -11591 0
11592 -10930 -10981 0
-11592 10930 0
-11592 10981 0
-7486 10983 11592 0
7486 -10983 0
7486 -11592 0
11593 -10930 -10987 0
-11593 10930 0
-11593 10987 0
-7493 10990 11593 0
7493 -10990 0
7493 -11593 0
11594 -10952 -10987 0
-11594 10952 0
-11594 10987 0
-7498 10995 11594 0
7498 -10995 0
7498 -11594 0
11595 -10941 -10952 0
-11595 10941 0
-11595 10952 0
-7476 11000 11595 0
7476 -11000 0
7476 -11595 0
11596 -10941 -10941 0
-11596 10941 0
-11596 10941 0
-7457 11005 11596 0
7457 -11005 0
7457 -11596 0
11597 -10941 -10962 0
-11597 10941 0
-11597 10962 0
-7460 11010 11597 0
7460 -11010 0
7460 -11597 0
11598 -10941 -10968 0
-11598 10941 0
-11598 10968 0
-7467 11015 11598 0
7467 -11015 0
7467 -11598 0
11599 -10947 -10968 0
-11599 10947 0
-11599 10968 0
-7469 11020 11599 0
7469 -11020 0
7469 -11599 0
11600 -10941 -10981 0
-11600 10941 0
-11600 10981 0
-7481 11025 11600 0
7481 -11025 0
7481 -11600 0
11601 -10941 -10987 0
-11601 10941 0
-11601 10987 0
-7488 11030 11601 0
7488 -11030 0
7488 -11601 0
11602 -10947 -10987 0
-11602 10947 0
-11602 10987 0
-7490 11035 11602 0
7490 -11035 0
7490 -11602 0
11603 -10962 -10952 0
-11603 10962 0
-11603 10952 0
-7503 11040 11603 0
7503 -11040 0
7503 -11603 0
11604 -10962 -10947 0
-11604 10962 0
-11604 10947 0
-7463 11045 11604 0
7463 -11045 0
7463 -11604 0
11605 -10962 -10962 0
-11605 10962 0
-11605 10962 0
-7508 11050 11605 0
7508 -11050 0
7508 -11605 0
11606 -10962 -10981 0
-11606 10962 0
-11606 10981 0
-7513 11055 11606 0
7513 -11055 0
7513 -11606 0
11607 -10962 -10987 0
-11607 10962 0
-11607 10987 0
-7518 11060 11607 0
7518 -11060 0
7518 -11607 0
11608 -10968 -10987 0
-11608 10968 0
-11608 10987 0
-7523 11065 11608 0
7523 -11065 0
7523 -11608 0
11609 -10981 -10952 0
-11609 10981 0
-11609 10952 0
-7528 11070 11609 0
7528 -11070 0
7528 -11609 0
11610 -10981 -10947 0
-11610 10981 0
-11610 10947 0
-7484 11075 11610 0
7484 -11075 0
7484 -11610 0
11611 -10981 -10968 0
-11611 10981 0
-11611 10968 0
-7533 11080 11611 0
7533 -11080 0
7533 -11611 0
11612 -10981 -10981 0
-11612 10981 0
-11612 10981 0
-7538 11085 11612 0
7538 -11085 0
7538 -11612 0
11613 -10971 -10971 0
-11613 10971 0
-11613 10971 0
-6461 10936 11613 0
6461 -10936 0
6461 -11613 0
11614 -10971 -11015 0
-11614 10971 0
-11614 11015 0
-6468 10943 11614 0
6468 -10943 0
6468 -11614 0
11615 -10971 -11020 0
-11615 10971 0
-11615 11020 0
-6475 10950 11615 0
6475 -10950 0
6475 -11615 0
11616 -10976 -11020 0
-11616 10976 0
-11616 11020 0
-6482 10957 11616 0
6482 -10957 0
6482 -11616 0
11617 -10971 -10966 0
-11617 10971 0
-11617 10966 0
-6456 10931 11617 0
6456 -10931 0
6456 -11617 0
11618 -10971 -10968 0
-11618 10971 0
-11618 10968 0
-6455 10930 11618 0
6455 -10930 0
6455 -11618 0
11619 -10976 -10968 0
-11619 10976 0
-11619 10968 0
-6477 10952 11619 0
6477 -10952 0
6477 -11619 0
11620 -10971 -11080 0
-11620 10971 0
-11620 11080 0
-6489 10983 11620 0
6489 -10983 0
6489 -11620 0
11621 -10971 -11065 0
-11621 10971 0
-11621 11065 0
-6496 10990 11621 0
6496 -10990 0
6496 -11621 0
11622 -10976 -11065 0
-11622 10976 0
-11622 11065 0
-6501 10995 11622 0
6501 -10995 0
6501 -11622 0
11623 -11015 -10976 0
-11623 11015 0
-11623 10976 0
-6506 11000 11623 0
6506 -11000 0
6506 -11623 0
11624 -11015 -11015 0
-11624 11015 0
-11624 11015 0
-6511 11005 11624 0
6511 -11005 0
6511 -11624 0
11625 -11015 -10966 0
-11625 11015 0
-11625 10966 0
-6463 10938 11625 0
6463 -10938 0
6463 -11625 0
11626 -11015 -10968 0
-11626 11015 0
-11626 10968 0
-6466 10941 11626 0
6466 -10941 0
6466 -11626 0
11627 -11020 -10968 0
-11627 11020 0
-11627 10968 0
-6472 10947 11627 0
6472 -10947 0
6472 -11627 0
11628 -11015 -11080 0
-11628 11015 0
-11628 11080 0
-6516 11025 11628 0
6516 -11025 0
6516 -11628 0
11629 -11015 -11065 0
-11629 11015 0
-11629 11065 0
-6521 11030 11629 0
6521 -11030 0
6521 -11629 0
11630 -11020 -11065 0
-11630 11020 0
-11630 11065 0
-6526 11035 11630 0
6526 -11035 0
6526 -11630 0
11631 -10966 -10976 0
-11631 10966 0
-11631 10976 0
-6479 10954 11631 0
6479 -10954 0
6479 -11631 0
11632 -10966 -11020 0
-11632 10966 0
-11632 11020 0
-6470 10945 11632 0
6470 -10945 0
6470 -11632 0
11633 -10966 -10966 0
-11633 10966 0
-11633 10966 0
-6460 10935 11633 0
6460 -10935 0
6460 -11633 0
11634 -10966 -11080 0
-11634 10966 0
-11634 11080 0
-6484 10978 11634 0
6484 -10978 0
6484 -11634 0
11635 -10966 -11065 0
-11635 10966 0
-11635 11065 0
-6491 10985 11635 0
6491 -10985 0
6491 -11635 0
11636 -10968 -11065 0
-11636 10968 0
-11636 11065 0
-6493 10987 11636 0
6493 -10987 0
6493 -11636 0
11637 -11080 -10976 0
-11637 11080 0
-11637 10976 0
-6531 11070 11637 0
6531 -11070 0
6531 -11637 0
11638 -11080 -11020 0
-11638 11080 0
-11638 11020 0
-6536 11075 11638 0
6536 -11075 0
6536 -11638 0
11639 -11080 -10968 0
-11639 11080 0
-11639 10968 0
-6487 10981 11639 0
6487 -10981 0
6487 -11639 0
11640 -11080 -11080 0
-11640 11080 0
-11640 11080 0
-6541 11085 11640 0
6541 -11085 0
6541 -11640 0
11641 -10465 -10465 0
-11641 10465 0
-11641 10465 0
-6680 10450 11641 0
6680 -10450 0
6680 -11641 0
11642 -10465 -10483 0
-11642 10465 0
-11642 10483 0
-6675 10453 11642 0
6675 -10453 0
6675 -11642 0
11643 -10465 -10485 0
-11643 10465 0
-11643 10485 0
-6674 10456 11643 0
6674 -10456 0
6674 -11643 0
11644 -10467 -10485 0
-11644 10467 0
-11644 10485 0
-6696 10459 11644 0
6696 -10459 0
6696 -11644 0
11645 -10465 -10895 0
-11645 10465 0
-11645 10895 0
-6687 10814 11645 0
6687 -10814 0
6687 -11645 0
11646 -10465 -10464 0
-11646 10465 0
-11646 10464 0
-6694 10449 11646 0
6694 -10449 0
6694 -11646 0
11647 -10467 -10464 0
-11647 10467 0
-11647 10464 0
-6701 10458 11647 0
6701 -10458 0
6701 -11647 0
11648 -10465 -10509 0
-11648 10465 0
-11648 10509 0
-6708 10470 11648 0
6708 -10470 0
6708 -11648 0
11649 -10465 -10503 0
-11649 10465 0
-11649 10503 0
-6715 10473 11649 0
6715 -10473 0
6715 -11649 0
11650 -10467 -10503 0
-11650 10467 0
-11650 10503 0
-6720 10475 11650 0
6720 -10475 0
6720 -11650 0
11651 -10483 -10467 0
-11651 10483 0
-11651 10467 0
-6698 10477 11651 0
6698 -10477 0
6698 -11651 0
11652 -10483 -10483 0
-11652 10483 0
-11652 10483 0
-6679 10479 11652 0
6679 -10479 0
6679 -11652 0
11653 -10483 -10895 0
-11653 10483 0
-11653 10895 0
-6682 10847 11653 0
6682 -10847 0
6682 -11653 0
11654 -10483 -10464 0
-11654 10483 0
-11654 10464 0
-6689 10452 11654 0
6689 -10452 0
6689 -11654 0
11655 -10485 -10464 0
-11655 10485 0
-11655 10464 0
-6691 10455 11655 0
6691 -10455 0
6691 -11655 0
11656 -10483 -10509 0
-11656 10483 0
-11656 10509 0
-6703 10487 11656 0
6703 -10487 0
6703 -11656 0
11657 -10483 -10503 0
-11657 10483 0
-11657 10503 0
-6710 10489 11657 0
6710 -10489 0
6710 -11657 0
11658 -10485 -10503 0
-11658 10485 0
-11658 10503 0
-6712 10491 11658 0
6712 -10491 0
6712 -11658 0
11659 -10895 -10467 0
-11659 10895 0
-11659 10467 0
-6725 10885 11659 0
6725 -10885 0
6725 -11659 0
11660 -10895 -10485 0
-11660 10895 0
-11660 10485 0
-6685 10890 11660 0
6685 -10890 0
6685 -11660 0
11661 -10895 -10895 0
-11661 10895 0
-11661 10895 0
-6730 10900 11661 0
6730 -10900 0
6730 -11661 0
11662 -10895 -10509 0
-11662 10895 0
-11662 10509 0
-6735 10809 11662 0
6735 -10809 0
6735 -11662 0
11663 -10895 -10503 0
-11663 10895 0
-11663 10503 0
-6740 10812 11663 0
6740 -10812 0
6740 -11663 0
11664 -10464 -10503 0
-11664 10464 0
-11664 10503 0
-6745 10472 11664 0
6745 -10472 0
6745 -11664 0
11665 -10509 -10467 0
-11665 10509 0
-11665 10467 0
-6750 10505 11665 0
6750 -10505 0
6750 -11665 0
11666 -10509 -10485 0
-11666 10509 0
-11666 10485 0
-6706 10507 11666 0
6706 -10507 0
6706 -11666 0
11667 -10509 -10464 0
-11667 10509 0
-11667 10464 0
-6755 10469 11667 0
6755 -10469 0
6755 -11667 0
11668 -10509 -10509 0
-11668 10509 0
-11668 10509 0
-6760 10511 11668 0
6760 -10511 0
6760 -11668 0
11669 -11670 -11670 0
-11669 11670 0
-11669 11670 0
-6965 11671 11669 0
6965 -11671 0
6965 -11669 0
11672 -11670 -11673 0
-11672 11670 0
-11672 11673 0
-6960 11674 11672 0
6960 -11674 0
6960 -11672 0
11675 -11670 -11676 0
-11675 11670 0
-11675 11676 0
-6959 11677 11675 0
6959 -11677 0
6959 -11675 0
11678 -11679 -11676 0
-11678 11679 0
-11678 11676 0
-6981 11680 11678 0
6981 -11680 0
6981 -11678 0
11681 -11670 -11682 0
-11681 11670 0
-11681 11682 0
-6972 11683 11681 0
6972 -11683 0
6972 -11681 0
11684 -11670 -11685 0
-11684 11670 0
-11684 11685 0
-6979 11686 11684 0
6979 -11686 0
6979 -11684 0
11687 -11679 -11685 0
-11687 11679 0
-11687 11685 0
-6986 11688 11687 0
6986 -11688 0
6986 -11687 0
11689 -11670 -11690 0
-11689 11670 0
-11689 11690 0
-6993 11691 11689 0
6993 -11691 0
6993 -11689 0
11692 -11670 -11693 0
-11692 11670 0
-11692 11693 0
-7000 11694 11692 0
7000 -11694 0
7000 -11692 0
11695 -11679 -11693 0
-11695 11679 0
-11695 11693 0
-7005 11696 11695 0
7005 -11696 0
7005 -11695 0
11697 -11673 -11679 0
-11697 11673 0
-11697 11679 0
-6983 11698 11697 0
6983 -11698 0
6983 -11697 0
11699 -11673 -11673 0
-11699 11673 0
-11699 11673 0
-6964 11700 11699 0
6964 -11700 0
6964 -11699 0
11701 -11673 -11682 0
-11701 11673 0
-11701 11682 0
-6967 11702 11701 0
6967 -11702 0
6967 -11701 0
11703 -11673 -11685 0
-11703 11673 0
-11703 11685 0
-6974 11704 11703 0
6974 -11704 0
6974 -11703 0
11705 -11676 -11685 0
-11705 11676 0
-11705 11685 0
-6976 11706 11705 0
6976 -11706 0
6976 -11705 0
11707 -11673 -11690 0
-11707 11673 0
-11707 11690 0
-6988 11708 11707 0
6988 -11708 0
6988 -11707 0
11709 -11673 -11693 0
-11709 11673 0
-11709 11693 0
-6995 11710 11709 0
6995 -11710 0
6995 -11709 0
11711 -11676 -11693 0
-11711 11676 0
-11711 11693 0
-6997 11712 11711 0
6997 -11712 0
6997 -11711 0
11713 -11682 -11679 0
-11713 11682 0
-11713 11679 0
-7010 11714 11713 0
7010 -11714 0
7010 -11713 0
11715 -11682 -11676 0
-11715 11682 0
-11715 11676 0
-6970 11716 11715 0
6970 -11716 0
6970 -11715 0
11717 -11682 -11682 0
-11717 11682 0
-11717 11682 0
-7015 11718 11717 0
7015 -11718 0
7015 -11717 0
11719 -11682 -11690 0
-11719 11682 0
-11719 11690 0
-7020 11720 11719 0
7020 -11720 0
7020 -11719 0
11721 -11682 -11693 0
-11721 11682 0
-11721 11693 0
-7025 11722 11721 0
7025 -11722 0
7025 -11721 0
11723 -11685 -11693 0
-11723 11685 0
-11723 11693 0
-7030 11724 11723 0
7030 -11724 0
7030 -11723 0
11725 -11690 -11679 0
-11725 11690 0
-11725 11679 0
-7035 11726 11725 0
7035 -11726 0
7035 -11725 0
11727 -11690 -11676 0
-11727 11690 0
-11727 11676 0
-6991 11728 11727 0
6991 -11728 0
6991 -11727 0
11729 -11690 -11685 0
-11729 11690 0
-11729 11685 0
-7040 11730 11729 0
7040 -11730 0
7040 -11729 0
11731 -11690 -11690 0
-11731 11690 0
-11731 11690 0
-7045 11732 11731 0
7045 -11732 0
7045 -11731 0
11733 -10465 -10462 0
-11733 10465 0
-11733 10462 0
11734 -10462 -10462 0
-11734 10462 0
-11734 10462 0
11735 -10462 -10465 0
-11735 10462 0
-11735 10465 0
11736 -10465 -10465 -10497 0
-11736 10465 0
-11736 10465 0
-11736 10497 0
-6789 10450 11733 11734 11735 11736 0
6789 -10450 0
6789 -11733 0
6789 -11734 0
6789 -11735 0
6789 -11736 0
11737 -10465 -10481 0
-11737 10465 0
-11737 10481 0
11738 -10462 -10481 0
-11738 10462 0
-11738 10481 0
11739 -10462 -10483 0
-11739 10462 0
-11739 10483 0
11740 -10465 -10483 -10497 0
-11740 10465 0
-11740 10483 0
-11740 10497 0
-6784 10453 11737 11738 11739 11740 0
6784 -10453 0
6784 -11737 0
6784 -11738 0
6784 -11739 0
6784 -11740 0
11741 -10465 -10495 0
-11741 10465 0
-11741 10495 0
11742 -10462 -10485 0
-11742 10462 0
-11742 10485 0
11743 -10462 -10495 0
-11743 10462 0
-11743 10495 0
11744 -10465 -10485 -10497 0
-11744 10465 0
-11744 10485 0
-11744 10497 0
-6783 10456 11741 11742 11743 11744 0
6783 -10456 0
6783 -11741 0
6783 -11742 0
6783 -11743 0
6783 -11744 0
11745 -10467 -10495 0
-11745 10467 0
-11745 10495 0
11746 -10493 -10495 0
-11746 10493 0
-11746 10495 0
11747 -10493 -10485 0
-11747 10493 0
-11747 10485 0
11748 -10467 -10485 -10497 0
-11748 10467 0
-11748 10485 0
-11748 10497 0
-6805 10459 11745 11746 11747 11748 0
6805 -10459 0
6805 -11745 0
6805 -11746 0
6805 -11747 0
6805 -11748 0
11749 -10465 -10872 0
-11749 10465 0
-11749 10872 0
11750 -10462 -10872 0
-11750 10462 0
-11750 10872 0
11751 -10462 -10895 0
-11751 10462 0
-11751 10895 0
11752 -10465 -10895 -10497 0
-11752 10465 0
-11752 10895 0
-11752 10497 0
-6796 10814 11749 11750 11751 11752 0
6796 -10814 0
6796 -11749 0
6796 -11750 0
6796 -11751 0
6796 -11752 0
11753 -10465 -10461 0
-11753 10465 0
-11753 10461 0
11754 -10462 -10464 0
-11754 10462 0
-11754 10464 0
11755 -10462 -10461 0
-11755 10462 0
-11755 10461 0
11756 -10465 -10464 -10497 0
-11756 10465 0
-11756 10464 0
-11756 10497 0
-6803 10449 11753 11754 11755 11756 0
6803 -10449 0
6803 -11753 0
6803 -11754 0
6803 -11755 0
6803 -11756 0
11757 -10467 -10461 0
-11757 10467 0
-11757 10461 0
11758 -10493 -10461 0
-11758 10493 0
-11758 10461 0
11759 -10493 -10464 0
-11759 10493 0
-11759 10464 0
11760 -10467 -10464 -10497 0
-11760 10467 0
-11760 10464 0
-11760 10497 0
-6810 10458 11757 11758 11759 11760 0
6810 -10458 0
6810 -11757 0
6810 -11758 0
6810 -11759 0
6810 -11760 0
11761 -10465 -10499 0
-11761 10465 0
-11761 10499 0
11762 -10462 -10499 0
-11762 10462 0
-11762 10499 0
11763 -10462 -10509 0
-11763 10462 0
-11763 10509 0
11764 -10465 -10509 -10497 0
-11764 10465 0
-11764 10509 0
-11764 10497 0
-6817 10470 11761 11762 11763 11764 0
6817 -10470 0
6817 -11761 0
6817 -11762 0
6817 -11763 0
6817 -11764 0
11765 -10465 -10501 0
-11765 10465 0
-11765 10501 0
11766 -10462 -10503 0
-11766 10462 0
-11766 10503 0
11767 -10462 -10501 0
-11767 10462 0
-11767 10501 0
11768 -10465 -10503 -10497 0
-11768 10465 0
-11768 10503 0
-11768 10497 0
-6824 10473 11765 11766 11767 11768 0
6824 -10473 0
6824 -11765 0
6824 -11766 0
6824 -11767 0
6824 -11768 0
11769 -10467 -10501 0
-11769 10467 0
-11769 10501 0
11770 -10493 -10501 0
-11770 10493 0
-11770 10501 0
11771 -10493 -10503 0
-11771 10493 0
-11771 10503 0
11772 -10467 -10503 -10497 0
-11772 10467 0
-11772 10503 0
-11772 10497 0
-6829 10475 11769 11770 11771 11772 0
6829 -10475 0
6829 -11769 0
6829 -11770 0
6829 -11771 0
6829 -11772 0
11773 -10483 -10493 0
-11773 10483 0
-11773 10493 0
11774 -10481 -10467 0
-11774 10481 0
-11774 10467 0
11775 -10481 -10493 0
-11775 10481 0
-11775 10493 0
11776 -10483 -10467 -10497 0
-11776 10483 0
-11776 10467 0
-11776 10497 0
-6807 10477 11773 11774 11775 11776 0
6807 -10477 0
6807 -11773 0
6807 -11774 0
6807 -11775 0
6807 -11776 0
11777 -10483 -10481 0
-11777 10483 0
-11777 10481 0
11778 -10481 -10481 0
-11778 10481 0
-11778 10481 0
11779 -10481 -10483 0
-11779 10481 0
-11779 10483 0
11780 -10483 -10483 -10497 0
-11780 10483 0
-11780 10483 0
-11780 10497 0
-6788 10479 11777 11778 11779 11780 0
6788 -10479 0
6788 -11777 0
6788 -11778 0
6788 -11779 0
6788 -11780 0
11781 -10483 -10872 0
-11781 10483 0
-11781 10872 0
11782 -10481 -10872 0
-11782 10481 0
-11782 10872 0
11783 -10481 -10895 0
-11783 10481 0
-11783 10895 0
11784 -10483 -10895 -10497 0
-11784 10483 0
-11784 10895 0
-11784 10497 0
-6791 10847 11781 11782 11783 11784 0
6791 -10847 0
6791 -11781 0
6791 -11782 0
6791 -11783 0
6791 -11784 0
11785 -10483 -10461 0
-11785 10483 0
-11785 10461 0
11786 -10481 -10464 0
-11786 10481 0
-11786 10464 0
11787 -10481 -10461 0
-11787 10481 0
-11787 10461 0
11788 -10483 -10464 -10497 0
-11788 10483 0
-11788 10464 0
-11788 10497 0
-6798 10452 11785 11786 11787 11788 0
6798 -10452 0
6798 -11785 0
6798 -11786 0
6798 -11787 0
6798 -11788 0
11789 -10485 -10461 0
-11789 10485 0
-11789 10461 0
11790 -10495 -10461 0
-11790 10495 0
-11790 10461 0
11791 -10495 -10464 0
-11791 10495 0
-11791 10464 0
11792 -10485 -10464 -10497 0
-11792 10485 0
-11792 10464 0
-11792 10497 0
-6800 10455 11789 11790 11791 11792 0
6800 -10455 0
6800 -11789 0
6800 -11790 0
6800 -11791 0
6800 -11792 0
11793 -10483 -10499 0
-11793 10483 0
-11793 10499 0
11794 -10481 -10499 0
-11794 10481 0
-11794 10499 0
11795 -10481 -10509 0
-11795 10481 0
-11795 10509 0
11796 -10483 -10509 -10497 0
-11796 10483 0
-11796 10509 0
-11796 10497 0
-6812 10487 11793 11794 11795 11796 0
6812 -10487 0
6812 -11793 0
6812 -11794 0
6812 -11795 0
6812 -11796 0
11797 -10483 -10501 0
-11797 10483 0
-11797 10501 0
11798 -10481 -10503 0
-11798 10481 0
-11798 10503 0
11799 -10481 -10501 0
-11799 10481 0
-11799 10501 0
11800 -10483 -10503 -10497 0
-11800 10483 0
-11800 10503 0
-11800 10497 0
-6819 10489 11797 11798 11799 11800 0
6819 -10489 0
6819 -11797 0
6819 -11798 0
6819 -11799 0
6819 -11800 0
11801 -10485 -10501 0
-11801 10485 0
-11801 10501 0
11802 -10495 -10501 0
-11802 10495 0
-11802 10501 0
11803 -10495 -10503 0
-11803 10495 0
-11803 10503 0
11804 -10485 -10503 -10497 0
-11804 10485 0
-11804 10503 0
-11804 10497 0
-6821 10491 11801 11802 11803 11804 0
6821 -10491 0
6821 -11801 0
6821 -11802 0
6821 -11803 0
6821 -11804 0
11805 -10895 -10493 0
-11805 10895 0
-11805 10493 0
11806 -10872 -10467 0
-11806 10872 0
-11806 10467 0
11807 -10872 -10493 0
-11807 10872 0
-11807 10493 0
11808 -10895 -10467 -10497 0
-11808 10895 0
-11808 10467 0
-11808 10497 0
-6834 10885 11805 11806 11807 11808 0
6834 -10885 0
6834 -11805 0
6834 -11806 0
6834 -11807 0
6834 -11808 0
11809 -10895 -10495 0
-11809 10895 0
-11809 10495 0
11810 -10872 -10485 0
-11810 10872 0
-11810 10485 0
11811 -10872 -10495 0
-11811 10872 0
-11811 10495 0
11812 -10895 -10485 -10497 0
-11812 10895 0
-11812 10485 0
-11812 10497 0
-6794 10890 11809 11810 11811 11812 0
6794 -10890 0
6794 -11809 0
6794 -11810 0
6794 -11811 0
6794 -11812 0
11813 -10895 -10872 0
-11813 10895 0
-11813 10872 0
11555 -10872 -10872 0
-11555 10872 0
-11555 10872 0
11814 -10872 -10895 0
-11814 10872 0
-11814 10895 0
11815 -10895 -10895 -10497 0
-11815 10895 0
-11815 10895 0
-11815 10497 0
-6839 10900 11813 11555 11814 11815 0
6839 -10900 0
6839 -11813 0
6839 -11555 0
6839 -11814 0
6839 -11815 0
11816 -10895 -10499 0
-11816 10895 0
-11816 10499 0
11817 -10872 -10499 0
-11817 10872 0
-11817 10499 0
11818 -10872 -10509 0
-11818 10872 0
-11818 10509 0
11819 -10895 -10509 -10497 0
-11819 10895 0
-11819 10509 0
-11819 10497 0
-6844 10809 11816 11817 11818 11819 0
6844 -10809 0
6844 -11816 0
6844 -11817 0
6844 -11818 0
6844 -11819 0
11820 -10895 -10501 0
-11820 10895 0
-11820 10501 0
11821 -10872 -10503 0
-11821 10872 0
-11821 10503 0
11822 -10872 -10501 0
-11822 10872 0
-11822 10501 0
11823 -10895 -10503 -10497 0
-11823 10895 0
-11823 10503 0
-11823 10497 0
-6849 10812 11820 11821 11822 11823 0
6849 -10812 0
6849 -11820 0
6849 -11821 0
6849 -11822 0
6849 -11823 0
11824 -10464 -10501 0
-11824 10464 0
-11824 10501 0
11825 -10461 -10501 0
-11825 10461 0
-11825 10501 0
11826 -10461 -10503 0
-11826 10461 0
-11826 10503 0
11827 -10464 -10503 -10497 0
-11827 10464 0
-11827 10503 0
-11827 10497 0
-6854 10472 11824 11825 11826 11827 0
6854 -10472 0
6854 -11824 0
6854 -11825 0
6854 -11826 0
6854 -11827 0
11828 -10509 -10493 0
-11828 10509 0
-11828 10493 0
11829 -10499 -10467 0
-11829 10499 0
-11829 10467 0
11830 -10499 -10493 0
-11830 10499 0
-11830 10493 0
11831 -10509 -10467 -10497 0
-11831 10509 0
-11831 10467 0
-11831 10497 0
-6859 10505 11828 11829 11830 11831 0
6859 -10505 0
6859 -11828 0
6859 -11829 0
6859 -11830 0
6859 -11831 0
11832 -10509 -10495 0
-11832 10509 0
-11832 10495 0
11833 -10499 -10485 0
-11833 10499 0
-11833 10485 0
11834 -10499 -10495 0
-11834 10499 0
-11834 10495 0
11835 -10509 -10485 -10497 0
-11835 10509 0
-11835 10485 0
-11835 10497 0
-6815 10507 11832 11833 11834 11835 0
6815 -10507 0
6815 -11832 0
6815 -11833 0
6815 -11834 0
6815 -11835 0
11836 -10509 -10461 0
-11836 10509 0
-11836 10461 0
11837 -10499 -10464 0
-11837 10499 0
-11837 10464 0
11838 -10499 -10461 0
-11838 10499 0
-11838 10461 0
11839 -10509 -10464 -10497 0
-11839 10509 0
-11839 10464 0
-11839 10497 0
-6864 10469 11836 11837 11838 11839 0
6864 -10469 0
6864 -11836 0
6864 -11837 0
6864 -11838 0
6864 -11839 0
11840 -10509 -10499 0
-11840 10509 0
-11840 10499 0
10865 -10499 -10499 0
-10865 10499 0
-10865 10499 0
11841 -10499 -10509 0
-11841 10499 0
-11841 10509 0
11842 -10509 -10509 -10497 0
-11842 10509 0
-11842 10509 0
-11842 10497 0
-6869 10511 11840 10865 11841 11842 0
6869 -10511 0
6869 -11840 0
6869 -10865 0
6869 -11841 0
6869 -11842 0
11843 -10513 -10513 0
-11843 10513 0
-11843 10513 0
-7381 10519 11843 0
7381 -10519 0
7381 -11843 0
11844 -10513 -10524 0
-11844 10513 0
-11844 10524 0
-8890 10526 11844 0
8890 -10526 0
8890 -11844 0
11845 -10513 -10530 0
-11845 10513 0
-11845 10530 0
-7380 10533 11845 0
7380 -10533 0
7380 -11845 0
11846 -10535 -10530 0
-11846 10535 0
-11846 10530 0
-7389 10540 11846 0
7389 -10540 0
7389 -11846 0
11847 -10513 -10545 0
-11847 10513 0
-11847 10545 0
-7384 10547 11847 0
7384 -10547 0
7384 -11847 0
11848 -10513 -10551 0
-11848 10513 0
-11848 10551 0
-7387 10554 11848 0
7387 -10554 0
7387 -11848 0
11849 -10535 -10551 0
-11849 10535 0
-11849 10551 0
-7390 10559 11849 0
7390 -10559 0
7390 -11849 0
11850 -10513 -10564 0
-11850 10513 0
-11850 10564 0
-7393 10566 11850 0
7393 -10566 0
7393 -11850 0
11851 -10513 -10570 0
-11851 10513 0
-11851 10570 0
-7396 10573 11851 0
7396 -10573 0
7396 -11851 0
11852 -10535 -10570 0
-11852 10535 0
-11852 10570 0
-7398 10578 11852 0
7398 -10578 0
7398 -11852 0
11853 -10524 -10535 0
-11853 10524 0
-11853 10535 0
-8907 10583 11853 0
8907 -10583 0
8907 -11853 0
11854 -10524 -10524 0
-11854 10524 0
-11854 10524 0
-8894 10588 11854 0
8894 -10588 0
8894 -11854 0
11855 -10524 -10545 0
-11855 10524 0
-11855 10545 0
-8896 10593 11855 0
8896 -10593 0
8896 -11855 0
11856 -10524 -10551 0
-11856 10524 0
-11856 10551 0
-8901 10598 11856 0
8901 -10598 0
8901 -11856 0
11857 -10530 -10551 0
-11857 10530 0
-11857 10551 0
-7386 10603 11857 0
7386 -10603 0
7386 -11857 0
11858 -10524 -10564 0
-11858 10524 0
-11858 10564 0
-8911 10608 11858 0
8911 -10608 0
8911 -11858 0
11859 -10524 -10570 0
-11859 10524 0
-11859 10570 0
-8916 10613 11859 0
8916 -10613 0
8916 -11859 0
11860 -10530 -10570 0
-11860 10530 0
-11860 10570 0
-7395 10618 11860 0
7395 -10618 0
7395 -11860 0
11861 -10545 -10535 0
-11861 10545 0
-11861 10535 0
-7400 10623 11861 0
7400 -10623 0
7400 -11861 0
11862 -10545 -10530 0
-11862 10545 0
-11862 10530 0
-7383 10628 11862 0
7383 -10628 0
7383 -11862 0
11863 -10545 -10545 0
-11863 10545 0
-11863 10545 0
-7402 10633 11863 0
7402 -10633 0
7402 -11863 0
11864 -10545 -10564 0
-11864 10545 0
-11864 10564 0
-7404 10638 11864 0
7404 -10638 0
7404 -11864 0
11865 -10545 -10570 0
-11865 10545 0
-11865 10570 0
-7406 10643 11865 0
7406 -10643 0
7406 -11865 0
11866 -10551 -10570 0
-11866 10551 0
-11866 10570 0
-7408 10648 11866 0
7408 -10648 0
7408 -11866 0
11867 -10564 -10535 0
-11867 10564 0
-11867 10535 0
-7410 10653 11867 0
7410 -10653 0
7410 -11867 0
11868 -10564 -10530 0
-11868 10564 0
-11868 10530 0
-7392 10658 11868 0
7392 -10658 0
7392 -11868 0
11869 -10564 -10551 0
-11869 10564 0
-11869 10551 0
-7412 10663 11869 0
7412 -10663 0
7412 -11869 0
11870 -10564 -10564 0
-11870 10564 0
-11870 10564 0
-7414 10668 11870 0
7414 -10668 0
7414 -11870 0
11871 -10148 -10148 0
-11871 10148 0
-11871 10148 0
-8527 10113 11871 0
8527 -10113 0
8527 -11871 0
11872 -10148 -10192 0
-11872 10148 0
-11872 10192 0
-9703 10120 11872 0
9703 -10120 0
9703 -11872 0
11873 -10148 -10197 0
-11873 10148 0
-11873 10197 0
-8526 10127 11873 0
8526 -10127 0
8526 -11873 0
11874 -10153 -10197 0
-11874 10153 0
-11874 10197 0
-8535 10134 11874 0
8535 -10134 0
8535 -11874 0
11875 -10148 -10143 0
-11875 10148 0
-11875 10143 0
-8530 10108 11875 0
8530 -10108 0
8530 -11875 0
11876 -10148 -10145 0
-11876 10148 0
-11876 10145 0
-8533 10107 11876 0
8533 -10107 0
8533 -11876 0
11877 -10153 -10145 0
-11877 10153 0
-11877 10145 0
-8536 10129 11877 0
8536 -10129 0
8536 -11877 0
11878 -10148 -10257 0
-11878 10148 0
-11878 10257 0
-8539 10160 11878 0
8539 -10160 0
8539 -11878 0
11879 -10148 -10242 0
-11879 10148 0
-11879 10242 0
-8542 10167 11879 0
8542 -10167 0
8542 -11879 0
11880 -10153 -10242 0
-11880 10153 0
-11880 10242 0
-8544 10172 11880 0
8544 -10172 0
8544 -11880 0
11881 -10192 -10153 0
-11881 10192 0
-11881 10153 0
-9720 10177 11881 0
9720 -10177 0
9720 -11881 0
11882 -10192 -10192 0
-11882 10192 0
-11882 10192 0
-9707 10182 11882 0
9707 -10182 0
9707 -11882 0
11883 -10192 -10143 0
-11883 10192 0
-11883 10143 0
-9709 10115 11883 0
9709 -10115 0
9709 -11883 0
11884 -10192 -10145 0
-11884 10192 0
-11884 10145 0
-9714 10118 11884 0
9714 -10118 0
9714 -11884 0
11885 -10197 -10145 0
-11885 10197 0
-11885 10145 0
-8532 10124 11885 0
8532 -10124 0
8532 -11885 0
11886 -10192 -10257 0
-11886 10192 0
-11886 10257 0
-9724 10202 11886 0
9724 -10202 0
9724 -11886 0
11887 -10192 -10242 0
-11887 10192 0
-11887 10242 0
-9729 10207 11887 0
9729 -10207 0
9729 -11887 0
11888 -10197 -10242 0
-11888 10197 0
-11888 10242 0
-8541 10212 11888 0
8541 -10212 0
8541 -11888 0
11889 -10143 -10153 0
-11889 10143 0
-11889 10153 0
-8546 10131 11889 0
8546 -10131 0
8546 -11889 0
11890 -10143 -10197 0
-11890 10143 0
-11890 10197 0
-8529 10122 11890 0
8529 -10122 0
8529 -11890 0
11891 -10143 -10143 0
-11891 10143 0
-11891 10143 0
-8548 10112 11891 0
8548 -10112 0
8548 -11891 0
11892 -10143 -10257 0
-11892 10143 0
-11892 10257 0
-8550 10155 11892 0
8550 -10155 0
8550 -11892 0
11893 -10143 -10242 0
-11893 10143 0
-11893 10242 0
-8552 10162 11893 0
8552 -10162 0
8552 -11893 0
11894 -10145 -10242 0
-11894 10145 0
-11894 10242 0
-8554 10164 11894 0
8554 -10164 0
8554 -11894 0
11895 -10257 -10153 0
-11895 10257 0
-11895 10153 0
-8556 10247 11895 0
8556 -10247 0
8556 -11895 0
11896 -10257 -10197 0
-11896 10257 0
-11896 10197 0
-8538 10252 11896 0
8538 -10252 0
8538 -11896 0
11897 -10257 -10145 0
-11897 10257 0
-11897 10145 0
-8558 10158 11897 0
8558 -10158 0
8558 -11897 0
11898 -10257 -10257 0
-11898 10257 0
-11898 10257 0
-8560 10262 11898 0
8560 -10262 0
8560 -11898 0
11899 -10292 -10292 0
-11899 10292 0
-11899 10292 0
-6580 10298 11899 0
6580 -10298 0
6580 -11899 0
11900 -10292 -10303 0
-11900 10292 0
-11900 10303 0
-8690 10305 11900 0
8690 -10305 0
8690 -11900 0
11901 -10292 -10309 0
-11901 10292 0
-11901 10309 0
-6579 10312 11901 0
6579 -10312 0
6579 -11901 0
11902 -10314 -10309 0
-11902 10314 0
-11902 10309 0
-6588 10319 11902 0
6588 -10319 0
6588 -11902 0
11903 -10292 -10324 0
-11903 10292 0
-11903 10324 0
-6583 10326 11903 0
6583 -10326 0
6583 -11903 0
11904 -10292 -10330 0
-11904 10292 0
-11904 10330 0
-6586 10333 11904 0
6586 -10333 0
6586 -11904 0
11905 -10314 -10330 0
-11905 10314 0
-11905 10330 0
-6589 10338 11905 0
6589 -10338 0
6589 -11905 0
11906 -10292 -10343 0
-11906 10292 0
-11906 10343 0
-6592 10345 11906 0
6592 -10345 0
6592 -11906 0
11907 -10292 -10349 0
-11907 10292 0
-11907 10349 0
-6595 10352 11907 0
6595 -10352 0
6595 -11907 0
11908 -10314 -10349 0
-11908 10314 0
-11908 10349 0
-6597 10357 11908 0
6597 -10357 0
6597 -11908 0
11909 -10303 -10314 0
-11909 10303 0
-11909 10314 0
-8707 10362 11909 0
8707 -10362 0
8707 -11909 0
11910 -10303 -10303 0
-11910 10303 0
-11910 10303 0
-8694 10367 11910 0
8694 -10367 0
8694 -11910 0
11911 -10303 -10324 0
-11911 10303 0
-11911 10324 0
-8696 10372 11911 0
8696 -10372 0
8696 -11911 0
11912 -10303 -10330 0
-11912 10303 0
-11912 10330 0
-8701 10377 11912 0
8701 -10377 0
8701 -11912 0
11913 -10309 -10330 0
-11913 10309 0
-11913 10330 0
-6585 10382 11913 0
6585 -10382 0
6585 -11913 0
11914 -10303 -10343 0
-11914 10303 0
-11914 10343 0
-8711 10387 11914 0
8711 -10387 0
8711 -11914 0
11915 -10303 -10349 0
-11915 10303 0
-11915 10349 0
-8716 10392 11915 0
8716 -10392 0
8716 -11915 0
11916 -10309 -10349 0
-11916 10309 0
-11916 10349 0
-6594 10397 11916 0
6594 -10397 0
6594 -11916 0
11917 -10324 -10314 0
-11917 10324 0
-11917 10314 0
-6599 10402 11917 0
6599 -10402 0
6599 -11917 0
11918 -10324 -10309 0
-11918 10324 0
-11918 10309 0
-6582 10407 11918 0
6582 -10407 0
6582 -11918 0
11919 -10324 -10324 0
-11919 10324 0
-11919 10324 0
-6601 10412 11919 0
6601 -10412 0
6601 -11919 0
11920 -10324 -10343 0
-11920 10324 0
-11920 10343 0
-6603 10417 11920 0
6603 -10417 0
6603 -11920 0
11921 -10324 -10349 0
-11921 10324 0
-11921 10349 0
-6605 10422 11921 0
6605 -10422 0
6605 -11921 0
11922 -10330 -10349 0
-11922 10330 0
-11922 10349 0
-6607 10427 11922 0
6607 -10427 0
6607 -11922 0
11923 -10343 -10314 0
-11923 10343 0
-11923 10314 0
-6609 10432 11923 0
6609 -10432 0
6609 -11923 0
11924 -10343 -10309 0
-11924 10343 0
-11924 10309 0
-6591 10437 11924 0
6591 -10437 0
6591 -11924 0
11925 -10343 -10330 0
-11925 10343 0
-11925 10330 0
-6611 10442 11925 0
6611 -10442 0
6611 -11925 0
11926 -10343 -10343 0
-11926 10343 0
-11926 10343 0
-6613 10447 11926 0
6613 -10447 0
6613 -11926 0
11927 -11670 -11928 0
-11927 11670 0
-11927 11928 0
11929 -11928 -11928 0
-11929 11928 0
-11929 11928 0
11930 -11928 -11670 0
-11930 11928 0
-11930 11670 0
11931 -11670 -11670 -11932 0
-11931 11670 0
-11931 11670 0
-11931 11932 0
-9547 11671 11927 11929 11930 11931 0
9547 -11671 0
9547 -11927 0
9547 -11929 0
9547 -11930 0
9547 -11931 0
11933 -11670 -11934 0
-11933 11670 0
-11933 11934 0
11935 -11928 -11934 0
-11935 11928 0
-11935 11934 0
11936 -11928 -11673 0
-11936 11928 0
-11936 11673 0
11937 -11670 -11673 -11932 0
-11937 11670 0
-11937 11673 0
-11937 11932 0
-9542 11674 11933 11935 11936 11937 0
9542 -11674 0
9542 -11933 0
9542 -11935 0
9542 -11936 0
9542 -11937 0
11938 -11670 -11939 0
-11938 11670 0
-11938 11939 0
11940 -11928 -11676 0
-11940 11928 0
-11940 11676 0
11941 -11928 -11939 0
-11941 11928 0
-11941 11939 0
11942 -11670 -11676 -11932 0
-11942 11670 0
-11942 11676 0
-11942 11932 0
-9541 11677 11938 11940 11941 11942 0
9541 -11677 0
9541 -11938 0
9541 -11940 0
9541 -11941 0
9541 -11942 0
11943 -11679 -11939 0
-11943 11679 0
-11943 11939 0
11944 -11945 -11939 0
-11944 11945 0
-11944 11939 0
11946 -11945 -11676 0
-11946 11945 0
-11946 11676 0
11947 -11679 -11676 -11932 0
-11947 11679 0
-11947 11676 0
-11947 11932 0
-9563 11680 11943 11944 11946 11947 0
9563 -11680 0
9563 -11943 0
9563 -11944 0
9563 -11946 0
9563 -11947 0
11948 -11670 -11949 0
-11948 11670 0
-11948 11949 0
11950 -11928 -11949 0
-11950 11928 0
-11950 11949 0
11951 -11928 -11682 0
-11951 11928 0
-11951 11682 0
11952 -11670 -11682 -11932 0
-11952 11670 0
-11952 11682 0
-11952 11932 0
-9554 11683 11948 11950 11951 11952 0
9554 -11683 0
9554 -11948 0
9554 -11950 0
9554 -11951 0
9554 -11952 0
11953 -11670 -11954 0
-11953 11670 0
-11953 11954 0
11955 -11928 -11685 0
-11955 11928 0
-11955 11685 0
11956 -11928 -11954 0
-11956 11928 0
-11956 11954 0
11957 -11670 -11685 -11932 0
-11957 11670 0
-11957 11685 0
-11957 11932 0
-9561 11686 11953 11955 11956 11957 0
9561 -11686 0
9561 -11953 0
9561 -11955 0
9561 -11956 0
9561 -11957 0
11958 -11679 -11954 0
-11958 11679 0
-11958 11954 0
11959 -11945 -11954 0
-11959 11945 0
-11959 11954 0
11960 -11945 -11685 0
-11960 11945 0
-11960 11685 0
11961 -11679 -11685 -11932 0
-11961 11679 0
-11961 11685 0
-11961 11932 0
-9568 11688 11958 11959 11960 11961 0
9568 -11688 0
9568 -11958 0
9568 -11959 0
9568 -11960 0
9568 -11961 0
11962 -11670 -11963 0
-11962 11670 0
-11962 11963 0
11964 -11928 -11963 0
-11964 11928 0
-11964 11963 0
11965 -11928 -11690 0
-11965 11928 0
-11965 11690 0
11966 -11670 -11690 -11932 0
-11966 11670 0
-11966 11690 0
-11966 11932 0
-9575 11691 11962 11964 11965 11966 0
9575 -11691 0
9575 -11962 0
9575 -11964 0
9575 -11965 0
9575 -11966 0
11967 -11670 -11968 0
-11967 11670 0
-11967 11968 0
11969 -11928 -11693 0
-11969 11928 0
-11969 11693 0
11970 -11928 -11968 0
-11970 11928 0
-11970 11968 0
11971 -11670 -11693 -11932 0
-11971 11670 0
-11971 11693 0
-11971 11932 0
-9582 11694 11967 11969 11970 11971 0
9582 -11694 0
9582 -11967 0
9582 -11969 0
9582 -11970 0
9582 -11971 0
11972 -11679 -11968 0
-11972 11679 0
-11972 11968 0
11973 -11945 -11968 0
-11973 11945 0
-11973 11968 0
11974 -11945 -11693 0
-11974 11945 0
-11974 11693 0
11975 -11679 -11693 -11932 0
-11975 11679 0
-11975 11693 0
-11975 11932 0
-9587 11696 11972 11973 11974 11975 0
9587 -11696 0
9587 -11972 0
9587 -11973 0
9587 -11974 0
9587 -11975 0
11976 -11673 -11945 0
-11976 11673 0
-11976 11945 0
11977 -11934 -11679 0
-11977 11934 0
-11977 11679 0
11978 -11934 -11945 0
-11978 11934 0
-11978 11945 0
11979 -11673 -11679 -11932 0
-11979 11673 0
-11979 11679 0
-11979 11932 0
-9565 11698 11976 11977 11978 11979 0
9565 -11698 0
9565 -11976 0
9565 -11977 0
9565 -11978 0
9565 -11979 0
11980 -11673 -11934 0
-11980 11673 0
-11980 11934 0
11981 -11934 -11934 0
-11981 11934 0
-11981 11934 0
11982 -11934 -11673 0
-11982 11934 0
-11982 11673 0
11983 -11673 -11673 -11932 0
-11983 11673 0
-11983 11673 0
-11983 11932 0
-9546 11700 11980 11981 11982 11983 0
9546 -11700 0
9546 -11980 0
9546 -11981 0
9546 -11982 0
9546 -11983 0
11984 -11673 -11949 0
-11984 11673 0
-11984 11949 0
11985 -11934 -11949 0
-11985 11934 0
-11985 11949 0
11986 -11934 -11682 0
-11986 11934 0
-11986 11682 0
11987 -11673 -11682 -11932 0
-11987 11673 0
-11987 11682 0
-11987 11932 0
-9549 11702 11984 11985 11986 11987 0
9549 -11702 0
9549 -11984 0
9549 -11985 0
9549 -11986 0
9549 -11987 0
11988 -11673 -11954 0
-11988 11673 0
-11988 11954 0
11989 -11934 -11685 0
-11989 11934 0
-11989 11685 0
11990 -11934 -11954 0
-11990 11934 0
-11990 11954 0
11991 -11673 -11685 -11932 0
-11991 11673 0
-11991 11685 0
-11991 11932 0
-9556 11704 11988 11989 11990 11991 0
9556 -11704 0
9556 -11988 0
9556 -11989 0
9556 -11990 0
9556 -11991 0
11992 -11676 -11954 0
-11992 11676 0
-11992 11954 0
11993 -11939 -11954 0
-11993 11939 0
-11993 11954 0
11994 -11939 -11685 0
-11994 11939 0
-11994 11685 0
11995 -11676 -11685 -11932 0
-11995 11676 0
-11995 11685 0
-11995 11932 0
-9558 11706 11992 11993 11994 11995 0
9558 -11706 0
9558 -11992 0
9558 -11993 0
9558 -11994 0
9558 -11995 0
11996 -11673 -11963 0
-11996 11673 0
-11996 11963 0
11997 -11934 -11963 0
-11997 11934 0
-11997 11963 0
11998 -11934 -11690 0
-11998 11934 0
-11998 11690 0
11999 -11673 -11690 -11932 0
-11999 11673 0
-11999 11690 0
-11999 11932 0
-9570 11708 11996 11997 11998 11999 0
9570 -11708 0
9570 -11996 0
9570 -11997 0
9570 -11998 0
9570 -11999 0
12000 -11673 -11968 0
-12000 11673 0
-12000 11968 0
12001 -11934 -11693 0
-12001 11934 0
-12001 11693 0
12002 -11934 -11968 0
-12002 11934 0
-12002 11968 0
12003 -11673 -11693 -11932 0
-12003 11673 0
-12003 11693 0
-12003 11932 0
-9577 11710 12000 12001 12002 12003 0
9577 -11710 0
9577 -12000 0
9577 -12001 0
9577 -12002 0
9577 -12003 0
12004 -11676 -11968 0
-12004 11676 0
-12004 11968 0
12005 -11939 -11968 0
-12005 11939 0
-12005 11968 0
12006 -11939 -11693 0
-12006 11939 0
-12006 11693 0
12007 -11676 -11693 -11932 0
-12007 11676 0
-12007 11693 0
-12007 11932 0
-9579 11712 12004 12005 12006 12007 0
9579 -11712 0
9579 -12004 0
9579 -12005 0
9579 -12006 0
9579 -12007 0
12008 -11682 -11945 0
-12008 11682 0
-12008 11945 0
12009 -11949 -11679 0
-12009 11949 0
-12009 11679 0
12010 -11949 -11945 0
-12010 11949 0
-12010 11945 0
12011 -11682 -11679 -11932 0
-12011 11682 0
-12011 11679 0
-12011 11932 0
-9592 11714 12008 12009 12010 12011 0
9592 -11714 0
9592 -12008 0
9592 -12009 0
9592 -12010 0
9592 -12011 0
12012 -11682 -11939 0
-12012 11682 0
-12012 11939 0
12013 -11949 -11676 0
-12013 11949 0
-12013 11676 0
12014 -11949 -11939 0
-12014 11949 0
-12014 11939 0
12015 -11682 -11676 -11932 0
-12015 11682 0
-12015 11676 0
-12015 11932 0
-9552 11716 12012 12013 12014 12015 0
9552 -11716 0
9552 -12012 0
9552 -12013 0
9552 -12014 0
9552 -12015 0
12016 -11682 -11949 0
-12016 11682 0
-12016 11949 0
12017 -11949 -11949 0
-12017 11949 0
-12017 11949 0
12018 -11949 -11682 0
-12018 11949 0
-12018 11682 0
12019 -11682 -11682 -11932 0
-12019 11682 0
-12019 11682 0
-12019 11932 0
-9597 11718 12016 12017 12018 12019 0
9597 -11718 0
9597 -12016 0
9597 -12017 0
9597 -12018 0
9597 -12019 0
12020 -11682 -11963 0
-12020 11682 0
-12020 11963 0
12021 -11949 -11963 0
-12021 11949 0
-12021 11963 0
12022 -11949 -11690 0
-12022 11949 0
-12022 11690 0
12023 -11682 -11690 -11932 0
-12023 11682 0
-12023 11690 0
-12023 11932 0
-9602 11720 12020 12021 12022 12023 0
9602 -11720 0
9602 -12020 0
9602 -12021 0
9602 -12022 0
9602 -12023 0
12024 -11682 -11968 0
-12024 11682 0
-12024 11968 0
12025 -11949 -11693 0
-12025 11949 0
-12025 11693 0
12026 -11949 -11968 0
-12026 11949 0
-12026 11968 0
12027 -11682 -11693 -11932 0
-12027 11682 0
-12027 11693 0
-12027 11932 0
-9607 11722 12024 12025 12026 12027 0
9607 -11722 0
9607 -12024 0
9607 -12025 0
9607 -12026 0
9607 -12027 0
12028 -11685 -11968 0
-12028 11685 0
-12028 11968 0
12029 -11954 -11968 0
-12029 11954 0
-12029 11968 0
12030 -11954 -11693 0
-12030 11954 0
-12030 11693 0
12031 -11685 -11693 -11932 0
-12031 11685 0
-12031 11693 0
-12031 11932 0
-9612 11724 12028 12029 12030 12031 0
9612 -11724 0
9612 -12028 0
9612 -12029 0
9612 -12030 0
9612 -12031 0
12032 -11690 -11945 0
-12032 11690 0
-12032 11945 0
12033 -11963 -11679 0
-12033 11963 0
-12033 11679 0
12034 -11963 -11945 0
-12034 11963 0
-12034 11945 0
12035 -11690 -11679 -11932 0
-12035 11690 0
-12035 11679 0
-12035 11932 0
-9617 11726 12032 12033 12034 12035 0
9617 -11726 0
9617 -12032 0
9617 -12033 0
9617 -12034 0
9617 -12035 0
12036 -11690 -11939 0
-12036 11690 0
-12036 11939 0
12037 -11963 -11676 0
-12037 11963 0
-12037 11676 0
12038 -11963 -11939 0
-12038 11963 0
-12038 11939 0
12039 -11690 -11676 -11932 0
-12039 11690 0
-12039 11676 0
-12039 11932 0
-9573 11728 12036 12037 12038 12039 0
9573 -11728 0
9573 -12036 0
9573 -12037 0
9573 -12038 0
9573 -12039 0
12040 -11690 -11954 0
-12040 11690 0
-12040 11954 0
12041 -11963 -11685 0
-12041 11963 0
-12041 11685 0
12042 -11963 -11954 0
-12042 11963 0
-12042 11954 0
12043 -11690 -11685 -11932 0
-12043 11690 0
-12043 11685 0
-12043 11932 0
-9622 11730 12040 12041 12042 12043 0
9622 -11730 0
9622 -12040 0
9622 -12041 0
9622 -12042 0
9622 -12043 0
12044 -11690 -11963 0
-12044 11690 0
-12044 11963 0
12045 -11963 -11963 0
-12045 11963 0
-12045 11963 0
12046 -11963 -11690 0
-12046 11963 0
-12046 11690 0
12047 -11690 -11690 -11932 0
-12047 11690 0
-12047 11690 0
-12047 11932 0
-9627 11732 12044 12045 12046 12047 0
9627 -11732 0
9627 -12044 0
9627 -12045 0
9627 -12046 0
9627 -12047 0
12048 -12049 -1211 0
-12048 12049 0
-12048 1211 0
12050 -1211 -1211 0
-12050 1211 0
-12050 1211 0
12051 -1211 -12049 0
-12051 1211 0
-12051 12049 0
12052 -12049 -12049 -1215 0
-12052 12049 0
-12052 12049 0
-12052 1215 0
-10298 1201 12048 12050 12051 12052 0
10298 -1201 0
10298 -12048 0
10298 -12050 0
10298 -12051 0
10298 -12052 0
12053 -12049 -1212 0
-12053 12049 0
-12053 1212 0
12054 -1211 -1212 0
-12054 1211 0
-12054 1212 0
12055 -1211 -12056 0
-12055 1211 0
-12055 12056 0
12057 -12049 -12056 -1215 0
-12057 12049 0
-12057 12056 0
-12057 1215 0
-10305 1202 12053 12054 12055 12057 0
10305 -1202 0
10305 -12053 0
10305 -12054 0
10305 -12055 0
10305 -12057 0
12058 -12049 -12059 0
-12058 12049 0
-12058 12059 0
12060 -1211 -12061 0
-12060 1211 0
-12060 12061 0
12062 -1211 -12059 0
-12062 1211 0
-12062 12059 0
12063 -12049 -12061 -1215 0
-12063 12049 0
-12063 12061 0
-12063 1215 0
-10312 12064 12058 12060 12062 12063 0
10312 -12064 0
10312 -12058 0
10312 -12060 0
10312 -12062 0
10312 -12063 0
12065 -12066 -12059 0
-12065 12066 0
-12065 12059 0
12067 -12068 -12059 0
-12067 12068 0
-12067 12059 0
12069 -12068 -12061 0
-12069 12068 0
-12069 12061 0
12070 -12066 -12061 -1215 0
-12070 12066 0
-12070 12061 0
-12070 1215 0
-10319 12071 12065 12067 12069 12070 0
10319 -12071 0
10319 -12065 0
10319 -12067 0
10319 -12069 0
10319 -12070 0
12072 -12049 -1213 0
-12072 12049 0
-12072 1213 0
12073 -1211 -1213 0
-12073 1211 0
-12073 1213 0
12074 -1211 -12075 0
-12074 1211 0
-12074 12075 0
12076 -12049 -12075 -1215 0
-12076 12049 0
-12076 12075 0
-12076 1215 0
-10293 1204 12072 12073 12074 12076 0
10293 -1204 0
10293 -12072 0
10293 -12073 0
10293 -12074 0
10293 -12076 0
12077 -12049 -12078 0
-12077 12049 0
-12077 12078 0
12079 -1211 -12080 0
-12079 1211 0
-12079 12080 0
12081 -1211 -12078 0
-12081 1211 0
-12081 12078 0
12082 -12049 -12080 -1215 0
-12082 12049 0
-12082 12080 0
-12082 1215 0
-10292 12083 12077 12079 12081 12082 0
10292 -12083 0
10292 -12077 0
10292 -12079 0
10292 -12081 0
10292 -12082 0
12084 -12066 -12078 0
-12084 12066 0
-12084 12078 0
12085 -12068 -12078 0
-12085 12068 0
-12085 12078 0
12086 -12068 -12080 0
-12086 12068 0
-12086 12080 0
12087 -12066 -12080 -1215 0
-12087 12066 0
-12087 12080 0
-12087 1215 0
-10314 12088 12084 12085 12086 12087 0
10314 -12088 0
10314 -12084 0
10314 -12085 0
10314 -12086 0
10314 -12087 0
12089 -12049 -1214 0
-12089 12049 0
-12089 1214 0
12090 -1211 -1214 0
-12090 1211 0
-12090 1214 0
12091 -1211 -12092 0
-12091 1211 0
-12091 12092 0
12093 -12049 -12092 -1215 0
-12093 12049 0
-12093 12092 0
-12093 1215 0
-10326 1207 12089 12090 12091 12093 0
10326 -1207 0
10326 -12089 0
10326 -12090 0
10326 -12091 0
10326 -12093 0
12094 -12049 -12095 0
-12094 12049 0
-12094 12095 0
12096 -1211 -12097 0
-12096 1211 0
-12096 12097 0
12098 -1211 -12095 0
-12098 1211 0
-12098 12095 0
12099 -12049 -12097 -1215 0
-12099 12049 0
-12099 12097 0
-12099 1215 0
-10333 12100 12094 12096 12098 12099 0
10333 -12100 0
10333 -12094 0
10333 -12096 0
10333 -12098 0
10333 -12099 0
12101 -12066 -12095 0
-12101 12066 0
-12101 12095 0
12102 -12068 -12095 0
-12102 12068 0
-12102 12095 0
12103 -12068 -12097 0
-12103 12068 0
-12103 12097 0
12104 -12066 -12097 -1215 0
-12104 12066 0
-12104 12097 0
-12104 1215 0
-10338 12105 12101 12102 12103 12104 0
10338 -12105 0
10338 -12101 0
10338 -12102 0
10338 -12103 0
10338 -12104 0
12106 -12049 -1220 0
-12106 12049 0
-12106 1220 0
12107 -1211 -1220 0
-12107 1211 0
-12107 1220 0
12108 -1211 -12109 0
-12108 1211 0
-12108 12109 0
12110 -12049 -12109 -1215 0
-12110 12049 0
-12110 12109 0
-12110 1215 0
-10345 1216 12106 12107 12108 12110 0
10345 -1216 0
10345 -12106 0
10345 -12107 0
10345 -12108 0
10345 -12110 0
12111 -12049 -12112 0
-12111 12049 0
-12111 12112 0
12113 -1211 -12114 0
-12113 1211 0
-12113 12114 0
12115 -1211 -12112 0
-12115 1211 0
-12115 12112 0
12116 -12049 -12114 -1215 0
-12116 12049 0
-12116 12114 0
-12116 1215 0
-10352 12117 12111 12113 12115 12116 0
10352 -12117 0
10352 -12111 0
10352 -12113 0
10352 -12115 0
10352 -12116 0
12118 -12066 -12112 0
-12118 12066 0
-12118 12112 0
12119 -12068 -12112 0
-12119 12068 0
-12119 12112 0
12120 -12068 -12114 0
-12120 12068 0
-12120 12114 0
12121 -12066 -12114 -1215 0
-12121 12066 0
-12121 12114 0
-12121 1215 0
-10357 12122 12118 12119 12120 12121 0
10357 -12122 0
10357 -12118 0
10357 -12119 0
10357 -12120 0
10357 -12121 0
12123 -12056 -12068 0
-12123 12056 0
-12123 12068 0
12124 -1212 -12066 0
-12124 1212 0
-12124 12066 0
12125 -1212 -12068 0
-12125 1212 0
-12125 12068 0
12126 -12056 -12066 -1215 0
-12126 12056 0
-12126 12066 0
-12126 1215 0
-10362 12127 12123 12124 12125 12126 0
10362 -12127 0
10362 -12123 0
10362 -12124 0
10362 -12125 0
10362 -12126 0
12128 -12056 -1212 0
-12128 12056 0
-12128 1212 0
12129 -1212 -1212 0
-12129 1212 0
-12129 1212 0
12130 -1212 -12056 0
-12130 1212 0
-12130 12056 0
12131 -12056 -12056 -1215 0
-12131 12056 0
-12131 12056 0
-12131 1215 0
-10367 1203 12128 12129 12130 12131 0
10367 -1203 0
10367 -12128 0
10367 -12129 0
10367 -12130 0
10367 -12131 0
12132 -12056 -1213 0
-12132 12056 0
-12132 1213 0
12133 -1212 -1213 0
-12133 1212 0
-12133 1213 0
12134 -1212 -12075 0
-12134 1212 0
-12134 12075 0
12135 -12056 -12075 -1215 0
-12135 12056 0
-12135 12075 0
-12135 1215 0
-10300 1205 12132 12133 12134 12135 0
10300 -1205 0
10300 -12132 0
10300 -12133 0
10300 -12134 0
10300 -12135 0
12136 -12056 -12078 0
-12136 12056 0
-12136 12078 0
12137 -1212 -12080 0
-12137 1212 0
-12137 12080 0
12138 -1212 -12078 0
-12138 1212 0
-12138 12078 0
12139 -12056 -12080 -1215 0
-12139 12056 0
-12139 12080 0
-12139 1215 0
-10303 12140 12136 12137 12138 12139 0
10303 -12140 0
10303 -12136 0
10303 -12137 0
10303 -12138 0
10303 -12139 0
12141 -12061 -12078 0
-12141 12061 0
-12141 12078 0
12142 -12059 -12078 0
-12142 12059 0
-12142 12078 0
12143 -12059 -12080 0
-12143 12059 0
-12143 12080 0
12144 -12061 -12080 -1215 0
-12144 12061 0
-12144 12080 0
-12144 1215 0
-10309 12145 12141 12142 12143 12144 0
10309 -12145 0
10309 -12141 0
10309 -12142 0
10309 -12143 0
10309 -12144 0
12146 -12056 -1214 0
-12146 12056 0
-12146 1214 0
12147 -1212 -1214 0
-12147 1212 0
-12147 1214 0
12148 -1212 -12092 0
-12148 1212 0
-12148 12092 0
12149 -12056 -12092 -1215 0
-12149 12056 0
-12149 12092 0
-12149 1215 0
-10372 1208 12146 12147 12148 12149 0
10372 -1208 0
10372 -12146 0
10372 -12147 0
10372 -12148 0
10372 -12149 0
12150 -12056 -12095 0
-12150 12056 0
-12150 12095 0
12151 -1212 -12097 0
-12151 1212 0
-12151 12097 0
12152 -1212 -12095 0
-12152 1212 0
-12152 12095 0
12153 -12056 -12097 -1215 0
-12153 12056 0
-12153 12097 0
-12153 1215 0
-10377 12154 12150 12151 12152 12153 0
10377 -12154 0
10377 -12150 0
10377 -12151 0
10377 -12152 0
10377 -12153 0
12155 -12061 -12095 0
-12155 12061 0
-12155 12095 0
12156 -12059 -12095 0
-12156 12059 0
-12156 12095 0
12157 -12059 -12097 0
-12157 12059 0
-12157 12097 0
12158 -12061 -12097 -1215 0
-12158 12061 0
-12158 12097 0
-12158 1215 0
-10382 12159 12155 12156 12157 12158 0
10382 -12159 0
10382 -12155 0
10382 -12156 0
10382 -12157 0
10382 -12158 0
12160 -12056 -1220 0
-12160 12056 0
-12160 1220 0
12161 -1212 -1220 0
-12161 1212 0
-12161 1220 0
12162 -1212 -12109 0
-12162 1212 0
-12162 12109 0
12163 -12056 -12109 -1215 0
-12163 12056 0
-12163 12109 0
-12163 1215 0
-10387 1217 12160 12161 12162 12163 0
10387 -1217 0
10387 -12160 0
10387 -12161 0
10387 -12162 0
10387 -12163 0
12164 -12056 -12112 0
-12164 12056 0
-12164 12112 0
12165 -1212 -12114 0
-12165 1212 0
-12165 12114 0
12166 -1212 -12112 0
-12166 1212 0
-12166 12112 0
12167 -12056 -12114 -1215 0
-12167 12056 0
-12167 12114 0
-12167 1215 0
-10392 12168 12164 12165 12166 12167 0
10392 -12168 0
10392 -12164 0
10392 -12165 0
10392 -12166 0
10392 -12167 0
12169 -12061 -12112 0
-12169 12061 0
-12169 12112 0
12170 -12059 -12112 0
-12170 12059 0
-12170 12112 0
12171 -12059 -12114 0
-12171 12059 0
-12171 12114 0
12172 -12061 -12114 -1215 0
-12172 12061 0
-12172 12114 0
-12172 1215 0
-10397 12173 12169 12170 12171 12172 0
10397 -12173 0
10397 -12169 0
10397 -12170 0
10397 -12171 0
10397 -12172 0
12174 -12075 -12068 0
-12174 12075 0
-12174 12068 0
12175 -1213 -12066 0
-12175 1213 0
-12175 12066 0
12176 -1213 -12068 0
-12176 1213 0
-12176 12068 0
12177 -12075 -12066 -1215 0
-12177 12075 0
-12177 12066 0
-12177 1215 0
-10316 12178 12174 12175 12176 12177 0
10316 -12178 0
10316 -12174 0
10316 -12175 0
10316 -12176 0
10316 -12177 0
12179 -12075 -12059 0
-12179 12075 0
-12179 12059 0
12180 -1213 -12061 0
-12180 1213 0
-12180 12061 0
12181 -1213 -12059 0
-12181 1213 0
-12181 12059 0
12182 -12075 -12061 -1215 0
-12182 12075 0
-12182 12061 0
-12182 1215 0
-10307 12183 12179 12180 12181 12182 0
10307 -12183 0
10307 -12179 0
10307 -12180 0
10307 -12181 0
10307 -12182 0
12184 -12075 -1213 0
-12184 12075 0
-12184 1213 0
12185 -1213 -1213 0
-12185 1213 0
-12185 1213 0
12186 -1213 -12075 0
-12186 1213 0
-12186 12075 0
12187 -12075 -12075 -1215 0
-12187 12075 0
-12187 12075 0
-12187 1215 0
-10297 1206 12184 12185 12186 12187 0
10297 -1206 0
10297 -12184 0
10297 -12185 0
10297 -12186 0
10297 -12187 0
12188 -12075 -1214 0
-12188 12075 0
-12188 1214 0
12189 -1213 -1214 0
-12189 1213 0
-12189 1214 0
12190 -1213 -12092 0
-12190 1213 0
-12190 12092 0
12191 -12075 -12092 -1215 0
-12191 12075 0
-12191 12092 0
-12191 1215 0
-10321 1209 12188 12189 12190 12191 0
10321 -1209 0
10321 -12188 0
10321 -12189 0
10321 -12190 0
10321 -12191 0
12192 -12075 -12095 0
-12192 12075 0
-12192 12095 0
12193 -1213 -12097 0
-12193 1213 0
-12193 12097 0
12194 -1213 -12095 0
-12194 1213 0
-12194 12095 0
12195 -12075 -12097 -1215 0
-12195 12075 0
-12195 12097 0
-12195 1215 0
-10328 12196 12192 12193 12194 12195 0
10328 -12196 0
10328 -12192 0
10328 -12193 0
10328 -12194 0
10328 -12195 0
12197 -12080 -12095 0
-12197 12080 0
-12197 12095 0
12198 -12078 -12095 0
-12198 12078 0
-12198 12095 0
12199 -12078 -12097 0
-12199 12078 0
-12199 12097 0
12200 -12080 -12097 -1215 0
-12200 12080 0
-12200 12097 0
-12200 1215 0
-10330 12201 12197 12198 12199 12200 0
10330 -12201 0
10330 -12197 0
10330 -12198 0
10330 -12199 0
10330 -12200 0
12202 -12075 -1220 0
-12202 12075 0
-12202 1220 0
12203 -1213 -1220 0
-12203 1213 0
-12203 1220 0
12204 -1213 -12109 0
-12204 1213 0
-12204 12109 0
12205 -12075 -12109 -1215 0
-12205 12075 0
-12205 12109 0
-12205 1215 0
-10340 1218 12202 12203 12204 12205 0
10340 -1218 0
10340 -12202 0
10340 -12203 0
10340 -12204 0
10340 -12205 0
12206 -12075 -12112 0
-12206 12075 0
-12206 12112 0
12207 -1213 -12114 0
-12207 1213 0
-12207 12114 0
12208 -1213 -12112 0
-12208 1213 0
-12208 12112 0
12209 -12075 -12114 -1215 0
-12209 12075 0
-12209 12114 0
-12209 1215 0
-10347 12210 12206 12207 12208 12209 0
10347 -12210 0
10347 -12206 0
10347 -12207 0
10347 -12208 0
10347 -12209 0
12211 -12080 -12112 0
-12211 12080 0
-12211 12112 0
12212 -12078 -12112 0
-12212 12078 0
-12212 12112 0
12213 -12078 -12114 0
-12213 12078 0
-12213 12114 0
12214 -12080 -12114 -1215 0
-12214 12080 0
-12214 12114 0
-12214 1215 0
-10349 12215 12211 12212 12213 12214 0
10349 -12215 0
10349 -12211 0
10349 -12212 0
10349 -12213 0
10349 -12214 0
12216 -12092 -12068 0
-12216 12092 0
-12216 12068 0
12217 -1214 -12066 0
-12217 1214 0
-12217 12066 0
12218 -1214 -12068 0
-12218 1214 0
-12218 12068 0
12219 -12092 -12066 -1215 0
-12219 12092 0
-12219 12066 0
-12219 1215 0
-10402 12220 12216 12217 12218 12219 0
10402 -12220 0
10402 -12216 0
10402 -12217 0
10402 -12218 0
10402 -12219 0
12221 -12092 -12059 0
-12221 12092 0
-12221 12059 0
12222 -1214 -12061 0
-12222 1214 0
-12222 12061 0
12223 -1214 -12059 0
-12223 1214 0
-12223 12059 0
12224 -12092 -12061 -1215 0
-12224 12092 0
-12224 12061 0
-12224 1215 0
-10407 12225 12221 12222 12223 12224 0
10407 -12225 0
10407 -12221 0
10407 -12222 0
10407 -12223 0
10407 -12224 0
12226 -12092 -12078 0
-12226 12092 0
-12226 12078 0
12227 -1214 -12080 0
-12227 1214 0
-12227 12080 0
12228 -1214 -12078 0
-12228 1214 0
-12228 12078 0
12229 -12092 -12080 -1215 0
-12229 12092 0
-12229 12080 0
-12229 1215 0
-10324 12230 12226 12227 12228 12229 0
10324 -12230 0
10324 -12226 0
10324 -12227 0
10324 -12228 0
10324 -12229 0
12231 -12092 -1214 0
-12231 12092 0
-12231 1214 0
12232 -1214 -1214 0
-12232 1214 0
-12232 1214 0
12233 -1214 -12092 0
-12233 1214 0
-12233 12092 0
12234 -12092 -12092 -1215 0
-12234 12092 0
-12234 12092 0
-12234 1215 0
-10412 1210 12231 12232 12233 12234 0
10412 -1210 0
10412 -12231 0
10412 -12232 0
10412 -12233 0
10412 -12234 0
12235 -12092 -1220 0
-12235 12092 0
-12235 1220 0
12236 -1214 -1220 0
-12236 1214 0
-12236 1220 0
12237 -1214 -12109 0
-12237 1214 0
-12237 12109 0
12238 -12092 -12109 -1215 0
-12238 12092 0
-12238 12109 0
-12238 1215 0
-10417 1219 12235 12236 12237 12238 0
10417 -1219 0
10417 -12235 0
10417 -12236 0
10417 -12237 0
10417 -12238 0
12239 -12092 -12112 0
-12239 12092 0
-12239 12112 0
12240 -1214 -12114 0
-12240 1214 0
-12240 12114 0
12241 -1214 -12112 0
-12241 1214 0
-12241 12112 0
12242 -12092 -12114 -1215 0
-12242 12092 0
-12242 12114 0
-12242 1215 0
-10422 12243 12239 12240 12241 12242 0
10422 -12243 0
10422 -12239 0
10422 -12240 0
10422 -12241 0
10422 -12242 0
12244 -12097 -12112 0
-12244 12097 0
-12244 12112 0
12245 -12095 -12112 0
-12245 12095 0
-12245 12112 0
12246 -12095 -12114 0
-12246 12095 0
-12246 12114 0
12247 -12097 -12114 -1215 0
-12247 12097 0
-12247 12114 0
-12247 1215 0
-10427 12248 12244 12245 12246 12247 0
10427 -12248 0
10427 -12244 0
10427 -12245 0
10427 -12246 0
10427 -12247 0
12249 -12109 -12068 0
-12249 12109 0
-12249 12068 0
12250 -1220 -12066 0
-12250 1220 0
-12250 12066 0
12251 -1220 -12068 0
-12251 1220 0
-12251 12068 0
12252 -12109 -12066 -1215 0
-12252 12109 0
-12252 12066 0
-12252 1215 0
-10432 12253 12249 12250 12251 12252 0
10432 -12253 0
10432 -12249 0
10432 -12250 0
10432 -12251 0
10432 -12252 0
12254 -12109 -12059 0
-12254 12109 0
-12254 12059 0
12255 -1220 -12061 0
-12255 1220 0
-12255 12061 0
12256 -1220 -12059 0
-12256 1220 0
-12256 12059 0
12257 -12109 -12061 -1215 0
-12257 12109 0
-12257 12061 0
-12257 1215 0
-10437 12258 12254 12255 12256 12257 0
10437 -12258 0
10437 -12254 0
10437 -12255 0
10437 -12256 0
10437 -12257 0
12259 -12109 -12078 0
-12259 12109 0
-12259 12078 0
12260 -1220 -12080 0
-12260 1220 0
-12260 12080 0
12261 -1220 -12078 0
-12261 1220 0
-12261 12078 0
12262 -12109 -12080 -1215 0
-12262 12109 0
-12262 12080 0
-12262 1215 0
-10343 12263 12259 12260 12261 12262 0
10343 -12263 0
10343 -12259 0
10343 -12260 0
10343 -12261 0
10343 -12262 0
12264 -12109 -12095 0
-12264 12109 0
-12264 12095 0
12265 -1220 -12097 0
-12265 1220 0
-12265 12097 0
12266 -1220 -12095 0
-12266 1220 0
-12266 12095 0
12267 -12109 -12097 -1215 0
-12267 12109 0
-12267 12097 0
-12267 1215 0
-10442 12268 12264 12265 12266 12267 0
10442 -12268 0
10442 -12264 0
10442 -12265 0
10442 -12266 0
10442 -12267 0
12269 -12109 -1220 0
-12269 12109 0
-12269 1220 0
12270 -1220 -1220 0
-12270 1220 0
-12270 1220 0
12271 -1220 -12109 0
-12271 1220 0
-12271 12109 0
12272 -12109 -12109 -1215 0
-12272 12109 0
-12272 12109 0
-12272 1215 0
-10447 1221 12269 12270 12271 12272 0
10447 -1221 0
10447 -12269 0
10447 -12270 0
10447 -12271 0
10447 -12272 0
12273 -12117 -12117 0
-12273 12117 0
-12273 12117 0
-10450 1201 12273 0
10450 -1201 0
10450 -12273 0
12274 -12117 -12168 0
-12274 12117 0
-12274 12168 0
-10453 1202 12274 0
10453 -1202 0
10453 -12274 0
12275 -12117 -12173 0
-12275 12117 0
-12275 12173 0
-10456 12064 12275 0
10456 -12064 0
10456 -12275 0
12276 -12122 -12173 0
-12276 12122 0
-12276 12173 0
-10459 12071 12276 0
10459 -12071 0
10459 -12276 0
12277 -12117 -12210 0
-12277 12117 0
-12277 12210 0
-10462 1204 12277 0
10462 -1204 0
10462 -12277 0
12278 -12117 -12215 0
-12278 12117 0
-12278 12215 0
-10465 12083 12278 0
10465 -12083 0
10465 -12278 0
12279 -12122 -12215 0
-12279 12122 0
-12279 12215 0
-10467 12088 12279 0
10467 -12088 0
10467 -12279 0
12280 -12117 -12243 0
-12280 12117 0
-12280 12243 0
-10814 1207 12280 0
10814 -1207 0
10814 -12280 0
12281 -12117 -12248 0
-12281 12117 0
-12281 12248 0
-10449 12100 12281 0
10449 -12100 0
10449 -12281 0
12282 -12122 -12248 0
-12282 12122 0
-12282 12248 0
-10458 12105 12282 0
10458 -12105 0
10458 -12282 0
12283 -12117 -12112 0
-12283 12117 0
-12283 12112 0
-10470 1211 12283 0
10470 -1211 0
10470 -12283 0
12284 -12117 -12114 0
-12284 12117 0
-12284 12114 0
-10473 12049 12284 0
10473 -12049 0
10473 -12284 0
12285 -12122 -12114 0
-12285 12122 0
-12285 12114 0
-10475 12066 12285 0
10475 -12066 0
10475 -12285 0
12286 -12168 -12122 0
-12286 12168 0
-12286 12122 0
-10477 12127 12286 0
10477 -12127 0
10477 -12286 0
12287 -12168 -12168 0
-12287 12168 0
-12287 12168 0
-10479 1203 12287 0
10479 -1203 0
10479 -12287 0
12288 -12168 -12210 0
-12288 12168 0
-12288 12210 0
-10481 1205 12288 0
10481 -1205 0
10481 -12288 0
12289 -12168 -12215 0
-12289 12168 0
-12289 12215 0
-10483 12140 12289 0
10483 -12140 0
10483 -12289 0
12290 -12173 -12215 0
-12290 12173 0
-12290 12215 0
-10485 12145 12290 0
10485 -12145 0
10485 -12290 0
12291 -12168 -12243 0
-12291 12168 0
-12291 12243 0
-10847 1208 12291 0
10847 -1208 0
10847 -12291 0
12292 -12168 -12248 0
-12292 12168 0
-12292 12248 0
-10452 12154 12292 0
10452 -12154 0
10452 -12292 0
12293 -12173 -12248 0
-12293 12173 0
-12293 12248 0
-10455 12159 12293 0
10455 -12159 0
10455 -12293 0
12294 -12168 -12112 0
-12294 12168 0
-12294 12112 0
-10487 1212 12294 0
10487 -1212 0
10487 -12294 0
12295 -12168 -12114 0
-12295 12168 0
-12295 12114 0
-10489 12056 12295 0
10489 -12056 0
10489 -12295 0
12296 -12173 -12114 0
-12296 12173 0
-12296 12114 0
-10491 12061 12296 0
10491 -12061 0
10491 -12296 0
12297 -12210 -12122 0
-12297 12210 0
-12297 12122 0
-10493 12178 12297 0
10493 -12178 0
10493 -12297 0
12298 -12210 -12173 0
-12298 12210 0
-12298 12173 0
-10495 12183 12298 0
10495 -12183 0
10495 -12298 0
12299 -12210 -12210 0
-12299 12210 0
-12299 12210 0
-10497 1206 12299 0
10497 -1206 0
10497 -12299 0
12300 -12210 -12243 0
-12300 12210 0
-12300 12243 0
-10872 1209 12300 0
10872 -1209 0
10872 -12300 0
12301 -12210 -12248 0
-12301 12210 0
-12301 12248 0
-10461 12196 12301 0
10461 -12196 0
10461 -12301 0
12302 -12215 -12248 0
-12302 12215 0
-12302 12248 0
-10464 12201 12302 0
10464 -12201 0
10464 -12302 0
12303 -12210 -12112 0
-12303 12210 0
-12303 12112 0
-10499 1213 12303 0
10499 -1213 0
10499 -12303 0
12304 -12210 -12114 0
-12304 12210 0
-12304 12114 0
-10501 12075 12304 0
10501 -12075 0
10501 -12304 0
12305 -12215 -12114 0
-12305 12215 0
-12305 12114 0
-10503 12080 12305 0
10503 -12080 0
10503 -12305 0
12306 -12243 -12122 0
-12306 12243 0
-12306 12122 0
-10885 12220 12306 0
10885 -12220 0
10885 -12306 0
12307 -12243 -12173 0
-12307 12243 0
-12307 12173 0
-10890 12225 12307 0
10890 -12225 0
10890 -12307 0
12308 -12243 -12215 0
-12308 12243 0
-12308 12215 0
-10895 12230 12308 0
10895 -12230 0
10895 -12308 0
12309 -12243 -12243 0
-12309 12243 0
-12309 12243 0
-10900 1210 12309 0
10900 -1210 0
10900 -12309 0
12310 -12243 -12112 0
-12310 12243 0
-12310 12112 0
-10809 1214 12310 0
10809 -1214 0
10809 -12310 0
12311 -12243 -12114 0
-12311 12243 0
-12311 12114 0
-10812 12092 12311 0
10812 -12092 0
10812 -12311 0
12312 -12248 -12114 0
-12312 12248 0
-12312 12114 0
-10472 12097 12312 0
10472 -12097 0
10472 -12312 0
12313 -12112 -12122 0
-12313 12112 0
-12313 12122 0
-10505 12068 12313 0
10505 -12068 0
10505 -12313 0
12314 -12112 -12173 0
-12314 12112 0
-12314 12173 0
-10507 12059 12314 0
10507 -12059 0
10507 -12314 0
12315 -12112 -12215 0
-12315 12112 0
-12315 12215 0
-10509 12078 12315 0
10509 -12078 0
10509 -12315 0
12316 -12112 -12248 0
-12316 12112 0
-12316 12248 0
-10469 12095 12316 0
10469 -12095 0
10469 -12316 0
12317 -12112 -12112 0
-12317 12112 0
-12317 12112 0
-10511 1215 12317 0
10511 -1215 0
10511 -12317 0
12318 -12049 -12049 0
-12318 12049 0
-12318 12049 0
-10936 1201 12318 0
10936 -1201 0
10936 -12318 0
12319 -12049 -12056 0
-12319 12049 0
-12319 12056 0
-10943 1202 12319 0
10943 -1202 0
10943 -12319 0
12320 -12049 -12061 0
-12320 12049 0
-12320 12061 0
-10950 12064 12320 0
10950 -12064 0
10950 -12320 0
12321 -12066 -12061 0
-12321 12066 0
-12321 12061 0
-10957 12071 12321 0
10957 -12071 0
10957 -12321 0
12322 -12049 -12075 0
-12322 12049 0
-12322 12075 0
-10931 1204 12322 0
10931 -1204 0
10931 -12322 0
12323 -12049 -12080 0
-12323 12049 0
-12323 12080 0
-10930 12083 12323 0
10930 -12083 0
10930 -12323 0
12324 -12066 -12080 0
-12324 12066 0
-12324 12080 0
-10952 12088 12324 0
10952 -12088 0
10952 -12324 0
12325 -12049 -12092 0
-12325 12049 0
-12325 12092 0
-10964 1207 12325 0
10964 -1207 0
10964 -12325 0
12326 -12049 -12097 0
-12326 12049 0
-12326 12097 0
-10971 12100 12326 0
10971 -12100 0
10971 -12326 0
12327 -12066 -12097 0
-12327 12066 0
-12327 12097 0
-10976 12105 12327 0
10976 -12105 0
10976 -12327 0
12328 -12049 -12109 0
-12328 12049 0
-12328 12109 0
-10983 1216 12328 0
10983 -1216 0
10983 -12328 0
12329 -12049 -12114 0
-12329 12049 0
-12329 12114 0
-10990 12117 12329 0
10990 -12117 0
10990 -12329 0
12330 -12066 -12114 0
-12330 12066 0
-12330 12114 0
-10995 12122 12330 0
10995 -12122 0
10995 -12330 0
12331 -12056 -12066 0
-12331 12056 0
-12331 12066 0
-11000 12127 12331 0
11000 -12127 0
11000 -12331 0
12332 -12056 -12056 0
-12332 12056 0
-12332 12056 0
-11005 1203 12332 0
11005 -1203 0
11005 -12332 0
12333 -12056 -12075 0
-12333 12056 0
-12333 12075 0
-10938 1205 12333 0
10938 -1205 0
10938 -12333 0
12334 -12056 -12080 0
-12334 12056 0
-12334 12080 0
-10941 12140 12334 0
10941 -12140 0
10941 -12334 0
12335 -12061 -12080 0
-12335 12061 0
-12335 12080 0
-10947 12145 12335 0
10947 -12145 0
10947 -12335 0
12336 -12056 -12092 0
-12336 12056 0
-12336 12092 0
-11010 1208 12336 0
11010 -1208 0
11010 -12336 0
12337 -12056 -12097 0
-12337 12056 0
-12337 12097 0
-11015 12154 12337 0
11015 -12154 0
11015 -12337 0
12338 -12061 -12097 0
-12338 12061 0
-12338 12097 0
-11020 12159 12338 0
11020 -12159 0
11020 -12338 0
12339 -12056 -12109 0
-12339 12056 0
-12339 12109 0
-11025 1217 12339 0
11025 -1217 0
11025 -12339 0
12340 -12056 -12114 0
-12340 12056 0
-12340 12114 0
-11030 12168 12340 0
11030 -12168 0
11030 -12340 0
12341 -12061 -12114 0
-12341 12061 0
-12341 12114 0
-11035 12173 12341 0
11035 -12173 0
11035 -12341 0
12342 -12075 -12066 0
-12342 12075 0
-12342 12066 0
-10954 12178 12342 0
10954 -12178 0
10954 -12342 0
12343 -12075 -12061 0
-12343 12075 0
-12343 12061 0
-10945 12183 12343 0
10945 -12183 0
10945 -12343 0
12344 -12075 -12075 0
-12344 12075 0
-12344 12075 0
-10935 1206 12344 0
10935 -1206 0
10935 -12344 0
12345 -12075 -12092 0
-12345 12075 0
-12345 12092 0
-10959 1209 12345 0
10959 -1209 0
10959 -12345 0
12346 -12075 -12097 0
-12346 12075 0
-12346 12097 0
-10966 12196 12346 0
10966 -12196 0
10966 -12346 0
12347 -12080 -12097 0
-12347 12080 0
-12347 12097 0
-10968 12201 12347 0
10968 -12201 0
10968 -12347 0
12348 -12075 -12109 0
-12348 12075 0
-12348 12109 0
-10978 1218 12348 0
10978 -1218 0
10978 -12348 0
12349 -12075 -12114 0
-12349 12075 0
-12349 12114 0
-10985 12210 12349 0
10985 -12210 0
10985 -12349 0
12350 -12080 -12114 0
-12350 12080 0
-12350 12114 0
-10987 12215 12350 0
10987 -12215 0
10987 -12350 0
12351 -12092 -12066 0
-12351 12092 0
-12351 12066 0
-11040 12220 12351 0
11040 -12220 0
11040 -12351 0
12352 -12092 -12061 0
-12352 12092 0
-12352 12061 0
-11045 12225 12352 0
11045 -12225 0
11045 -12352 0
12353 -12092 -12080 0
-12353 12092 0
-12353 12080 0
-10962 12230 12353 0
10962 -12230 0
10962 -12353 0
12354 -12092 -12092 0
-12354 12092 0
-12354 12092 0
-11050 1210 12354 0
11050 -1210 0
11050 -12354 0
12355 -12092 -12109 0
-12355 12092 0
-12355 12109 0
-11055 1219 12355 0
11055 -1219 0
11055 -12355 0
12356 -12092 -12114 0
-12356 12092 0
-12356 12114 0
-11060 12243 12356 0
11060 -12243 0
11060 -12356 0
12357 -12097 -12114 0
-12357 12097 0
-12357 12114 0
-11065 12248 12357 0
11065 -12248 0
11065 -12357 0
12358 -12109 -12066 0
-12358 12109 0
-12358 12066 0
-11070 12253 12358 0
11070 -12253 0
11070 -12358 0
12359 -12109 -12061 0
-12359 12109 0
-12359 12061 0
-11075 12258 12359 0
11075 -12258 0
11075 -12359 0
12360 -12109 -12080 0
-12360 12109 0
-12360 12080 0
-10981 12263 12360 0
10981 -12263 0
10981 -12360 0
12361 -12109 -12097 0
-12361 12109 0
-12361 12097 0
-11080 12268 12361 0
11080 -12268 0
11080 -12361 0
12362 -12109 -12109 0
-12362 12109 0
-12362 12109 0
-11085 1221 12362 0
11085 -1221 0
11085 -12362 0
12363 -12117 -1216 0
-12363 12117 0
-12363 1216 0
12364 -1216 -1216 0
-12364 1216 0
-12364 1216 0
12365 -1216 -12117 0
-12365 1216 0
-12365 12117 0
12366 -12117 -12117 -1221 0
-12366 12117 0
-12366 12117 0
-12366 1221 0
-10113 1201 12363 12364 12365 12366 0
10113 -1201 0
10113 -12363 0
10113 -12364 0
10113 -12365 0
10113 -12366 0
12367 -12117 -1217 0
-12367 12117 0
-12367 1217 0
12368 -1216 -1217 0
-12368 1216 0
-12368 1217 0
12369 -1216 -12168 0
-12369 1216 0
-12369 12168 0
12370 -12117 -12168 -1221 0
-12370 12117 0
-12370 12168 0
-12370 1221 0
-10120 1202 12367 12368 12369 12370 0
10120 -1202 0
10120 -12367 0
10120 -12368 0
10120 -12369 0
10120 -12370 0
12371 -12117 -12258 0
-12371 12117 0
-12371 12258 0
12372 -1216 -12173 0
-12372 1216 0
-12372 12173 0
12373 -1216 -12258 0
-12373 1216 0
-12373 12258 0
12374 -12117 -12173 -1221 0
-12374 12117 0
-12374 12173 0
-12374 1221 0
-10127 12064 12371 12372 12373 12374 0
10127 -12064 0
10127 -12371 0
10127 -12372 0
10127 -12373 0
10127 -12374 0
12375 -12122 -12258 0
-12375 12122 0
-12375 12258 0
12376 -12253 -12258 0
-12376 12253 0
-12376 12258 0
12377 -12253 -12173 0
-12377 12253 0
-12377 12173 0
12378 -12122 -12173 -1221 0
-12378 12122 0
-12378 12173 0
-12378 1221 0
-10134 12071 12375 12376 12377 12378 0
10134 -12071 0
10134 -12375 0
10134 -12376 0
10134 -12377 0
10134 -12378 0
12379 -12117 -1218 0
-12379 12117 0
-12379 1218 0
12380 -1216 -1218 0
-12380 1216 0
-12380 1218 0
12381 -1216 -12210 0
-12381 1216 0
-12381 12210 0
12382 -12117 -12210 -1221 0
-12382 12117 0
-12382 12210 0
-12382 1221 0
-10141 1204 12379 12380 12381 12382 0
10141 -1204 0
10141 -12379 0
10141 -12380 0
10141 -12381 0
10141 -12382 0
12383 -12117 -12263 0
-12383 12117 0
-12383 12263 0
12384 -1216 -12215 0
-12384 1216 0
-12384 12215 0
12385 -1216 -12263 0
-12385 1216 0
-12385 12263 0
12386 -12117 -12215 -1221 0
-12386 12117 0
-12386 12215 0
-12386 1221 0
-10148 12083 12383 12384 12385 12386 0
10148 -12083 0
10148 -12383 0
10148 -12384 0
10148 -12385 0
10148 -12386 0
12387 -12122 -12263 0
-12387 12122 0
-12387 12263 0
12388 -12253 -12263 0
-12388 12253 0
-12388 12263 0
12389 -12253 -12215 0
-12389 12253 0
-12389 12215 0
12390 -12122 -12215 -1221 0
-12390 12122 0
-12390 12215 0
-12390 1221 0
-10153 12088 12387 12388 12389 12390 0
10153 -12088 0
10153 -12387 0
10153 -12388 0
10153 -12389 0
10153 -12390 0
12391 -12117 -1219 0
-12391 12117 0
-12391 1219 0
12392 -1216 -1219 0
-12392 1216 0
-12392 1219 0
12393 -1216 -12243 0
-12393 1216 0
-12393 12243 0
12394 -12117 -12243 -1221 0
-12394 12117 0
-12394 12243 0
-12394 1221 0
-10108 1207 12391 12392 12393 12394 0
10108 -1207 0
10108 -12391 0
10108 -12392 0
10108 -12393 0
10108 -12394 0
12395 -12117 -12268 0
-12395 12117 0
-12395 12268 0
12396 -1216 -12248 0
-12396 1216 0
-12396 12248 0
12397 -1216 -12268 0
-12397 1216 0
-12397 12268 0
12398 -12117 -12248 -1221 0
-12398 12117 0
-12398 12248 0
-12398 1221 0
-10107 12100 12395 12396 12397 12398 0
10107 -12100 0
10107 -12395 0
10107 -12396 0
10107 -12397 0
10107 -12398 0
12399 -12122 -12268 0
-12399 12122 0
-12399 12268 0
12400 -12253 -12268 0
-12400 12253 0
-12400 12268 0
12401 -12253 -12248 0
-12401 12253 0
-12401 12248 0
12402 -12122 -12248 -1221 0
-12402 12122 0
-12402 12248 0
-12402 1221 0
-10129 12105 12399 12400 12401 12402 0
10129 -12105 0
10129 -12399 0
10129 -12400 0
10129 -12401 0
10129 -12402 0
12403 -12117 -1220 0
-12403 12117 0
-12403 1220 0
12404 -1216 -1220 0
-12404 1216 0
-12404 1220 0
12405 -1216 -12112 0
-12405 1216 0
-12405 12112 0
12406 -12117 -12112 -1221 0
-12406 12117 0
-12406 12112 0
-12406 1221 0
-10160 1211 12403 12404 12405 12406 0
10160 -1211 0
10160 -12403 0
10160 -12404 0
10160 -12405 0
10160 -12406 0
12407 -12117 -12109 0
-12407 12117 0
-12407 12109 0
12408 -1216 -12114 0
-12408 1216 0
-12408 12114 0
12409 -1216 -12109 0
-12409 1216 0
-12409 12109 0
12410 -12117 -12114 -1221 0
-12410 12117 0
-12410 12114 0
-12410 1221 0
-10167 12049 12407 12408 12409 12410 0
10167 -12049 0
10167 -12407 0
10167 -12408 0
10167 -12409 0
10167 -12410 0
12411 -12122 -12109 0
-12411 12122 0
-12411 12109 0
12412 -12253 -12109 0
-12412 12253 0
-12412 12109 0
12413 -12253 -12114 0
-12413 12253 0
-12413 12114 0
12414 -12122 -12114 -1221 0
-12414 12122 0
-12414 12114 0
-12414 1221 0
-10172 12066 12411 12412 12413 12414 0
10172 -12066 0
10172 -12411 0
10172 -12412 0
10172 -12413 0
10172 -12414 0
12415 -12168 -12253 0
-12415 12168 0
-12415 12253 0
12416 -1217 -12122 0
-12416 1217 0
-12416 12122 0
12417 -1217 -12253 0
-12417 1217 0
-12417 12253 0
12418 -12168 -12122 -1221 0
-12418 12168 0
-12418 12122 0
-12418 1221 0
-10177 12127 12415 12416 12417 12418 0
10177 -12127 0
10177 -12415 0
10177 -12416 0
10177 -12417 0
10177 -12418 0
12419 -12168 -1217 0
-12419 12168 0
-12419 1217 0
12420 -1217 -1217 0
-12420 1217 0
-12420 1217 0
12421 -1217 -12168 0
-12421 1217 0
-12421 12168 0
12422 -12168 -12168 -1221 0
-12422 12168 0
-12422 12168 0
-12422 1221 0
-10182 1203 12419 12420 12421 12422 0
10182 -1203 0
10182 -12419 0
10182 -12420 0
10182 -12421 0
10182 -12422 0
12423 -12168 -1218 0
-12423 12168 0
-12423 1218 0
12424 -1217 -1218 0
-12424 1217 0
-12424 1218 0
12425 -1217 -12210 0
-12425 1217 0
-12425 12210 0
12426 -12168 -12210 -1221 0
-12426 12168 0
-12426 12210 0
-12426 1221 0
-10187 1205 12423 12424 12425 12426 0
10187 -1205 0
10187 -12423 0
10187 -12424 0
10187 -12425 0
10187 -12426 0
12427 -12168 -12263 0
-12427 12168 0
-12427 12263 0
12428 -1217 -12215 0
-12428 1217 0
-12428 12215 0
12429 -1217 -12263 0
-12429 1217 0
-12429 12263 0
12430 -12168 -12215 -1221 0
-12430 12168 0
-12430 12215 0
-12430 1221 0
-10192 12140 12427 12428 12429 12430 0
10192 -12140 0
10192 -12427 0
10192 -12428 0
10192 -12429 0
10192 -12430 0
12431 -12173 -12263 0
-12431 12173 0
-12431 12263 0
12432 -12258 -12263 0
-12432 12258 0
-12432 12263 0
12433 -12258 -12215 0
-12433 12258 0
-12433 12215 0
12434 -12173 -12215 -1221 0
-12434 12173 0
-12434 12215 0
-12434 1221 0
-10197 12145 12431 12432 12433 12434 0
10197 -12145 0
10197 -12431 0
10197 -12432 0
10197 -12433 0
10197 -12434 0
12435 -12168 -1219 0
-12435 12168 0
-12435 1219 0
12436 -1217 -1219 0
-12436 1217 0
-12436 1219 0
12437 -1217 -12243 0
-12437 1217 0
-12437 12243 0
12438 -12168 -12243 -1221 0
-12438 12168 0
-12438 12243 0
-12438 1221 0
-10115 1208 12435 12436 12437 12438 0
10115 -1208 0
10115 -12435 0
10115 -12436 0
10115 -12437 0
10115 -12438 0
12439 -12168 -12268 0
-12439 12168 0
-12439 12268 0
12440 -1217 -12248 0
-12440 1217 0
-12440 12248 0
12441 -1217 -12268 0
-12441 1217 0
-12441 12268 0
12442 -12168 -12248 -1221 0
-12442 12168 0
-12442 12248 0
-12442 1221 0
-10118 12154 12439 12440 12441 12442 0
10118 -12154 0
10118 -12439 0
10118 -12440 0
10118 -12441 0
10118 -12442 0
12443 -12173 -12268 0
-12443 12173 0
-12443 12268 0
12444 -12258 -12268 0
-12444 12258 0
-12444 12268 0
12445 -12258 -12248 0
-12445 12258 0
-12445 12248 0
12446 -12173 -12248 -1221 0
-12446 12173 0
-12446 12248 0
-12446 1221 0
-10124 12159 12443 12444 12445 12446 0
10124 -12159 0
10124 -12443 0
10124 -12444 0
10124 -12445 0
10124 -12446 0
12447 -12168 -1220 0
-12447 12168 0
-12447 1220 0
12448 -1217 -1220 0
-12448 1217 0
-12448 1220 0
12449 -1217 -12112 0
-12449 1217 0
-12449 12112 0
12450 -12168 -12112 -1221 0
-12450 12168 0
-12450 12112 0
-12450 1221 0
-10202 1212 12447 12448 12449 12450 0
10202 -1212 0
10202 -12447 0
10202 -12448 0
10202 -12449 0
10202 -12450 0
12451 -12168 -12109 0
-12451 12168 0
-12451 12109 0
12452 -1217 -12114 0
-12452 1217 0
-12452 12114 0
12453 -1217 -12109 0
-12453 1217 0
-12453 12109 0
12454 -12168 -12114 -1221 0
-12454 12168 0
-12454 12114 0
-12454 1221 0
-10207 12056 12451 12452 12453 12454 0
10207 -12056 0
10207 -12451 0
10207 -12452 0
10207 -12453 0
10207 -12454 0
12455 -12173 -12109 0
-12455 12173 0
-12455 12109 0
12456 -12258 -12109 0
-12456 12258 0
-12456 12109 0
12457 -12258 -12114 0
-12457 12258 0
-12457 12114 0
12458 -12173 -12114 -1221 0
-12458 12173 0
-12458 12114 0
-12458 1221 0
-10212 12061 12455 12456 12457 12458 0
10212 -12061 0
10212 -12455 0
10212 -12456 0
10212 -12457 0
10212 -12458 0
12459 -12210 -12253 0
-12459 12210 0
-12459 12253 0
12460 -1218 -12122 0
-12460 1218 0
-12460 12122 0
12461 -1218 -12253 0
-12461 1218 0
-12461 12253 0
12462 -12210 -12122 -1221 0
-12462 12210 0
-12462 12122 0
-12462 1221 0
-10217 12178 12459 12460 12461 12462 0
10217 -12178 0
10217 -12459 0
10217 -12460 0
10217 -12461 0
10217 -12462 0
12463 -12210 -12258 0
-12463 12210 0
-12463 12258 0
12464 -1218 -12173 0
-12464 1218 0
-12464 12173 0
12465 -1218 -12258 0
-12465 1218 0
-12465 12258 0
12466 -12210 -12173 -1221 0
-12466 12210 0
-12466 12173 0
-12466 1221 0
-10222 12183 12463 12464 12465 12466 0
10222 -12183 0
10222 -12463 0
10222 -12464 0
10222 -12465 0
10222 -12466 0
12467 -12210 -1218 0
-12467 12210 0
-12467 1218 0
12468 -1218 -1218 0
-12468 1218 0
-12468 1218 0
12469 -1218 -12210 0
-12469 1218 0
-12469 12210 0
12470 -12210 -12210 -1221 0
-12470 12210 0
-12470 12210 0
-12470 1221 0
-10227 1206 12467 12468 12469 12470 0
10227 -1206 0
10227 -12467 0
10227 -12468 0
10227 -12469 0
10227 -12470 0
12471 -12210 -1219 0
-12471 12210 0
-12471 1219 0
12472 -1218 -1219 0
-12472 1218 0
-12472 1219 0
12473 -1218 -12243 0
-12473 1218 0
-12473 12243 0
12474 -12210 -12243 -1221 0
-12474 12210 0
-12474 12243 0
-12474 1221 0
-10136 1209 12471 12472 12473 12474 0
10136 -1209 0
10136 -12471 0
10136 -12472 0
10136 -12473 0
10136 -12474 0
12475 -12210 -12268 0
-12475 12210 0
-12475 12268 0
12476 -1218 -12248 0
-12476 1218 0
-12476 12248 0
12477 -1218 -12268 0
-12477 1218 0
-12477 12268 0
12478 -12210 -12248 -1221 0
-12478 12210 0
-12478 12248 0
-12478 1221 0
-10139 12196 12475 12476 12477 12478 0
10139 -12196 0
10139 -12475 0
10139 -12476 0
10139 -12477 0
10139 -12478 0
12479 -12215 -12268 0
-12479 12215 0
-12479 12268 0
12480 -12263 -12268 0
-12480 12263 0
-12480 12268 0
12481 -12263 -12248 0
-12481 12263 0
-12481 12248 0
12482 -12215 -12248 -1221 0
-12482 12215 0
-12482 12248 0
-12482 1221 0
-10145 12201 12479 12480 12481 12482 0
10145 -12201 0
10145 -12479 0
10145 -12480 0
10145 -12481 0
10145 -12482 0
12483 -12210 -1220 0
-12483 12210 0
-12483 1220 0
12484 -1218 -1220 0
-12484 1218 0
-12484 1220 0
12485 -1218 -12112 0
-12485 1218 0
-12485 12112 0
12486 -12210 -12112 -1221 0
-12486 12210 0
-12486 12112 0
-12486 1221 0
-10232 1213 12483 12484 12485 12486 0
10232 -1213 0
10232 -12483 0
10232 -12484 0
10232 -12485 0
10232 -12486 0
12487 -12210 -12109 0
-12487 12210 0
-12487 12109 0
12488 -1218 -12114 0
-12488 1218 0
-12488 12114 0
12489 -1218 -12109 0
-12489 1218 0
-12489 12109 0
12490 -12210 -12114 -1221 0
-12490 12210 0
-12490 12114 0
-12490 1221 0
-10237 12075 12487 12488 12489 12490 0
10237 -12075 0
10237 -12487 0
10237 -12488 0
10237 -12489 0
10237 -12490 0
12491 -12215 -12109 0
-12491 12215 0
-12491 12109 0
12492 -12263 -12109 0
-12492 12263 0
-12492 12109 0
12493 -12263 -12114 0
-12493 12263 0
-12493 12114 0
12494 -12215 -12114 -1221 0
-12494 12215 0
-12494 12114 0
-12494 1221 0
-10242 12080 12491 12492 12493 12494 0
10242 -12080 0
10242 -12491 0
10242 -12492 0
10242 -12493 0
10242 -12494 0
12495 -12243 -12253 0
-12495 12243 0
-12495 12253 0
12496 -1219 -12122 0
-12496 1219 0
-12496 12122 0
12497 -1219 -12253 0
-12497 1219 0
-12497 12253 0
12498 -12243 -12122 -1221 0
-12498 12243 0
-12498 12122 0
-12498 1221 0
-10131 12220 12495 12496 12497 12498 0
10131 -12220 0
10131 -12495 0
10131 -12496 0
10131 -12497 0
10131 -12498 0
12499 -12243 -12258 0
-12499 12243 0
-12499 12258 0
12500 -1219 -12173 0
-12500 1219 0
-12500 12173 0
12501 -1219 -12258 0
-12501 1219 0
-12501 12258 0
12502 -12243 -12173 -1221 0
-12502 12243 0
-12502 12173 0
-12502 1221 0
-10122 12225 12499 12500 12501 12502 0
10122 -12225 0
10122 -12499 0
10122 -12500 0
10122 -12501 0
10122 -12502 0
12503 -12243 -12263 0
-12503 12243 0
-12503 12263 0
12504 -1219 -12215 0
-12504 1219 0
-12504 12215 0
12505 -1219 -12263 0
-12505 1219 0
-12505 12263 0
12506 -12243 -12215 -1221 0
-12506 12243 0
-12506 12215 0
-12506 1221 0
-10143 12230 12503 12504 12505 12506 0
10143 -12230 0
10143 -12503 0
10143 -12504 0
10143 -12505 0
10143 -12506 0
12507 -12243 -1219 0
-12507 12243 0
-12507 1219 0
12508 -1219 -1219 0
-12508 1219 0
-12508 1219 0
12509 -1219 -12243 0
-12509 1219 0
-12509 12243 0
12510 -12243 -12243 -1221 0
-12510 12243 0
-12510 12243 0
-12510 1221 0
-10112 1210 12507 12508 12509 12510 0
10112 -1210 0
10112 -12507 0
10112 -12508 0
10112 -12509 0
10112 -12510 0
12511 -12243 -1220 0
-12511 12243 0
-12511 1220 0
12512 -1219 -1220 0
-12512 1219 0
-12512 1220 0
12513 -1219 -12112 0
-12513 1219 0
-12513 12112 0
12514 -12243 -12112 -1221 0
-12514 12243 0
-12514 12112 0
-12514 1221 0
-10155 1214 12511 12512 12513 12514 0
10155 -1214 0
10155 -12511 0
10155 -12512 0
10155 -12513 0
10155 -12514 0
12515 -12243 -12109 0
-12515 12243 0
-12515 12109 0
12516 -1219 -12114 0
-12516 1219 0
-12516 12114 0
12517 -1219 -12109 0
-12517 1219 0
-12517 12109 0
12518 -12243 -12114 -1221 0
-12518 12243 0
-12518 12114 0
-12518 1221 0
-10162 12092 12515 12516 12517 12518 0
10162 -12092 0
10162 -12515 0
10162 -12516 0
10162 -12517 0
10162 -12518 0
12519 -12248 -12109 0
-12519 12248 0
-12519 12109 0
12520 -12268 -12109 0
-12520 12268 0
-12520 12109 0
12521 -12268 -12114 0
-12521 12268 0
-12521 12114 0
12522 -12248 -12114 -1221 0
-12522 12248 0
-12522 12114 0
-12522 1221 0
-10164 12097 12519 12520 12521 12522 0
10164 -12097 0
10164 -12519 0
10164 -12520 0
10164 -12521 0
10164 -12522 0
12523 -12112 -12253 0
-12523 12112 0
-12523 12253 0
12524 -1220 -12122 0
-12524 1220 0
-12524 12122 0
12525 -1220 -12253 0
-12525 1220 0
-12525 12253 0
12526 -12112 -12122 -1221 0
-12526 12112 0
-12526 12122 0
-12526 1221 0
-10247 12068 12523 12524 12525 12526 0
10247 -12068 0
10247 -12523 0
10247 -12524 0
10247 -12525 0
10247 -12526 0
12527 -12112 -12258 0
-12527 12112 0
-12527 12258 0
12528 -1220 -12173 0
-12528 1220 0
-12528 12173 0
12529 -1220 -12258 0
-12529 1220 0
-12529 12258 0
12530 -12112 -12173 -1221 0
-12530 12112 0
-12530 12173 0
-12530 1221 0
-10252 12059 12527 12528 12529 12530 0
10252 -12059 0
10252 -12527 0
10252 -12528 0
10252 -12529 0
10252 -12530 0
12531 -12112 -12263 0
-12531 12112 0
-12531 12263 0
12532 -1220 -12215 0
-12532 1220 0
-12532 12215 0
12533 -1220 -12263 0
-12533 1220 0
-12533 12263 0
12534 -12112 -12215 -1221 0
-12534 12112 0
-12534 12215 0
-12534 1221 0
-10257 12078 12531 12532 12533 12534 0
10257 -12078 0
10257 -12531 0
10257 -12532 0
10257 -12533 0
10257 -12534 0
12535 -12112 -12268 0
-12535 12112 0
-12535 12268 0
12536 -1220 -12248 0
-12536 1220 0
-12536 12248 0
12537 -1220 -12268 0
-12537 1220 0
-12537 12268 0
12538 -12112 -12248 -1221 0
-12538 12112 0
-12538 12248 0
-12538 1221 0
-10158 12095 12535 12536 12537 12538 0
10158 -12095 0
10158 -12535 0
10158 -12536 0
10158 -12537 0
10158 -12538 0
12539 -12112 -1220 0
-12539 12112 0
-12539 1220 0
12270 -1220 -1220 0
-12270 1220 0
-12270 1220 0
12540 -1220 -12112 0
-12540 1220 0
-12540 12112 0
12541 -12112 -12112 -1221 0
-12541 12112 0
-12541 12112 0
-12541 1221 0
-10262 1215 12539 12270 12540 12541 0
10262 -1215 0
10262 -12539 0
10262 -12270 0
10262 -12540 0
10262 -12541 0
12542 -12100 -12100 0
-12542 12100 0
-12542 12100 0
-11671 1201 12542 0
11671 -1201 0
11671 -12542 0
12543 -12100 -12154 0
-12543 12100 0
-12543 12154 0
-11674 1202 12543 0
11674 -1202 0
11674 -12543 0
12544 -12100 -12159 0
-12544 12100 0
-12544 12159 0
-11677 12064 12544 0
11677 -12064 0
11677 -12544 0
12545 -12105 -12159 0
-12545 12105 0
-12545 12159 0
-11680 12071 12545 0
11680 -12071 0
11680 -12545 0
12546 -12100 -12196 0
-12546 12100 0
-12546 12196 0
-11928 1204 12546 0
11928 -1204 0
11928 -12546 0
12547 -12100 -12201 0
-12547 12100 0
-12547 12201 0
-11670 12083 12547 0
11670 -12083 0
11670 -12547 0
12548 -12105 -12201 0
-12548 12105 0
-12548 12201 0
-11679 12088 12548 0
11679 -12088 0
11679 -12548 0
12549 -12100 -12095 0
-12549 12100 0
-12549 12095 0
-11683 1211 12549 0
11683 -1211 0
11683 -12549 0
12550 -12100 -12097 0
-12550 12100 0
-12550 12097 0
-11686 12049 12550 0
11686 -12049 0
11686 -12550 0
12551 -12105 -12097 0
-12551 12105 0
-12551 12097 0
-11688 12066 12551 0
11688 -12066 0
11688 -12551 0
12552 -12100 -12268 0
-12552 12100 0
-12552 12268 0
-11691 1216 12552 0
11691 -1216 0
11691 -12552 0
12553 -12100 -12248 0
-12553 12100 0
-12553 12248 0
-11694 12117 12553 0
11694 -12117 0
11694 -12553 0
12554 -12105 -12248 0
-12554 12105 0
-12554 12248 0
-11696 12122 12554 0
11696 -12122 0
11696 -12554 0
12555 -12154 -12105 0
-12555 12154 0
-12555 12105 0
-11698 12127 12555 0
11698 -12127 0
11698 -12555 0
12556 -12154 -12154 0
-12556 12154 0
-12556 12154 0
-11700 1203 12556 0
11700 -1203 0
11700 -12556 0
12557 -12154 -12196 0
-12557 12154 0
-12557 12196 0
-11934 1205 12557 0
11934 -1205 0
11934 -12557 0
12558 -12154 -12201 0
-12558 12154 0
-12558 12201 0
-11673 12140 12558 0
11673 -12140 0
11673 -12558 0
12559 -12159 -12201 0
-12559 12159 0
-12559 12201 0
-11676 12145 12559 0
11676 -12145 0
11676 -12559 0
12560 -12154 -12095 0
-12560 12154 0
-12560 12095 0
-11702 1212 12560 0
11702 -1212 0
11702 -12560 0
12561 -12154 -12097 0
-12561 12154 0
-12561 12097 0
-11704 12056 12561 0
11704 -12056 0
11704 -12561 0
12562 -12159 -12097 0
-12562 12159 0
-12562 12097 0
-11706 12061 12562 0
11706 -12061 0
11706 -12562 0
12563 -12154 -12268 0
-12563 12154 0
-12563 12268 0
-11708 1217 12563 0
11708 -1217 0
11708 -12563 0
12564 -12154 -12248 0
-12564 12154 0
-12564 12248 0
-11710 12168 12564 0
11710 -12168 0
11710 -12564 0
12565 -12159 -12248 0
-12565 12159 0
-12565 12248 0
-11712 12173 12565 0
11712 -12173 0
11712 -12565 0
12566 -12196 -12105 0
-12566 12196 0
-12566 12105 0
-11945 12178 12566 0
11945 -12178 0
11945 -12566 0
12567 -12196 -12159 0
-12567 12196 0
-12567 12159 0
-11939 12183 12567 0
11939 -12183 0
11939 -12567 0
12568 -12196 -12196 0
-12568 12196 0
-12568 12196 0
-11932 1206 12568 0
11932 -1206 0
11932 -12568 0
12569 -12196 -12095 0
-12569 12196 0
-12569 12095 0
-11949 1213 12569 0
11949 -1213 0
11949 -12569 0
12570 -12196 -12097 0
-12570 12196 0
-12570 12097 0
-11954 12075 12570 0
11954 -12075 0
11954 -12570 0
12571 -12201 -12097 0
-12571 12201 0
-12571 12097 0
-11685 12080 12571 0
11685 -12080 0
11685 -12571 0
12572 -12196 -12268 0
-12572 12196 0
-12572 12268 0
-11963 1218 12572 0
11963 -1218 0
11963 -12572 0
12573 -12196 -12248 0
-12573 12196 0
-12573 12248 0
-11968 12210 12573 0
11968 -12210 0
11968 -12573 0
12574 -12201 -12248 0
-12574 12201 0
-12574 12248 0
-11693 12215 12574 0
11693 -12215 0
11693 -12574 0
12575 -12095 -12105 0
-12575 12095 0
-12575 12105 0
-11714 12068 12575 0
11714 -12068 0
11714 -12575 0
12576 -12095 -12159 0
-12576 12095 0
-12576 12159 0
-11716 12059 12576 0
11716 -12059 0
11716 -12576 0
12577 -12095 -12201 0
-12577 12095 0
-12577 12201 0
-11682 12078 12577 0
11682 -12078 0
11682 -12577 0
12578 -12095 -12095 0
-12578 12095 0
-12578 12095 0
-11718 1215 12578 0
11718 -1215 0
11718 -12578 0
12579 -12095 -12268 0
-12579 12095 0
-12579 12268 0
-11720 1220 12579 0
11720 -1220 0
11720 -12579 0
12580 -12095 -12248 0
-12580 12095 0
-12580 12248 0
-11722 12112 12580 0
11722 -12112 0
11722 -12580 0
12581 -12097 -12248 0
-12581 12097 0
-12581 12248 0
-11724 12114 12581 0
11724 -12114 0
11724 -12581 0
12582 -12268 -12105 0
-12582 12268 0
-12582 12105 0
-11726 12253 12582 0
11726 -12253 0
11726 -12582 0
12583 -12268 -12159 0
-12583 12268 0
-12583 12159 0
-11728 12258 12583 0
11728 -12258 0
11728 -12583 0
12584 -12268 -12201 0
-12584 12268 0
-12584 12201 0
-11690 12263 12584 0
11690 -12263 0
11690 -12584 0
12585 -12268 -12097 0
-12585 12268 0
-12585 12097 0
-11730 12109 12585 0
11730 -12109 0
11730 -12585 0
12586 -12268 -12268 0
-12586 12268 0
-12586 12268 0
-11732 1221 12586 0
11732 -1221 0
11732 -12586 0
12587 -12100 -1207 0
-12587 12100 0
-12587 1207 0
12588 -1207 -1207 0
-12588 1207 0
-12588 1207 0
12589 -1207 -12100 0
-12589 1207 0
-12589 12100 0
12590 -12100 -12100 -1210 0
-12590 12100 0
-12590 12100 0
-12590 1210 0
-10519 1201 12587 12588 12589 12590 0
10519 -1201 0
10519 -12587 0
10519 -12588 0
10519 -12589 0
10519 -12590 0
12591 -12100 -1208 0
-12591 12100 0
-12591 1208 0
12592 -1207 -1208 0
-12592 1207 0
-12592 1208 0
12593 -1207 -12154 0
-12593 1207 0
-12593 12154 0
12594 -12100 -12154 -1210 0
-12594 12100 0
-12594 12154 0
-12594 1210 0
-10526 1202 12591 12592 12593 12594 0
10526 -1202 0
10526 -12591 0
10526 -12592 0
10526 -12593 0
10526 -12594 0
12595 -12100 -12225 0
-12595 12100 0
-12595 12225 0
12596 -1207 -12159 0
-12596 1207 0
-12596 12159 0
12597 -1207 -12225 0
-12597 1207 0
-12597 12225 0
12598 -12100 -12159 -1210 0
-12598 12100 0
-12598 12159 0
-12598 1210 0
-10533 12064 12595 12596 12597 12598 0
10533 -12064 0
10533 -12595 0
10533 -12596 0
10533 -12597 0
10533 -12598 0
12599 -12105 -12225 0
-12599 12105 0
-12599 12225 0
12600 -12220 -12225 0
-12600 12220 0
-12600 12225 0
12601 -12220 -12159 0
-12601 12220 0
-12601 12159 0
12602 -12105 -12159 -1210 0
-12602 12105 0
-12602 12159 0
-12602 1210 0
-10540 12071 12599 12600 12601 12602 0
10540 -12071 0
10540 -12599 0
10540 -12600 0
10540 -12601 0
10540 -12602 0
12603 -12100 -1209 0
-12603 12100 0
-12603 1209 0
12604 -1207 -1209 0
-12604 1207 0
-12604 1209 0
12605 -1207 -12196 0
-12605 1207 0
-12605 12196 0
12606 -12100 -12196 -1210 0
-12606 12100 0
-12606 12196 0
-12606 1210 0
-10514 1204 12603 12604 12605 12606 0
10514 -1204 0
10514 -12603 0
10514 -12604 0
10514 -12605 0
10514 -12606 0
12607 -12100 -12230 0
-12607 12100 0
-12607 12230 0
12608 -1207 -12201 0
-12608 1207 0
-12608 12201 0
12609 -1207 -12230 0
-12609 1207 0
-12609 12230 0
12610 -12100 -12201 -1210 0
-12610 12100 0
-12610 12201 0
-12610 1210 0
-10513 12083 12607 12608 12609 12610 0
10513 -12083 0
10513 -12607 0
10513 -12608 0
10513 -12609 0
10513 -12610 0
12611 -12105 -12230 0
-12611 12105 0
-12611 12230 0
12612 -12220 -12230 0
-12612 12220 0
-12612 12230 0
12613 -12220 -12201 0
-12613 12220 0
-12613 12201 0
12614 -12105 -12201 -1210 0
-12614 12105 0
-12614 12201 0
-12614 1210 0
-10535 12088 12611 12612 12613 12614 0
10535 -12088 0
10535 -12611 0
10535 -12612 0
10535 -12613 0
10535 -12614 0
12615 -12100 -1214 0
-12615 12100 0
-12615 1214 0
12616 -1207 -1214 0
-12616 1207 0
-12616 1214 0
12617 -1207 -12095 0
-12617 1207 0
-12617 12095 0
12618 -12100 -12095 -1210 0
-12618 12100 0
-12618 12095 0
-12618 1210 0
-10547 1211 12615 12616 12617 12618 0
10547 -1211 0
10547 -12615 0
10547 -12616 0
10547 -12617 0
10547 -12618 0
12619 -12100 -12092 0
-12619 12100 0
-12619 12092 0
12620 -1207 -12097 0
-12620 1207 0
-12620 12097 0
12621 -1207 -12092 0
-12621 1207 0
-12621 12092 0
12622 -12100 -12097 -1210 0
-12622 12100 0
-12622 12097 0
-12622 1210 0
-10554 12049 12619 12620 12621 12622 0
10554 -12049 0
10554 -12619 0
10554 -12620 0
10554 -12621 0
10554 -12622 0
12623 -12105 -12092 0
-12623 12105 0
-12623 12092 0
12624 -12220 -12092 0
-12624 12220 0
-12624 12092 0
12625 -12220 -12097 0
-12625 12220 0
-12625 12097 0
12626 -12105 -12097 -1210 0
-12626 12105 0
-12626 12097 0
-12626 1210 0
-10559 12066 12623 12624 12625 12626 0
10559 -12066 0
10559 -12623 0
10559 -12624 0
10559 -12625 0
10559 -12626 0
12627 -12100 -1219 0
-12627 12100 0
-12627 1219 0
12628 -1207 -1219 0
-12628 1207 0
-12628 1219 0
12629 -1207 -12268 0
-12629 1207 0
-12629 12268 0
12630 -12100 -12268 -1210 0
-12630 12100 0
-12630 12268 0
-12630 1210 0
-10566 1216 12627 12628 12629 12630 0
10566 -1216 0
10566 -12627 0
10566 -12628 0
10566 -12629 0
10566 -12630 0
12631 -12100 -12243 0
-12631 12100 0
-12631 12243 0
12632 -1207 -12248 0
-12632 1207 0
-12632 12248 0
12633 -1207 -12243 0
-12633 1207 0
-12633 12243 0
12634 -12100 -12248 -1210 0
-12634 12100 0
-12634 12248 0
-12634 1210 0
-10573 12117 12631 12632 12633 12634 0
10573 -12117 0
10573 -12631 0
10573 -12632 0
10573 -12633 0
10573 -12634 0
12635 -12105 -12243 0
-12635 12105 0
-12635 12243 0
12636 -12220 -12243 0
-12636 12220 0
-12636 12243 0
12637 -12220 -12248 0
-12637 12220 0
-12637 12248 0
12638 -12105 -12248 -1210 0
-12638 12105 0
-12638 12248 0
-12638 1210 0
-10578 12122 12635 12636 12637 12638 0
10578 -12122 0
10578 -12635 0
10578 -12636 0
10578 -12637 0
10578 -12638 0
12639 -12154 -12220 0
-12639 12154 0
-12639 12220 0
12640 -1208 -12105 0
-12640 1208 0
-12640 12105 0
12641 -1208 -12220 0
-12641 1208 0
-12641 12220 0
12642 -12154 -12105 -1210 0
-12642 12154 0
-12642 12105 0
-12642 1210 0
-10583 12127 12639 12640 12641 12642 0
10583 -12127 0
10583 -12639 0
10583 -12640 0
10583 -12641 0
10583 -12642 0
12643 -12154 -1208 0
-12643 12154 0
-12643 1208 0
12644 -1208 -1208 0
-12644 1208 0
-12644 1208 0
12645 -1208 -12154 0
-12645 1208 0
-12645 12154 0
12646 -12154 -12154 -1210 0
-12646 12154 0
-12646 12154 0
-12646 1210 0
-10588 1203 12643 12644 12645 12646 0
10588 -1203 0
10588 -12643 0
10588 -12644 0
10588 -12645 0
10588 -12646 0
12647 -12154 -1209 0
-12647 12154 0
-12647 1209 0
12648 -1208 -1209 0
-12648 1208 0
-12648 1209 0
12649 -1208 -12196 0
-12649 1208 0
-12649 12196 0
12650 -12154 -12196 -1210 0
-12650 12154 0
-12650 12196 0
-12650 1210 0
-10521 1205 12647 12648 12649 12650 0
10521 -1205 0
10521 -12647 0
10521 -12648 0
10521 -12649 0
10521 -12650 0
12651 -12154 -12230 0
-12651 12154 0
-12651 12230 0
12652 -1208 -12201 0
-12652 1208 0
-12652 12201 0
12653 -1208 -12230 0
-12653 1208 0
-12653 12230 0
12654 -12154 -12201 -1210 0
-12654 12154 0
-12654 12201 0
-12654 1210 0
-10524 12140 12651 12652 12653 12654 0
10524 -12140 0
10524 -12651 0
10524 -12652 0
10524 -12653 0
10524 -12654 0
12655 -12159 -12230 0
-12655 12159 0
-12655 12230 0
12656 -12225 -12230 0
-12656 12225 0
-12656 12230 0
12657 -12225 -12201 0
-12657 12225 0
-12657 12201 0
12658 -12159 -12201 -1210 0
-12658 12159 0
-12658 12201 0
-12658 1210 0
-10530 12145 12655 12656 12657 12658 0
10530 -12145 0
10530 -12655 0
10530 -12656 0
10530 -12657 0
10530 -12658 0
12659 -12154 -1214 0
-12659 12154 0
-12659 1214 0
12660 -1208 -1214 0
-12660 1208 0
-12660 1214 0
12661 -1208 -12095 0
-12661 1208 0
-12661 12095 0
12662 -12154 -12095 -1210 0
-12662 12154 0
-12662 12095 0
-12662 1210 0
-10593 1212 12659 12660 12661 12662 0
10593 -1212 0
10593 -12659 0
10593 -12660 0
10593 -12661 0
10593 -12662 0
12663 -12154 -12092 0
-12663 12154 0
-12663 12092 0
12664 -1208 -12097 0
-12664 1208 0
-12664 12097 0
12665 -1208 -12092 0
-12665 1208 0
-12665 12092 0
12666 -12154 -12097 -1210 0
-12666 12154 0
-12666 12097 0
-12666 1210 0
-10598 12056 12663 12664 12665 12666 0
10598 -12056 0
10598 -12663 0
10598 -12664 0
10598 -12665 0
10598 -12666 0
12667 -12159 -12092 0
-12667 12159 0
-12667 12092 0
12668 -12225 -12092 0
-12668 12225 0
-12668 12092 0
12669 -12225 -12097 0
-12669 12225 0
-12669 12097 0
12670 -12159 -12097 -1210 0
-12670 12159 0
-12670 12097 0
-12670 1210 0
-10603 12061 12667 12668 12669 12670 0
10603 -12061 0
10603 -12667 0
10603 -12668 0
10603 -12669 0
10603 -12670 0
12671 -12154 -1219 0
-12671 12154 0
-12671 1219 0
12672 -1208 -1219 0
-12672 1208 0
-12672 1219 0
12673 -1208 -12268 0
-12673 1208 0
-12673 12268 0
12674 -12154 -12268 -1210 0
-12674 12154 0
-12674 12268 0
-12674 1210 0
-10608 1217 12671 12672 12673 12674 0
10608 -1217 0
10608 -12671 0
10608 -12672 0
10608 -12673 0
10608 -12674 0
12675 -12154 -12243 0
-12675 12154 0
-12675 12243 0
12676 -1208 -12248 0
-12676 1208 0
-12676 12248 0
12677 -1208 -12243 0
-12677 1208 0
-12677 12243 0
12678 -12154 -12248 -1210 0
-12678 12154 0
-12678 12248 0
-12678 1210 0
-10613 12168 12675 12676 12677 12678 0
10613 -12168 0
10613 -12675 0
10613 -12676 0
10613 -12677 0
10613 -12678 0
12679 -12159 -12243 0
-12679 12159 0
-12679 12243 0
12680 -12225 -12243 0
-12680 12225 0
-12680 12243 0
12681 -12225 -12248 0
-12681 12225 0
-12681 12248 0
12682 -12159 -12248 -1210 0
-12682 12159 0
-12682 12248 0
-12682 1210 0
-10618 12173 12679 12680 12681 12682 0
10618 -12173 0
10618 -12679 0
10618 -12680 0
10618 -12681 0
10618 -12682 0
12683 -12196 -12220 0
-12683 12196 0
-12683 12220 0
12684 -1209 -12105 0
-12684 1209 0
-12684 12105 0
12685 -1209 -12220 0
-12685 1209 0
-12685 12220 0
12686 -12196 -12105 -1210 0
-12686 12196 0
-12686 12105 0
-12686 1210 0
-10537 12178 12683 12684 12685 12686 0
10537 -12178 0
10537 -12683 0
10537 -12684 0
10537 -12685 0
10537 -12686 0
12687 -12196 -12225 0
-12687 12196 0
-12687 12225 0
12688 -1209 -12159 0
-12688 1209 0
-12688 12159 0
12689 -1209 -12225 0
-12689 1209 0
-12689 12225 0
12690 -12196 -12159 -1210 0
-12690 12196 0
-12690 12159 0
-12690 1210 0
-10528 12183 12687 12688 12689 12690 0
10528 -12183 0
10528 -12687 0
10528 -12688 0
10528 -12689 0
10528 -12690 0
12691 -12196 -1209 0
-12691 12196 0
-12691 1209 0
12692 -1209 -1209 0
-12692 1209 0
-12692 1209 0
12693 -1209 -12196 0
-12693 1209 0
-12693 12196 0
12694 -12196 -12196 -1210 0
-12694 12196 0
-12694 12196 0
-12694 1210 0
-10518 1206 12691 12692 12693 12694 0
10518 -1206 0
10518 -12691 0
10518 -12692 0
10518 -12693 0
10518 -12694 0
12695 -12196 -1214 0
-12695 12196 0
-12695 1214 0
12696 -1209 -1214 0
-12696 1209 0
-12696 1214 0
12697 -1209 -12095 0
-12697 1209 0
-12697 12095 0
12698 -12196 -12095 -1210 0
-12698 12196 0
-12698 12095 0
-12698 1210 0
-10542 1213 12695 12696 12697 12698 0
10542 -1213 0
10542 -12695 0
10542 -12696 0
10542 -12697 0
10542 -12698 0
12699 -12196 -12092 0
-12699 12196 0
-12699 12092 0
12700 -1209 -12097 0
-12700 1209 0
-12700 12097 0
12701 -1209 -12092 0
-12701 1209 0
-12701 12092 0
12702 -12196 -12097 -1210 0
-12702 12196 0
-12702 12097 0
-12702 1210 0
-10549 12075 12699 12700 12701 12702 0
10549 -12075 0
10549 -12699 0
10549 -12700 0
10549 -12701 0
10549 -12702 0
12703 -12201 -12092 0
-12703 12201 0
-12703 12092 0
12704 -12230 -12092 0
-12704 12230 0
-12704 12092 0
12705 -12230 -12097 0
-12705 12230 0
-12705 12097 0
12706 -12201 -12097 -1210 0
-12706 12201 0
-12706 12097 0
-12706 1210 0
-10551 12080 12703 12704 12705 12706 0
10551 -12080 0
10551 -12703 0
10551 -12704 0
10551 -12705 0
10551 -12706 0
12707 -12196 -1219 0
-12707 12196 0
-12707 1219 0
12708 -1209 -1219 0
-12708 1209 0
-12708 1219 0
12709 -1209 -12268 0
-12709 1209 0
-12709 12268 0
12710 -12196 -12268 -1210 0
-12710 12196 0
-12710 12268 0
-12710 1210 0
-10561 1218 12707 12708 12709 12710 0
10561 -1218 0
10561 -12707 0
10561 -12708 0
10561 -12709 0
10561 -12710 0
12711 -12196 -12243 0
-12711 12196 0
-12711 12243 0
12712 -1209 -12248 0
-12712 1209 0
-12712 12248 0
12713 -1209 -12243 0
-12713 1209 0
-12713 12243 0
12714 -12196 -12248 -1210 0
-12714 12196 0
-12714 12248 0
-12714 1210 0
-10568 12210 12711 12712 12713 12714 0
10568 -12210 0
10568 -12711 0
10568 -12712 0
10568 -12713 0
10568 -12714 0
12715 -12201 -12243 0
-12715 12201 0
-12715 12243 0
12716 -12230 -12243 0
-12716 12230 0
-12716 12243 0
12717 -12230 -12248 0
-12717 12230 0
-12717 12248 0
12718 -12201 -12248 -1210 0
-12718 12201 0
-12718 12248 0
-12718 1210 0
-10570 12215 12715 12716 12717 12718 0
10570 -12215 0
10570 -12715 0
10570 -12716 0
10570 -12717 0
10570 -12718 0
12719 -12095 -12220 0
-12719 12095 0
-12719 12220 0
12720 -1214 -12105 0
-12720 1214 0
-12720 12105 0
12721 -1214 -12220 0
-12721 1214 0
-12721 12220 0
12722 -12095 -12105 -1210 0
-12722 12095 0
-12722 12105 0
-12722 1210 0
-10623 12068 12719 12720 12721 12722 0
10623 -12068 0
10623 -12719 0
10623 -12720 0
10623 -12721 0
10623 -12722 0
12723 -12095 -12225 0
-12723 12095 0
-12723 12225 0
12724 -1214 -12159 0
-12724 1214 0
-12724 12159 0
12725 -1214 -12225 0
-12725 1214 0
-12725 12225 0
12726 -12095 -12159 -1210 0
-12726 12095 0
-12726 12159 0
-12726 1210 0
-10628 12059 12723 12724 12725 12726 0
10628 -12059 0
10628 -12723 0
10628 -12724 0
10628 -12725 0
10628 -12726 0
12727 -12095 -12230 0
-12727 12095 0
-12727 12230 0
12728 -1214 -12201 0
-12728 1214 0
-12728 12201 0
12729 -1214 -12230 0
-12729 1214 0
-12729 12230 0
12730 -12095 -12201 -1210 0
-12730 12095 0
-12730 12201 0
-12730 1210 0
-10545 12078 12727 12728 12729 12730 0
10545 -12078 0
10545 -12727 0
10545 -12728 0
10545 -12729 0
10545 -12730 0
12731 -12095 -1214 0
-12731 12095 0
-12731 1214 0
12232 -1214 -1214 0
-12232 1214 0
-12232 1214 0
12732 -1214 -12095 0
-12732 1214 0
-12732 12095 0
12733 -12095 -12095 -1210 0
-12733 12095 0
-12733 12095 0
-12733 1210 0
-10633 1215 12731 12232 12732 12733 0
10633 -1215 0
10633 -12731 0
10633 -12232 0
10633 -12732 0
10633 -12733 0
12734 -12095 -1219 0
-12734 12095 0
-12734 1219 0
12735 -1214 -1219 0
-12735 1214 0
-12735 1219 0
12736 -1214 -12268 0
-12736 1214 0
-12736 12268 0
12737 -12095 -12268 -1210 0
-12737 12095 0
-12737 12268 0
-12737 1210 0
-10638 1220 12734 12735 12736 12737 0
10638 -1220 0
10638 -12734 0
10638 -12735 0
10638 -12736 0
10638 -12737 0
12738 -12095 -12243 0
-12738 12095 0
-12738 12243 0
12739 -1214 -12248 0
-12739 1214 0
-12739 12248 0
12740 -1214 -12243 0
-12740 1214 0
-12740 12243 0
12741 -12095 -12248 -1210 0
-12741 12095 0
-12741 12248 0
-12741 1210 0
-10643 12112 12738 12739 12740 12741 0
10643 -12112 0
10643 -12738 0
10643 -12739 0
10643 -12740 0
10643 -12741 0
12742 -12097 -12243 0
-12742 12097 0
-12742 12243 0
12743 -12092 -12243 0
-12743 12092 0
-12743 12243 0
12744 -12092 -12248 0
-12744 12092 0
-12744 12248 0
12745 -12097 -12248 -1210 0
-12745 12097 0
-12745 12248 0
-12745 1210 0
-10648 12114 12742 12743 12744 12745 0
10648 -12114 0
10648 -12742 0
10648 -12743 0
10648 -12744 0
10648 -12745 0
12746 -12268 -12220 0
-12746 12268 0
-12746 12220 0
12747 -1219 -12105 0
-12747 1219 0
-12747 12105 0
12748 -1219 -12220 0
-12748 1219 0
-12748 12220 0
12749 -12268 -12105 -1210 0
-12749 12268 0
-12749 12105 0
-12749 1210 0
-10653 12253 12746 12747 12748 12749 0
10653 -12253 0
10653 -12746 0
10653 -12747 0
10653 -12748 0
10653 -12749 0
12750 -12268 -12225 0
-12750 12268 0
-12750 12225 0
12751 -1219 -12159 0
-12751 1219 0
-12751 12159 0
12752 -1219 -12225 0
-12752 1219 0
-12752 12225 0
12753 -12268 -12159 -1210 0
-12753 12268 0
-12753 12159 0
-12753 1210 0
-10658 12258 12750 12751 12752 12753 0
10658 -12258 0
10658 -12750 0
10658 -12751 0
10658 -12752 0
10658 -12753 0
12754 -12268 -12230 0
-12754 12268 0
-12754 12230 0
12755 -1219 -12201 0
-12755 1219 0
-12755 12201 0
12756 -1219 -12230 0
-12756 1219 0
-12756 12230 0
12757 -12268 -12201 -1210 0
-12757 12268 0
-12757 12201 0
-12757 1210 0
-10564 12263 12754 12755 12756 12757 0
10564 -12263 0
10564 -12754 0
10564 -12755 0
10564 -12756 0
10564 -12757 0
12758 -12268 -12092 0
-12758 12268 0
-12758 12092 0
12759 -1219 -12097 0
-12759 1219 0
-12759 12097 0
12760 -1219 -12092 0
-12760 1219 0
-12760 12092 0
12761 -12268 -12097 -1210 0
-12761 12268 0
-12761 12097 0
-12761 1210 0
-10663 12109 12758 12759 12760 12761 0
10663 -12109 0
10663 -12758 0
10663 -12759 0
10663 -12760 0
10663 -12761 0
12762 -12268 -1219 0
-12762 12268 0
-12762 1219 0
12508 -1219 -1219 0
-12508 1219 0
-12508 1219 0
12763 -1219 -12268 0
-12763 1219 0
-12763 12268 0
12764 -12268 -12268 -1210 0
-12764 12268 0
-12764 12268 0
-12764 1210 0
-10668 1221 12762 12508 12763 12764 0
10668 -1221 0
10668 -12762 0
10668 -12508 0
10668 -12763 0
10668 -12764 0
