c Standarized MaxSat Instance
c{
c "sha1sum": "082bc2dcbe4798308d708f6bff7132044bcfc432",
c "nvars": 12764,
c "ncls": 46236,
c "total_lits": 112632,
c "nhards": 45996,
c "nhard_nlits": 112392,
c "nhard_len_stats":
c    { "min": 1,
c      "max": 6,
c      "ave": 2.4435,
c      "stddev": 0.9078 },
c "nsofts": 240,
c "nsoft_nlits": 240,
c "nsoft_len_stats":
c    { "min": 1,
c      "max": 1,
c      "ave": 1.0000,
c      "stddev": 0.0000 },
c "nsoft_wts": 1,
c "soft_wt_stats":
c    { "min": 1,
c      "max": 1,
c      "ave": 1.0000,
c      "stddev": 0.0000 }
c}
p cnf 12764 46236
1 0
-1 2 3 4 5 0
1 -2 0
1 -3 0
1 -4 0
1 -5 0
6 0
-6 7 8 9 10 0
6 -7 0
6 -8 0
6 -9 0
6 -10 0
11 0
-11 12 13 14 15 0
11 -12 0
11 -13 0
11 -14 0
11 -15 0
-16 0
-16 17 18 19 20 0
16 -17 0
16 -18 0
16 -19 0
16 -20 0
21 0
-21 22 23 24 25 0
21 -22 0
21 -23 0
21 -24 0
21 -25 0
-26 0
-26 27 28 29 30 0
26 -27 0
26 -28 0
26 -29 0
26 -30 0
31 0
-31 32 33 34 35 0
31 -32 0
31 -33 0
31 -34 0
31 -35 0
36 0
-36 37 38 39 40 0
36 -37 0
36 -38 0
36 -39 0
36 -40 0
41 0
-41 42 43 44 45 0
41 -42 0
41 -43 0
41 -44 0
41 -45 0
46 0
-46 47 48 49 50 0
46 -47 0
46 -48 0
46 -49 0
46 -50 0
51 0
-51 52 53 54 55 0
51 -52 0
51 -53 0
51 -54 0
51 -55 0
56 0
-56 57 58 59 60 0
56 -57 0
56 -58 0
56 -59 0
56 -60 0
61 0
-61 62 63 64 65 0
61 -62 0
61 -63 0
61 -64 0
61 -65 0
66 0
-66 67 68 69 70 0
66 -67 0
66 -68 0
66 -69 0
66 -70 0
71 0
-71 72 73 74 75 0
71 -72 0
71 -73 0
71 -74 0
71 -75 0
76 0
-76 77 78 79 80 0
76 -77 0
76 -78 0
76 -79 0
76 -80 0
-81 0
-81 82 83 84 85 0
81 -82 0
81 -83 0
81 -84 0
81 -85 0
86 0
-86 87 88 89 90 0
86 -87 0
86 -88 0
86 -89 0
86 -90 0
91 0
-91 92 93 94 95 0
91 -92 0
91 -93 0
91 -94 0
91 -95 0
96 0
-96 97 98 99 100 0
96 -97 0
96 -98 0
96 -99 0
96 -100 0
101 0
-101 102 103 104 105 0
101 -102 0
101 -103 0
101 -104 0
101 -105 0
106 0
-106 107 108 109 110 0
106 -107 0
106 -108 0
106 -109 0
106 -110 0
111 0
-111 112 113 114 115 0
111 -112 0
111 -113 0
111 -114 0
111 -115 0
116 0
-116 117 118 119 120 0
116 -117 0
116 -118 0
116 -119 0
116 -120 0
-121 0
-121 122 123 124 125 0
121 -122 0
121 -123 0
121 -124 0
121 -125 0
126 0
-126 127 128 129 130 0
126 -127 0
126 -128 0
126 -129 0
126 -130 0
131 0
-131 132 133 134 135 0
131 -132 0
131 -133 0
131 -134 0
131 -135 0
-136 0
-136 137 138 139 140 0
136 -137 0
136 -138 0
136 -139 0
136 -140 0
-141 0
-141 142 143 144 145 0
141 -142 0
141 -143 0
141 -144 0
141 -145 0
-146 0
-146 147 148 149 150 0
146 -147 0
146 -148 0
146 -149 0
146 -150 0
-151 0
-151 152 153 154 155 0
151 -152 0
151 -153 0
151 -154 0
151 -155 0
156 0
-156 157 158 159 160 0
156 -157 0
156 -158 0
156 -159 0
156 -160 0
-161 0
-161 162 163 164 165 0
161 -162 0
161 -163 0
161 -164 0
161 -165 0
166 0
-166 167 168 169 170 0
166 -167 0
166 -168 0
166 -169 0
166 -170 0
171 0
-171 172 173 174 175 0
171 -172 0
171 -173 0
171 -174 0
171 -175 0
-176 0
-176 177 178 179 180 0
176 -177 0
176 -178 0
176 -179 0
176 -180 0
181 0
-181 182 183 184 185 0
181 -182 0
181 -183 0
181 -184 0
181 -185 0
-186 0
-186 187 188 189 190 0
186 -187 0
186 -188 0
186 -189 0
186 -190 0
191 0
-191 192 193 194 195 0
191 -192 0
191 -193 0
191 -194 0
191 -195 0
196 0
-196 197 198 199 200 0
196 -197 0
196 -198 0
196 -199 0
196 -200 0
201 0
-201 202 203 204 205 0
201 -202 0
201 -203 0
201 -204 0
201 -205 0
206 0
-206 207 208 209 210 0
206 -207 0
206 -208 0
206 -209 0
206 -210 0
211 0
-211 212 213 214 215 0
211 -212 0
211 -213 0
211 -214 0
211 -215 0
216 0
-216 217 218 219 220 0
216 -217 0
216 -218 0
216 -219 0
216 -220 0
221 0
-221 222 223 224 225 0
221 -222 0
221 -223 0
221 -224 0
221 -225 0
226 0
-226 227 228 229 230 0
226 -227 0
226 -228 0
226 -229 0
226 -230 0
231 0
-231 232 233 234 235 0
231 -232 0
231 -233 0
231 -234 0
231 -235 0
236 0
-236 237 238 239 240 0
236 -237 0
236 -238 0
236 -239 0
236 -240 0
241 0
-241 242 243 244 245 0
241 -242 0
241 -243 0
241 -244 0
241 -245 0
-246 0
-246 247 248 249 250 0
246 -247 0
246 -248 0
246 -249 0
246 -250 0
251 0
-251 252 253 254 255 0
251 -252 0
251 -253 0
251 -254 0
251 -255 0
256 0
-256 257 258 259 260 0
256 -257 0
256 -258 0
256 -259 0
256 -260 0
261 0
-261 262 263 264 265 0
261 -262 0
261 -263 0
261 -264 0
261 -265 0
266 0
-266 267 268 269 270 0
266 -267 0
266 -268 0
266 -269 0
266 -270 0
271 0
-271 272 273 274 275 0
271 -272 0
271 -273 0
271 -274 0
271 -275 0
276 0
-276 277 278 279 280 0
276 -277 0
276 -278 0
276 -279 0
276 -280 0
281 0
-281 282 283 284 285 0
281 -282 0
281 -283 0
281 -284 0
281 -285 0
-286 0
-286 287 288 289 290 0
286 -287 0
286 -288 0
286 -289 0
286 -290 0
291 0
-291 292 293 294 295 0
291 -292 0
291 -293 0
291 -294 0
291 -295 0
296 0
-296 297 298 299 300 0
296 -297 0
296 -298 0
296 -299 0
296 -300 0
301 0
-301 302 303 304 305 0
301 -302 0
301 -303 0
301 -304 0
301 -305 0
306 0
-306 307 308 309 310 0
306 -307 0
306 -308 0
306 -309 0
306 -310 0
311 0
-311 312 313 314 315 0
311 -312 0
311 -313 0
311 -314 0
311 -315 0
316 0
-316 317 318 319 320 0
316 -317 0
316 -318 0
316 -319 0
316 -320 0
321 0
-321 322 323 324 325 0
321 -322 0
321 -323 0
321 -324 0
321 -325 0
326 0
-326 327 328 329 330 0
326 -327 0
326 -328 0
326 -329 0
326 -330 0
-331 0
-331 332 333 334 335 0
331 -332 0
331 -333 0
331 -334 0
331 -335 0
336 0
-336 337 338 339 340 0
336 -337 0
336 -338 0
336 -339 0
336 -340 0
341 0
-341 342 343 344 345 0
341 -342 0
341 -343 0
341 -344 0
341 -345 0
346 0
-346 347 348 349 350 0
346 -347 0
346 -348 0
346 -349 0
346 -350 0
351 0
-351 352 353 354 355 0
351 -352 0
351 -353 0
351 -354 0
351 -355 0
356 0
-356 357 358 359 360 0
356 -357 0
356 -358 0
356 -359 0
356 -360 0
361 0
-361 362 363 364 365 0
361 -362 0
361 -363 0
361 -364 0
361 -365 0
366 0
-366 367 368 369 370 0
366 -367 0
366 -368 0
366 -369 0
366 -370 0
371 0
-371 372 373 374 375 0
371 -372 0
371 -373 0
371 -374 0
371 -375 0
376 0
-376 377 378 379 380 0
376 -377 0
376 -378 0
376 -379 0
376 -380 0
381 0
-381 382 383 384 385 0
381 -382 0
381 -383 0
381 -384 0
381 -385 0
-386 0
-386 387 388 389 390 0
386 -387 0
386 -388 0
386 -389 0
386 -390 0
391 0
-391 392 393 394 395 0
391 -392 0
391 -393 0
391 -394 0
391 -395 0
-396 0
-396 397 398 399 400 0
396 -397 0
396 -398 0
396 -399 0
396 -400 0
401 0
-401 402 403 404 405 0
401 -402 0
401 -403 0
401 -404 0
401 -405 0
406 0
-406 407 408 409 410 0
406 -407 0
406 -408 0
406 -409 0
406 -410 0
411 0
-411 412 413 414 415 0
411 -412 0
411 -413 0
411 -414 0
411 -415 0
416 0
-416 417 418 419 420 0
416 -417 0
416 -418 0
416 -419 0
416 -420 0
421 0
-421 422 423 424 425 0
421 -422 0
421 -423 0
421 -424 0
421 -425 0
426 0
-426 427 428 429 430 0
426 -427 0
426 -428 0
426 -429 0
426 -430 0
431 0
-431 432 433 434 435 0
431 -432 0
431 -433 0
431 -434 0
431 -435 0
-436 0
-436 437 438 439 440 0
436 -437 0
436 -438 0
436 -439 0
436 -440 0
441 0
-441 442 443 444 445 0
441 -442 0
441 -443 0
441 -444 0
441 -445 0
-446 0
-446 447 448 449 450 0
446 -447 0
446 -448 0
446 -449 0
446 -450 0
451 0
-451 452 453 454 455 0
451 -452 0
451 -453 0
451 -454 0
451 -455 0
-456 0
-456 457 458 459 460 0
456 -457 0
456 -458 0
456 -459 0
456 -460 0
461 0
-461 462 463 464 465 0
461 -462 0
461 -463 0
461 -464 0
461 -465 0
-466 0
-466 467 468 469 470 0
466 -467 0
466 -468 0
466 -469 0
466 -470 0
-471 0
-471 472 473 474 475 0
471 -472 0
471 -473 0
471 -474 0
471 -475 0
-476 0
-476 477 478 479 480 0
476 -477 0
476 -478 0
476 -479 0
476 -480 0
481 0
-481 482 483 484 485 0
481 -482 0
481 -483 0
481 -484 0
481 -485 0
-486 0
-486 487 488 489 490 0
486 -487 0
486 -488 0
486 -489 0
486 -490 0
-491 0
-491 492 493 494 495 0
491 -492 0
491 -493 0
491 -494 0
491 -495 0
-496 0
-496 497 498 499 500 0
496 -497 0
496 -498 0
496 -499 0
496 -500 0
501 0
-501 502 503 504 505 0
501 -502 0
501 -503 0
501 -504 0
501 -505 0
-506 0
-506 507 508 509 510 0
506 -507 0
506 -508 0
506 -509 0
506 -510 0
511 0
-511 512 513 514 515 0
511 -512 0
511 -513 0
511 -514 0
511 -515 0
-516 0
-516 517 518 519 520 0
516 -517 0
516 -518 0
516 -519 0
516 -520 0
521 0
-521 522 523 524 525 0
521 -522 0
521 -523 0
521 -524 0
521 -525 0
526 0
-526 527 528 529 530 0
526 -527 0
526 -528 0
526 -529 0
526 -530 0
-531 0
-531 532 533 534 535 0
531 -532 0
531 -533 0
531 -534 0
531 -535 0
536 0
-536 537 538 539 540 0
536 -537 0
536 -538 0
536 -539 0
536 -540 0
-541 0
-541 542 543 544 545 0
541 -542 0
541 -543 0
541 -544 0
541 -545 0
546 0
-546 547 548 549 550 0
546 -547 0
546 -548 0
546 -549 0
546 -550 0
551 0
-551 552 553 554 555 0
551 -552 0
551 -553 0
551 -554 0
551 -555 0
556 0
-556 557 558 559 560 0
556 -557 0
556 -558 0
556 -559 0
556 -560 0
561 0
-561 562 563 564 565 0
561 -562 0
561 -563 0
561 -564 0
561 -565 0
566 0
-566 567 568 569 570 0
566 -567 0
566 -568 0
566 -569 0
566 -570 0
571 0
-571 572 573 574 575 0
571 -572 0
571 -573 0
571 -574 0
571 -575 0
576 0
-576 577 578 579 580 0
576 -577 0
576 -578 0
576 -579 0
576 -580 0
581 0
-581 582 583 584 585 0
581 -582 0
581 -583 0
581 -584 0
581 -585 0
586 0
-586 587 588 589 590 0
586 -587 0
586 -588 0
586 -589 0
586 -590 0
591 0
-591 592 593 594 595 0
591 -592 0
591 -593 0
591 -594 0
591 -595 0
596 0
-596 597 598 599 600 0
596 -597 0
596 -598 0
596 -599 0
596 -600 0
601 0
-601 602 603 604 605 0
601 -602 0
601 -603 0
601 -604 0
601 -605 0
606 0
-606 607 608 609 610 0
606 -607 0
606 -608 0
606 -609 0
606 -610 0
611 0
-611 612 613 614 615 0
611 -612 0
611 -613 0
611 -614 0
611 -615 0
616 0
-616 617 618 619 620 0
616 -617 0
616 -618 0
616 -619 0
616 -620 0
-621 0
-621 622 623 624 625 0
621 -622 0
621 -623 0
621 -624 0
621 -625 0
-626 0
-626 627 628 629 630 0
626 -627 0
626 -628 0
626 -629 0
626 -630 0
631 0
-631 632 633 634 635 0
631 -632 0
631 -633 0
631 -634 0
631 -635 0
636 0
-636 637 638 639 640 0
636 -637 0
636 -638 0
636 -639 0
636 -640 0
641 0
-641 642 643 644 645 0
641 -642 0
641 -643 0
641 -644 0
641 -645 0
646 0
-646 647 648 649 650 0
646 -647 0
646 -648 0
646 -649 0
646 -650 0
651 0
-651 652 653 654 655 0
651 -652 0
651 -653 0
651 -654 0
651 -655 0
656 0
-656 657 658 659 660 0
656 -657 0
656 -658 0
656 -659 0
656 -660 0
661 0
-661 662 663 664 665 0
661 -662 0
661 -663 0
661 -664 0
661 -665 0
666 0
-666 667 668 669 670 0
666 -667 0
666 -668 0
666 -669 0
666 -670 0
671 0
-671 672 673 674 675 0
671 -672 0
671 -673 0
671 -674 0
671 -675 0
676 0
-676 677 678 679 680 0
676 -677 0
676 -678 0
676 -679 0
676 -680 0
-681 0
-681 682 683 684 685 0
681 -682 0
681 -683 0
681 -684 0
681 -685 0
-686 0
-686 687 688 689 690 0
686 -687 0
686 -688 0
686 -689 0
686 -690 0
691 0
-691 692 693 694 695 0
691 -692 0
691 -693 0
691 -694 0
691 -695 0
696 0
-696 697 698 699 700 0
696 -697 0
696 -698 0
696 -699 0
696 -700 0
701 0
-701 702 703 704 705 0
701 -702 0
701 -703 0
701 -704 0
701 -705 0
706 0
-706 707 708 709 710 0
706 -707 0
706 -708 0
706 -709 0
706 -710 0
711 0
-711 712 713 714 715 0
711 -712 0
711 -713 0
711 -714 0
711 -715 0
716 0
-716 717 718 719 720 0
716 -717 0
716 -718 0
716 -719 0
716 -720 0
721 0
-721 722 723 724 725 0
721 -722 0
721 -723 0
721 -724 0
721 -725 0
726 0
-726 727 728 729 730 0
726 -727 0
726 -728 0
726 -729 0
726 -730 0
731 0
-731 732 733 734 735 0
731 -732 0
731 -733 0
731 -734 0
731 -735 0
736 0
-736 737 738 739 740 0
736 -737 0
736 -738 0
736 -739 0
736 -740 0
741 0
-741 742 743 744 745 0
741 -742 0
741 -743 0
741 -744 0
741 -745 0
746 0
-746 747 748 749 750 0
746 -747 0
746 -748 0
746 -749 0
746 -750 0
-751 0
-751 752 753 754 755 0
751 -752 0
751 -753 0
751 -754 0
751 -755 0
756 0
-756 757 758 759 760 0
756 -757 0
756 -758 0
756 -759 0
756 -760 0
761 0
-761 762 763 764 765 0
761 -762 0
761 -763 0
761 -764 0
761 -765 0
766 0
-766 767 768 769 770 0
766 -767 0
766 -768 0
766 -769 0
766 -770 0
771 0
-771 772 773 774 775 0
771 -772 0
771 -773 0
771 -774 0
771 -775 0
776 0
-776 777 778 779 780 0
776 -777 0
776 -778 0
776 -779 0
776 -780 0
781 0
-781 782 783 784 785 0
781 -782 0
781 -783 0
781 -784 0
781 -785 0
786 0
-786 787 788 789 790 0
786 -787 0
786 -788 0
786 -789 0
786 -790 0
791 0
-791 792 793 794 795 0
791 -792 0
791 -793 0
791 -794 0
791 -795 0
796 0
-796 797 798 799 800 0
796 -797 0
796 -798 0
796 -799 0
796 -800 0
801 0
-801 802 803 804 805 0
801 -802 0
801 -803 0
801 -804 0
801 -805 0
806 0
-806 807 808 809 810 0
806 -807 0
806 -808 0
806 -809 0
806 -810 0
811 0
-811 812 813 814 815 0
811 -812 0
811 -813 0
811 -814 0
811 -815 0
816 0
-816 817 818 819 820 0
816 -817 0
816 -818 0
816 -819 0
816 -820 0
821 0
-821 822 823 824 825 0
821 -822 0
821 -823 0
821 -824 0
821 -825 0
826 0
-826 827 828 829 830 0
826 -827 0
826 -828 0
826 -829 0
826 -830 0
831 0
-831 832 833 834 835 0
831 -832 0
831 -833 0
831 -834 0
831 -835 0
-836 0
-836 837 838 839 840 0
836 -837 0
836 -838 0
836 -839 0
836 -840 0
841 0
-841 842 843 844 845 0
841 -842 0
841 -843 0
841 -844 0
841 -845 0
846 0
-846 847 848 849 850 0
846 -847 0
846 -848 0
846 -849 0
846 -850 0
851 0
-851 852 853 854 855 0
851 -852 0
851 -853 0
851 -854 0
851 -855 0
856 0
-856 857 858 859 860 0
856 -857 0
856 -858 0
856 -859 0
856 -860 0
861 0
-861 862 863 864 865 0
861 -862 0
861 -863 0
861 -864 0
861 -865 0
-866 0
-866 867 868 869 870 0
866 -867 0
866 -868 0
866 -869 0
866 -870 0
-871 0
-871 872 873 874 875 0
871 -872 0
871 -873 0
871 -874 0
871 -875 0
876 0
-876 877 878 879 880 0
876 -877 0
876 -878 0
876 -879 0
876 -880 0
-881 0
-881 882 883 884 885 0
881 -882 0
881 -883 0
881 -884 0
881 -885 0
-886 0
-886 887 888 889 890 0
886 -887 0
886 -888 0
886 -889 0
886 -890 0
-891 0
-891 892 893 894 895 0
891 -892 0
891 -893 0
891 -894 0
891 -895 0
896 0
-896 897 898 899 900 0
896 -897 0
896 -898 0
896 -899 0
896 -900 0
-901 0
-901 902 903 904 905 0
901 -902 0
901 -903 0
901 -904 0
901 -905 0
-906 0
-906 907 908 909 910 0
906 -907 0
906 -908 0
906 -909 0
906 -910 0
-911 0
-911 912 913 914 915 0
911 -912 0
911 -913 0
911 -914 0
911 -915 0
916 0
-916 917 918 919 920 0
916 -917 0
916 -918 0
916 -919 0
916 -920 0
-921 0
-921 922 923 924 925 0
921 -922 0
921 -923 0
921 -924 0
921 -925 0
926 0
-926 927 928 929 930 0
926 -927 0
926 -928 0
926 -929 0
926 -930 0
931 0
-931 932 933 934 935 0
931 -932 0
931 -933 0
931 -934 0
931 -935 0
936 0
-936 937 938 939 940 0
936 -937 0
936 -938 0
936 -939 0
936 -940 0
-941 0
-941 942 943 944 945 0
941 -942 0
941 -943 0
941 -944 0
941 -945 0
946 0
-946 947 948 949 950 0
946 -947 0
946 -948 0
946 -949 0
946 -950 0
951 0
-951 952 953 954 955 0
951 -952 0
951 -953 0
951 -954 0
951 -955 0
956 0
-956 957 958 959 960 0
956 -957 0
956 -958 0
956 -959 0
956 -960 0
961 0
-961 962 963 964 965 0
961 -962 0
961 -963 0
961 -964 0
961 -965 0
966 0
-966 967 968 969 970 0
966 -967 0
966 -968 0
966 -969 0
966 -970 0
971 0
-971 972 973 974 975 0
971 -972 0
971 -973 0
971 -974 0
971 -975 0
976 0
-976 977 978 979 980 0
976 -977 0
976 -978 0
976 -979 0
976 -980 0
981 0
-981 982 983 984 985 0
981 -982 0
981 -983 0
981 -984 0
981 -985 0
-986 0
-986 987 988 989 990 0
986 -987 0
986 -988 0
986 -989 0
986 -990 0
991 0
-991 992 993 994 995 0
991 -992 0
991 -993 0
991 -994 0
991 -995 0
996 0
-996 997 998 999 1000 0
996 -997 0
996 -998 0
996 -999 0
996 -1000 0
1001 0
-1001 1002 1003 1004 1005 0
1001 -1002 0
1001 -1003 0
1001 -1004 0
1001 -1005 0
1006 0
-1006 1007 1008 1009 1010 0
1006 -1007 0
1006 -1008 0
1006 -1009 0
1006 -1010 0
1011 0
-1011 1012 1013 1014 1015 0
1011 -1012 0
1011 -1013 0
1011 -1014 0
1011 -1015 0
1016 0
-1016 1017 1018 1019 1020 0
1016 -1017 0
1016 -1018 0
1016 -1019 0
1016 -1020 0
1021 0
-1021 1022 1023 1024 1025 0
1021 -1022 0
1021 -1023 0
1021 -1024 0
1021 -1025 0
-1026 0
-1026 1027 1028 1029 1030 0
1026 -1027 0
1026 -1028 0
1026 -1029 0
1026 -1030 0
1031 0
-1031 1032 1033 1034 1035 0
1031 -1032 0
1031 -1033 0
1031 -1034 0
1031 -1035 0
1036 0
-1036 1037 1038 1039 1040 0
1036 -1037 0
1036 -1038 0
1036 -1039 0
1036 -1040 0
1041 0
-1041 1042 1043 1044 1045 0
1041 -1042 0
1041 -1043 0
1041 -1044 0
1041 -1045 0
1046 0
-1046 1047 1048 1049 1050 0
1046 -1047 0
1046 -1048 0
1046 -1049 0
1046 -1050 0
1051 0
-1051 1052 1053 1054 1055 0
1051 -1052 0
1051 -1053 0
1051 -1054 0
1051 -1055 0
1056 0
-1056 1057 1058 1059 1060 0
1056 -1057 0
1056 -1058 0
1056 -1059 0
1056 -1060 0
1061 0
-1061 1062 1063 1064 1065 0
1061 -1062 0
1061 -1063 0
1061 -1064 0
1061 -1065 0
1066 0
-1066 1067 1068 1069 1070 0
1066 -1067 0
1066 -1068 0
1066 -1069 0
1066 -1070 0
1071 0
-1071 1072 1073 1074 1075 0
1071 -1072 0
1071 -1073 0
1071 -1074 0
1071 -1075 0
1076 0
-1076 1077 1078 1079 1080 0
1076 -1077 0
1076 -1078 0
1076 -1079 0
1076 -1080 0
-1081 0
-1081 1082 1083 1084 1085 0
1081 -1082 0
1081 -1083 0
1081 -1084 0
1081 -1085 0
1086 0
-1086 1087 1088 1089 1090 0
1086 -1087 0
1086 -1088 0
1086 -1089 0
1086 -1090 0
1091 0
-1091 1092 1093 1094 1095 0
1091 -1092 0
1091 -1093 0
1091 -1094 0
1091 -1095 0
1096 0
-1096 1097 1098 1099 1100 0
1096 -1097 0
1096 -1098 0
1096 -1099 0
1096 -1100 0
1101 0
-1101 1102 1103 1104 1105 0
1101 -1102 0
1101 -1103 0
1101 -1104 0
1101 -1105 0
1106 0
-1106 1107 1108 1109 1110 0
1106 -1107 0
1106 -1108 0
1106 -1109 0
1106 -1110 0
1111 0
-1111 1112 1113 1114 1115 0
1111 -1112 0
1111 -1113 0
1111 -1114 0
1111 -1115 0
1116 0
-1116 1117 1118 1119 1120 0
1116 -1117 0
1116 -1118 0
1116 -1119 0
1116 -1120 0
1121 0
-1121 1122 1123 1124 1125 0
1121 -1122 0
1121 -1123 0
1121 -1124 0
1121 -1125 0
1126 0
-1126 1127 1128 1129 1130 0
1126 -1127 0
1126 -1128 0
1126 -1129 0
1126 -1130 0
1131 0
-1131 1132 1133 1134 1135 0
1131 -1132 0
1131 -1133 0
1131 -1134 0
1131 -1135 0
-1136 0
-1136 1137 1138 1139 1140 0
1136 -1137 0
1136 -1138 0
1136 -1139 0
1136 -1140 0
-1141 0
-1141 1142 1143 1144 1145 0
1141 -1142 0
1141 -1143 0
1141 -1144 0
1141 -1145 0
-1146 0
-1146 1147 1148 1149 1150 0
1146 -1147 0
1146 -1148 0
1146 -1149 0
1146 -1150 0
-1151 0
-1151 1152 1153 1154 1155 0
1151 -1152 0
1151 -1153 0
1151 -1154 0
1151 -1155 0
1156 0
-1156 1157 1158 1159 1160 0
1156 -1157 0
1156 -1158 0
1156 -1159 0
1156 -1160 0
1161 0
-1161 1162 1163 1164 1165 0
1161 -1162 0
1161 -1163 0
1161 -1164 0
1161 -1165 0
1166 0
-1166 1167 1168 1169 1170 0
1166 -1167 0
1166 -1168 0
1166 -1169 0
1166 -1170 0
1171 0
-1171 1172 1173 1174 1175 0
1171 -1172 0
1171 -1173 0
1171 -1174 0
1171 -1175 0
1176 0
-1176 1177 1178 1179 1180 0
1176 -1177 0
1176 -1178 0
1176 -1179 0
1176 -1180 0
1181 0
-1181 1182 1183 1184 1185 0
1181 -1182 0
1181 -1183 0
1181 -1184 0
1181 -1185 0
-1186 0
-1186 1187 1188 1189 1190 0
1186 -1187 0
1186 -1188 0
1186 -1189 0
1186 -1190 0
1191 0
-1191 1192 1193 1194 1195 0
1191 -1192 0
1191 -1193 0
1191 -1194 0
1191 -1195 0
1196 0
-1196 1197 1198 1199 1200 0
1196 -1197 0
1196 -1198 0
1196 -1199 0
1196 -1200 0
-1201 0
-1202 0
-1203 0
-1204 0
-1205 0
-1206 0
-1207 0
-1208 0
-1209 0
-1210 0
-1211 0
-1212 0
-1213 0
-1214 0
-1215 0
-1216 0
-1217 0
-1218 0
-1219 0
-1220 0
-1221 0
1222 -1223 -1223 0
-1222 1223 0
-1222 1223 0
-1224 1225 1222 0
1224 -1225 0
1224 -1222 0
1226 -1223 -1227 0
-1226 1223 0
-1226 1227 0
-814 1228 1226 0
814 -1228 0
814 -1226 0
1229 -1223 -1230 0
-1229 1223 0
-1229 1230 0
-812 1231 1229 0
812 -1231 0
812 -1229 0
1232 -1233 -1230 0
-1232 1233 0
-1232 1230 0
-815 1234 1232 0
815 -1234 0
815 -1232 0
1235 -1227 -1233 0
-1235 1227 0
-1235 1233 0
-813 1236 1235 0
813 -1236 0
813 -1235 0
1237 -1227 -1227 0
-1237 1227 0
-1237 1227 0
-1238 1239 1237 0
1238 -1239 0
1238 -1237 0
1240 -1241 -1241 0
-1240 1241 0
-1240 1241 0
-1242 1243 1240 0
1242 -1243 0
1242 -1240 0
1244 -1241 -1245 0
-1244 1241 0
-1244 1245 0
-589 1246 1244 0
589 -1246 0
589 -1244 0
1247 -1241 -1248 0
-1247 1241 0
-1247 1248 0
-587 1249 1247 0
587 -1249 0
587 -1247 0
1250 -1251 -1248 0
-1250 1251 0
-1250 1248 0
-590 1252 1250 0
590 -1252 0
590 -1250 0
1253 -1245 -1251 0
-1253 1245 0
-1253 1251 0
-588 1254 1253 0
588 -1254 0
588 -1253 0
1255 -1245 -1245 0
-1255 1245 0
-1255 1245 0
-1256 1257 1255 0
1256 -1257 0
1256 -1255 0
1258 -1259 -1259 0
-1258 1259 0
-1258 1259 0
-1260 1261 1258 0
1260 -1261 0
1260 -1258 0
1262 -1259 -1263 0
-1262 1259 0
-1262 1263 0
-624 1264 1262 0
624 -1264 0
624 -1262 0
1265 -1259 -1266 0
-1265 1259 0
-1265 1266 0
-622 1267 1265 0
622 -1267 0
622 -1265 0
1268 -1269 -1266 0
-1268 1269 0
-1268 1266 0
-625 1270 1268 0
625 -1270 0
625 -1268 0
1271 -1263 -1269 0
-1271 1263 0
-1271 1269 0
-623 1272 1271 0
623 -1272 0
623 -1271 0
1273 -1263 -1263 0
-1273 1263 0
-1273 1263 0
-1274 1275 1273 0
1274 -1275 0
1274 -1273 0
1276 -1277 -1277 0
-1276 1277 0
-1276 1277 0
-1278 1279 1276 0
1278 -1279 0
1278 -1276 0
1280 -1277 -1281 0
-1280 1277 0
-1280 1281 0
-499 1282 1280 0
499 -1282 0
499 -1280 0
1283 -1277 -1284 0
-1283 1277 0
-1283 1284 0
-497 1285 1283 0
497 -1285 0
497 -1283 0
1286 -1287 -1284 0
-1286 1287 0
-1286 1284 0
-500 1288 1286 0
500 -1288 0
500 -1286 0
1289 -1281 -1287 0
-1289 1281 0
-1289 1287 0
-498 1290 1289 0
498 -1290 0
498 -1289 0
1291 -1281 -1281 0
-1291 1281 0
-1291 1281 0
-1292 1293 1291 0
1292 -1293 0
1292 -1291 0
1294 -1295 -1296 0
-1294 1295 0
-1294 1296 0
1297 -1296 -1296 0
-1297 1296 0
-1297 1296 0
1298 -1296 -1295 0
-1298 1296 0
-1298 1295 0
1299 -1295 -1295 -1300 0
-1299 1295 0
-1299 1295 0
-1299 1300 0
-1301 1302 1294 1297 1298 1299 0
1301 -1302 0
1301 -1294 0
1301 -1297 0
1301 -1298 0
1301 -1299 0
1303 -1295 -1304 0
-1303 1295 0
-1303 1304 0
1305 -1296 -1304 0
-1305 1296 0
-1305 1304 0
1306 -1296 -1307 0
-1306 1296 0
-1306 1307 0
1308 -1295 -1307 -1300 0
-1308 1295 0
-1308 1307 0
-1308 1300 0
-479 1309 1303 1305 1306 1308 0
479 -1309 0
479 -1303 0
479 -1305 0
479 -1306 0
479 -1308 0
1310 -1295 -1311 0
-1310 1295 0
-1310 1311 0
1312 -1296 -1313 0
-1312 1296 0
-1312 1313 0
1314 -1296 -1311 0
-1314 1296 0
-1314 1311 0
1315 -1295 -1313 -1300 0
-1315 1295 0
-1315 1313 0
-1315 1300 0
-477 1316 1310 1312 1314 1315 0
477 -1316 0
477 -1310 0
477 -1312 0
477 -1314 0
477 -1315 0
1317 -1318 -1311 0
-1317 1318 0
-1317 1311 0
1319 -1320 -1311 0
-1319 1320 0
-1319 1311 0
1321 -1320 -1313 0
-1321 1320 0
-1321 1313 0
1322 -1318 -1313 -1300 0
-1322 1318 0
-1322 1313 0
-1322 1300 0
-480 1323 1317 1319 1321 1322 0
480 -1323 0
480 -1317 0
480 -1319 0
480 -1321 0
480 -1322 0
1324 -1307 -1320 0
-1324 1307 0
-1324 1320 0
1325 -1304 -1318 0
-1325 1304 0
-1325 1318 0
1326 -1304 -1320 0
-1326 1304 0
-1326 1320 0
1327 -1307 -1318 -1300 0
-1327 1307 0
-1327 1318 0
-1327 1300 0
-478 1328 1324 1325 1326 1327 0
478 -1328 0
478 -1324 0
478 -1325 0
478 -1326 0
478 -1327 0
1329 -1307 -1304 0
-1329 1307 0
-1329 1304 0
1330 -1304 -1304 0
-1330 1304 0
-1330 1304 0
1331 -1304 -1307 0
-1331 1304 0
-1331 1307 0
1332 -1307 -1307 -1300 0
-1332 1307 0
-1332 1307 0
-1332 1300 0
-1333 1334 1329 1330 1331 1332 0
1333 -1334 0
1333 -1329 0
1333 -1330 0
1333 -1331 0
1333 -1332 0
1335 -1336 -1337 0
-1335 1336 0
-1335 1337 0
1338 -1337 -1337 0
-1338 1337 0
-1338 1337 0
1339 -1337 -1336 0
-1339 1337 0
-1339 1336 0
1340 -1336 -1336 -1341 0
-1340 1336 0
-1340 1336 0
-1340 1341 0
-1342 1343 1335 1338 1339 1340 0
1342 -1343 0
1342 -1335 0
1342 -1338 0
1342 -1339 0
1342 -1340 0
1344 -1336 -1345 0
-1344 1336 0
-1344 1345 0
1346 -1337 -1345 0
-1346 1337 0
-1346 1345 0
1347 -1337 -1348 0
-1347 1337 0
-1347 1348 0
1349 -1336 -1348 -1341 0
-1349 1336 0
-1349 1348 0
-1349 1341 0
-354 1350 1344 1346 1347 1349 0
354 -1350 0
354 -1344 0
354 -1346 0
354 -1347 0
354 -1349 0
1351 -1336 -1352 0
-1351 1336 0
-1351 1352 0
1353 -1337 -1354 0
-1353 1337 0
-1353 1354 0
1355 -1337 -1352 0
-1355 1337 0
-1355 1352 0
1356 -1336 -1354 -1341 0
-1356 1336 0
-1356 1354 0
-1356 1341 0
-352 1357 1351 1353 1355 1356 0
352 -1357 0
352 -1351 0
352 -1353 0
352 -1355 0
352 -1356 0
1358 -1359 -1352 0
-1358 1359 0
-1358 1352 0
1360 -1361 -1352 0
-1360 1361 0
-1360 1352 0
1362 -1361 -1354 0
-1362 1361 0
-1362 1354 0
1363 -1359 -1354 -1341 0
-1363 1359 0
-1363 1354 0
-1363 1341 0
-355 1364 1358 1360 1362 1363 0
355 -1364 0
355 -1358 0
355 -1360 0
355 -1362 0
355 -1363 0
1365 -1348 -1361 0
-1365 1348 0
-1365 1361 0
1366 -1345 -1359 0
-1366 1345 0
-1366 1359 0
1367 -1345 -1361 0
-1367 1345 0
-1367 1361 0
1368 -1348 -1359 -1341 0
-1368 1348 0
-1368 1359 0
-1368 1341 0
-353 1369 1365 1366 1367 1368 0
353 -1369 0
353 -1365 0
353 -1366 0
353 -1367 0
353 -1368 0
1370 -1348 -1345 0
-1370 1348 0
-1370 1345 0
1371 -1345 -1345 0
-1371 1345 0
-1371 1345 0
1372 -1345 -1348 0
-1372 1345 0
-1372 1348 0
1373 -1348 -1348 -1341 0
-1373 1348 0
-1373 1348 0
-1373 1341 0
-1374 1375 1370 1371 1372 1373 0
1374 -1375 0
1374 -1370 0
1374 -1371 0
1374 -1372 0
1374 -1373 0
1376 -1377 -1378 0
-1376 1377 0
-1376 1378 0
1379 -1378 -1378 0
-1379 1378 0
-1379 1378 0
1380 -1378 -1377 0
-1380 1378 0
-1380 1377 0
1381 -1377 -1377 -1382 0
-1381 1377 0
-1381 1377 0
-1381 1382 0
-1383 1384 1376 1379 1380 1381 0
1383 -1384 0
1383 -1376 0
1383 -1379 0
1383 -1380 0
1383 -1381 0
1385 -1377 -1386 0
-1385 1377 0
-1385 1386 0
1387 -1378 -1386 0
-1387 1378 0
-1387 1386 0
1388 -1378 -1389 0
-1388 1378 0
-1388 1389 0
1390 -1377 -1389 -1382 0
-1390 1377 0
-1390 1389 0
-1390 1382 0
-759 1391 1385 1387 1388 1390 0
759 -1391 0
759 -1385 0
759 -1387 0
759 -1388 0
759 -1390 0
1392 -1377 -1393 0
-1392 1377 0
-1392 1393 0
1394 -1378 -1395 0
-1394 1378 0
-1394 1395 0
1396 -1378 -1393 0
-1396 1378 0
-1396 1393 0
1397 -1377 -1395 -1382 0
-1397 1377 0
-1397 1395 0
-1397 1382 0
-757 1398 1392 1394 1396 1397 0
757 -1398 0
757 -1392 0
757 -1394 0
757 -1396 0
757 -1397 0
1399 -1400 -1393 0
-1399 1400 0
-1399 1393 0
1401 -1402 -1393 0
-1401 1402 0
-1401 1393 0
1403 -1402 -1395 0
-1403 1402 0
-1403 1395 0
1404 -1400 -1395 -1382 0
-1404 1400 0
-1404 1395 0
-1404 1382 0
-760 1405 1399 1401 1403 1404 0
760 -1405 0
760 -1399 0
760 -1401 0
760 -1403 0
760 -1404 0
1406 -1389 -1402 0
-1406 1389 0
-1406 1402 0
1407 -1386 -1400 0
-1407 1386 0
-1407 1400 0
1408 -1386 -1402 0
-1408 1386 0
-1408 1402 0
1409 -1389 -1400 -1382 0
-1409 1389 0
-1409 1400 0
-1409 1382 0
-758 1410 1406 1407 1408 1409 0
758 -1410 0
758 -1406 0
758 -1407 0
758 -1408 0
758 -1409 0
1411 -1389 -1386 0
-1411 1389 0
-1411 1386 0
1412 -1386 -1386 0
-1412 1386 0
-1412 1386 0
1413 -1386 -1389 0
-1413 1386 0
-1413 1389 0
1414 -1389 -1389 -1382 0
-1414 1389 0
-1414 1389 0
-1414 1382 0
-1415 1416 1411 1412 1413 1414 0
1415 -1416 0
1415 -1411 0
1415 -1412 0
1415 -1413 0
1415 -1414 0
1417 -1418 -1418 0
-1417 1418 0
-1417 1418 0
-1419 1420 1417 0
1419 -1420 0
1419 -1417 0
1421 -1418 -1422 0
-1421 1418 0
-1421 1422 0
-219 1423 1421 0
219 -1423 0
219 -1421 0
1424 -1418 -1425 0
-1424 1418 0
-1424 1425 0
-217 1426 1424 0
217 -1426 0
217 -1424 0
1427 -1428 -1425 0
-1427 1428 0
-1427 1425 0
-220 1429 1427 0
220 -1429 0
220 -1427 0
1430 -1422 -1428 0
-1430 1422 0
-1430 1428 0
-218 1431 1430 0
218 -1431 0
218 -1430 0
1432 -1422 -1422 0
-1432 1422 0
-1432 1422 0
-1433 1434 1432 0
1433 -1434 0
1433 -1432 0
1435 -1436 -1436 0
-1435 1436 0
-1435 1436 0
-1437 1438 1435 0
1437 -1438 0
1437 -1435 0
1439 -1436 -1440 0
-1439 1436 0
-1439 1440 0
-319 1441 1439 0
319 -1441 0
319 -1439 0
1442 -1436 -1443 0
-1442 1436 0
-1442 1443 0
-317 1444 1442 0
317 -1444 0
317 -1442 0
1445 -1446 -1443 0
-1445 1446 0
-1445 1443 0
-320 1447 1445 0
320 -1447 0
320 -1445 0
1448 -1440 -1446 0
-1448 1440 0
-1448 1446 0
-318 1449 1448 0
318 -1449 0
318 -1448 0
1450 -1440 -1440 0
-1450 1440 0
-1450 1440 0
-1451 1452 1450 0
1451 -1452 0
1451 -1450 0
1453 -1377 -1377 0
-1453 1377 0
-1453 1377 0
-1454 1384 1453 0
1454 -1384 0
1454 -1453 0
1455 -1377 -1389 0
-1455 1377 0
-1455 1389 0
-1074 1391 1455 0
1074 -1391 0
1074 -1455 0
1456 -1377 -1395 0
-1456 1377 0
-1456 1395 0
-1072 1398 1456 0
1072 -1398 0
1072 -1456 0
1457 -1400 -1395 0
-1457 1400 0
-1457 1395 0
-1075 1405 1457 0
1075 -1405 0
1075 -1457 0
1458 -1389 -1400 0
-1458 1389 0
-1458 1400 0
-1073 1410 1458 0
1073 -1410 0
1073 -1458 0
1459 -1389 -1389 0
-1459 1389 0
-1459 1389 0
-1460 1416 1459 0
1460 -1416 0
1460 -1459 0
1461 -1462 -1463 0
-1461 1462 0
-1461 1463 0
1464 -1463 -1463 0
-1464 1463 0
-1464 1463 0
1465 -1463 -1462 0
-1465 1463 0
-1465 1462 0
1466 -1462 -1462 -1467 0
-1466 1462 0
-1466 1462 0
-1466 1467 0
-1468 1469 1461 1464 1465 1466 0
1468 -1469 0
1468 -1461 0
1468 -1464 0
1468 -1465 0
1468 -1466 0
1470 -1462 -1471 0
-1470 1462 0
-1470 1471 0
1472 -1463 -1471 0
-1472 1463 0
-1472 1471 0
1473 -1463 -1474 0
-1473 1463 0
-1473 1474 0
1475 -1462 -1474 -1467 0
-1475 1462 0
-1475 1474 0
-1475 1467 0
-59 1476 1470 1472 1473 1475 0
59 -1476 0
59 -1470 0
59 -1472 0
59 -1473 0
59 -1475 0
1477 -1462 -1478 0
-1477 1462 0
-1477 1478 0
1479 -1463 -1480 0
-1479 1463 0
-1479 1480 0
1481 -1463 -1478 0
-1481 1463 0
-1481 1478 0
1482 -1462 -1480 -1467 0
-1482 1462 0
-1482 1480 0
-1482 1467 0
-57 1483 1477 1479 1481 1482 0
57 -1483 0
57 -1477 0
57 -1479 0
57 -1481 0
57 -1482 0
1484 -1485 -1478 0
-1484 1485 0
-1484 1478 0
1486 -1487 -1478 0
-1486 1487 0
-1486 1478 0
1488 -1487 -1480 0
-1488 1487 0
-1488 1480 0
1489 -1485 -1480 -1467 0
-1489 1485 0
-1489 1480 0
-1489 1467 0
-60 1490 1484 1486 1488 1489 0
60 -1490 0
60 -1484 0
60 -1486 0
60 -1488 0
60 -1489 0
1491 -1474 -1487 0
-1491 1474 0
-1491 1487 0
1492 -1471 -1485 0
-1492 1471 0
-1492 1485 0
1493 -1471 -1487 0
-1493 1471 0
-1493 1487 0
1494 -1474 -1485 -1467 0
-1494 1474 0
-1494 1485 0
-1494 1467 0
-58 1495 1491 1492 1493 1494 0
58 -1495 0
58 -1491 0
58 -1492 0
58 -1493 0
58 -1494 0
1496 -1474 -1471 0
-1496 1474 0
-1496 1471 0
1497 -1471 -1471 0
-1497 1471 0
-1497 1471 0
1498 -1471 -1474 0
-1498 1471 0
-1498 1474 0
1499 -1474 -1474 -1467 0
-1499 1474 0
-1499 1474 0
-1499 1467 0
-1500 1501 1496 1497 1498 1499 0
1500 -1501 0
1500 -1496 0
1500 -1497 0
1500 -1498 0
1500 -1499 0
1502 -1503 -1504 0
-1502 1503 0
-1502 1504 0
1505 -1504 -1504 0
-1505 1504 0
-1505 1504 0
1506 -1504 -1503 0
-1506 1504 0
-1506 1503 0
1507 -1503 -1503 -1508 0
-1507 1503 0
-1507 1503 0
-1507 1508 0
-1509 1510 1502 1505 1506 1507 0
1509 -1510 0
1509 -1502 0
1509 -1505 0
1509 -1506 0
1509 -1507 0
1511 -1503 -1512 0
-1511 1503 0
-1511 1512 0
1513 -1504 -1512 0
-1513 1504 0
-1513 1512 0
1514 -1504 -1515 0
-1514 1504 0
-1514 1515 0
1516 -1503 -1515 -1508 0
-1516 1503 0
-1516 1515 0
-1516 1508 0
-84 1517 1511 1513 1514 1516 0
84 -1517 0
84 -1511 0
84 -1513 0
84 -1514 0
84 -1516 0
1518 -1503 -1519 0
-1518 1503 0
-1518 1519 0
1520 -1504 -1521 0
-1520 1504 0
-1520 1521 0
1522 -1504 -1519 0
-1522 1504 0
-1522 1519 0
1523 -1503 -1521 -1508 0
-1523 1503 0
-1523 1521 0
-1523 1508 0
-82 1524 1518 1520 1522 1523 0
82 -1524 0
82 -1518 0
82 -1520 0
82 -1522 0
82 -1523 0
1525 -1526 -1519 0
-1525 1526 0
-1525 1519 0
1527 -1528 -1519 0
-1527 1528 0
-1527 1519 0
1529 -1528 -1521 0
-1529 1528 0
-1529 1521 0
1530 -1526 -1521 -1508 0
-1530 1526 0
-1530 1521 0
-1530 1508 0
-85 1531 1525 1527 1529 1530 0
85 -1531 0
85 -1525 0
85 -1527 0
85 -1529 0
85 -1530 0
1532 -1515 -1528 0
-1532 1515 0
-1532 1528 0
1533 -1512 -1526 0
-1533 1512 0
-1533 1526 0
1534 -1512 -1528 0
-1534 1512 0
-1534 1528 0
1535 -1515 -1526 -1508 0
-1535 1515 0
-1535 1526 0
-1535 1508 0
-83 1536 1532 1533 1534 1535 0
83 -1536 0
83 -1532 0
83 -1533 0
83 -1534 0
83 -1535 0
1537 -1515 -1512 0
-1537 1515 0
-1537 1512 0
1538 -1512 -1512 0
-1538 1512 0
-1538 1512 0
1539 -1512 -1515 0
-1539 1512 0
-1539 1515 0
1540 -1515 -1515 -1508 0
-1540 1515 0
-1540 1515 0
-1540 1508 0
-1541 1542 1537 1538 1539 1540 0
1541 -1542 0
1541 -1537 0
1541 -1538 0
1541 -1539 0
1541 -1540 0
1543 -1544 -1545 0
-1543 1544 0
-1543 1545 0
1546 -1545 -1545 0
-1546 1545 0
-1546 1545 0
1547 -1545 -1544 0
-1547 1545 0
-1547 1544 0
1548 -1544 -1544 -1549 0
-1548 1544 0
-1548 1544 0
-1548 1549 0
-1550 1551 1543 1546 1547 1548 0
1550 -1551 0
1550 -1543 0
1550 -1546 0
1550 -1547 0
1550 -1548 0
1552 -1544 -1553 0
-1552 1544 0
-1552 1553 0
1554 -1545 -1553 0
-1554 1545 0
-1554 1553 0
1555 -1545 -1556 0
-1555 1545 0
-1555 1556 0
1557 -1544 -1556 -1549 0
-1557 1544 0
-1557 1556 0
-1557 1549 0
-349 1558 1552 1554 1555 1557 0
349 -1558 0
349 -1552 0
349 -1554 0
349 -1555 0
349 -1557 0
1559 -1544 -1560 0
-1559 1544 0
-1559 1560 0
1561 -1545 -1562 0
-1561 1545 0
-1561 1562 0
1563 -1545 -1560 0
-1563 1545 0
-1563 1560 0
1564 -1544 -1562 -1549 0
-1564 1544 0
-1564 1562 0
-1564 1549 0
-347 1565 1559 1561 1563 1564 0
347 -1565 0
347 -1559 0
347 -1561 0
347 -1563 0
347 -1564 0
1566 -1567 -1560 0
-1566 1567 0
-1566 1560 0
1568 -1569 -1560 0
-1568 1569 0
-1568 1560 0
1570 -1569 -1562 0
-1570 1569 0
-1570 1562 0
1571 -1567 -1562 -1549 0
-1571 1567 0
-1571 1562 0
-1571 1549 0
-350 1572 1566 1568 1570 1571 0
350 -1572 0
350 -1566 0
350 -1568 0
350 -1570 0
350 -1571 0
1573 -1556 -1569 0
-1573 1556 0
-1573 1569 0
1574 -1553 -1567 0
-1574 1553 0
-1574 1567 0
1575 -1553 -1569 0
-1575 1553 0
-1575 1569 0
1576 -1556 -1567 -1549 0
-1576 1556 0
-1576 1567 0
-1576 1549 0
-348 1577 1573 1574 1575 1576 0
348 -1577 0
348 -1573 0
348 -1574 0
348 -1575 0
348 -1576 0
1578 -1556 -1553 0
-1578 1556 0
-1578 1553 0
1579 -1553 -1553 0
-1579 1553 0
-1579 1553 0
1580 -1553 -1556 0
-1580 1553 0
-1580 1556 0
1581 -1556 -1556 -1549 0
-1581 1556 0
-1581 1556 0
-1581 1549 0
-1582 1583 1578 1579 1580 1581 0
1582 -1583 0
1582 -1578 0
1582 -1579 0
1582 -1580 0
1582 -1581 0
1584 -1585 -1586 0
-1584 1585 0
-1584 1586 0
1587 -1586 -1586 0
-1587 1586 0
-1587 1586 0
1588 -1586 -1585 0
-1588 1586 0
-1588 1585 0
1589 -1585 -1585 -1590 0
-1589 1585 0
-1589 1585 0
-1589 1590 0
-1591 1592 1584 1587 1588 1589 0
1591 -1592 0
1591 -1584 0
1591 -1587 0
1591 -1588 0
1591 -1589 0
1593 -1585 -1594 0
-1593 1585 0
-1593 1594 0
1595 -1586 -1594 0
-1595 1586 0
-1595 1594 0
1596 -1586 -1597 0
-1596 1586 0
-1596 1597 0
1598 -1585 -1597 -1590 0
-1598 1585 0
-1598 1597 0
-1598 1590 0
-704 1599 1593 1595 1596 1598 0
704 -1599 0
704 -1593 0
704 -1595 0
704 -1596 0
704 -1598 0
1600 -1585 -1601 0
-1600 1585 0
-1600 1601 0
1602 -1586 -1603 0
-1602 1586 0
-1602 1603 0
1604 -1586 -1601 0
-1604 1586 0
-1604 1601 0
1605 -1585 -1603 -1590 0
-1605 1585 0
-1605 1603 0
-1605 1590 0
-702 1606 1600 1602 1604 1605 0
702 -1606 0
702 -1600 0
702 -1602 0
702 -1604 0
702 -1605 0
1607 -1608 -1601 0
-1607 1608 0
-1607 1601 0
1609 -1610 -1601 0
-1609 1610 0
-1609 1601 0
1611 -1610 -1603 0
-1611 1610 0
-1611 1603 0
1612 -1608 -1603 -1590 0
-1612 1608 0
-1612 1603 0
-1612 1590 0
-705 1613 1607 1609 1611 1612 0
705 -1613 0
705 -1607 0
705 -1609 0
705 -1611 0
705 -1612 0
1614 -1597 -1610 0
-1614 1597 0
-1614 1610 0
1615 -1594 -1608 0
-1615 1594 0
-1615 1608 0
1616 -1594 -1610 0
-1616 1594 0
-1616 1610 0
1617 -1597 -1608 -1590 0
-1617 1597 0
-1617 1608 0
-1617 1590 0
-703 1618 1614 1615 1616 1617 0
703 -1618 0
703 -1614 0
703 -1615 0
703 -1616 0
703 -1617 0
1619 -1597 -1594 0
-1619 1597 0
-1619 1594 0
1620 -1594 -1594 0
-1620 1594 0
-1620 1594 0
1621 -1594 -1597 0
-1621 1594 0
-1621 1597 0
1622 -1597 -1597 -1590 0
-1622 1597 0
-1622 1597 0
-1622 1590 0
-1623 1624 1619 1620 1621 1622 0
1623 -1624 0
1623 -1619 0
1623 -1620 0
1623 -1621 0
1623 -1622 0
1625 -1626 -1626 0
-1625 1626 0
-1625 1626 0
-1627 1628 1625 0
1627 -1628 0
1627 -1625 0
1629 -1626 -1630 0
-1629 1626 0
-1629 1630 0
-604 1631 1629 0
604 -1631 0
604 -1629 0
1632 -1626 -1633 0
-1632 1626 0
-1632 1633 0
-602 1634 1632 0
602 -1634 0
602 -1632 0
1635 -1636 -1633 0
-1635 1636 0
-1635 1633 0
-605 1637 1635 0
605 -1637 0
605 -1635 0
1638 -1630 -1636 0
-1638 1630 0
-1638 1636 0
-603 1639 1638 0
603 -1639 0
603 -1638 0
1640 -1630 -1630 0
-1640 1630 0
-1640 1630 0
-1641 1642 1640 0
1641 -1642 0
1641 -1640 0
1643 -1644 -1644 0
-1643 1644 0
-1643 1644 0
-1645 1646 1643 0
1645 -1646 0
1645 -1643 0
1647 -1644 -1272 0
-1647 1644 0
-1647 1272 0
-504 1648 1647 0
504 -1648 0
504 -1647 0
1649 -1644 -1270 0
-1649 1644 0
-1649 1270 0
-502 1650 1649 0
502 -1650 0
502 -1649 0
1651 -1269 -1270 0
-1651 1269 0
-1651 1270 0
-505 1266 1651 0
505 -1266 0
505 -1651 0
1652 -1272 -1269 0
-1652 1272 0
-1652 1269 0
-503 1263 1652 0
503 -1263 0
503 -1652 0
1653 -1272 -1272 0
-1653 1272 0
-1653 1272 0
-1654 1275 1653 0
1654 -1275 0
1654 -1653 0
1655 -1656 -1656 0
-1655 1656 0
-1655 1656 0
-1657 1658 1655 0
1657 -1658 0
1657 -1655 0
1659 -1656 -1660 0
-1659 1656 0
-1659 1660 0
-1029 1661 1659 0
1029 -1661 0
1029 -1659 0
1662 -1656 -1663 0
-1662 1656 0
-1662 1663 0
-1027 1664 1662 0
1027 -1664 0
1027 -1662 0
1665 -1666 -1663 0
-1665 1666 0
-1665 1663 0
-1030 1667 1665 0
1030 -1667 0
1030 -1665 0
1668 -1660 -1666 0
-1668 1660 0
-1668 1666 0
-1028 1669 1668 0
1028 -1669 0
1028 -1668 0
1670 -1660 -1660 0
-1670 1660 0
-1670 1660 0
-1671 1672 1670 0
1671 -1672 0
1671 -1670 0
1673 -1674 -1675 0
-1673 1674 0
-1673 1675 0
1676 -1675 -1675 0
-1676 1675 0
-1676 1675 0
1677 -1675 -1674 0
-1677 1675 0
-1677 1674 0
1678 -1674 -1674 -1679 0
-1678 1674 0
-1678 1674 0
-1678 1679 0
-1680 1681 1673 1676 1677 1678 0
1680 -1681 0
1680 -1673 0
1680 -1676 0
1680 -1677 0
1680 -1678 0
1682 -1674 -1683 0
-1682 1674 0
-1682 1683 0
1684 -1675 -1683 0
-1684 1675 0
-1684 1683 0
1685 -1675 -1686 0
-1685 1675 0
-1685 1686 0
1687 -1674 -1686 -1679 0
-1687 1674 0
-1687 1686 0
-1687 1679 0
-924 1688 1682 1684 1685 1687 0
924 -1688 0
924 -1682 0
924 -1684 0
924 -1685 0
924 -1687 0
1689 -1674 -1690 0
-1689 1674 0
-1689 1690 0
1691 -1675 -1692 0
-1691 1675 0
-1691 1692 0
1693 -1675 -1690 0
-1693 1675 0
-1693 1690 0
1694 -1674 -1692 -1679 0
-1694 1674 0
-1694 1692 0
-1694 1679 0
-922 1695 1689 1691 1693 1694 0
922 -1695 0
922 -1689 0
922 -1691 0
922 -1693 0
922 -1694 0
1696 -1697 -1690 0
-1696 1697 0
-1696 1690 0
1698 -1699 -1690 0
-1698 1699 0
-1698 1690 0
1700 -1699 -1692 0
-1700 1699 0
-1700 1692 0
1701 -1697 -1692 -1679 0
-1701 1697 0
-1701 1692 0
-1701 1679 0
-925 1702 1696 1698 1700 1701 0
925 -1702 0
925 -1696 0
925 -1698 0
925 -1700 0
925 -1701 0
1703 -1686 -1699 0
-1703 1686 0
-1703 1699 0
1704 -1683 -1697 0
-1704 1683 0
-1704 1697 0
1705 -1683 -1699 0
-1705 1683 0
-1705 1699 0
1706 -1686 -1697 -1679 0
-1706 1686 0
-1706 1697 0
-1706 1679 0
-923 1707 1703 1704 1705 1706 0
923 -1707 0
923 -1703 0
923 -1704 0
923 -1705 0
923 -1706 0
1708 -1686 -1683 0
-1708 1686 0
-1708 1683 0
1709 -1683 -1683 0
-1709 1683 0
-1709 1683 0
1710 -1683 -1686 0
-1710 1683 0
-1710 1686 0
1711 -1686 -1686 -1679 0
-1711 1686 0
-1711 1686 0
-1711 1679 0
-1712 1713 1708 1709 1710 1711 0
1712 -1713 0
1712 -1708 0
1712 -1709 0
1712 -1710 0
1712 -1711 0
1714 -1715 -1715 0
-1714 1715 0
-1714 1715 0
-1716 1717 1714 0
1716 -1717 0
1716 -1714 0
1718 -1715 -1719 0
-1718 1715 0
-1718 1719 0
-1129 1720 1718 0
1129 -1720 0
1129 -1718 0
1721 -1715 -1722 0
-1721 1715 0
-1721 1722 0
-1127 1723 1721 0
1127 -1723 0
1127 -1721 0
1724 -1725 -1722 0
-1724 1725 0
-1724 1722 0
-1130 1726 1724 0
1130 -1726 0
1130 -1724 0
1727 -1719 -1725 0
-1727 1719 0
-1727 1725 0
-1128 1728 1727 0
1128 -1728 0
1128 -1727 0
1729 -1719 -1719 0
-1729 1719 0
-1729 1719 0
-1730 1731 1729 0
1730 -1731 0
1730 -1729 0
1732 -1733 -1734 0
-1732 1733 0
-1732 1734 0
1735 -1734 -1734 0
-1735 1734 0
-1735 1734 0
1736 -1734 -1733 0
-1736 1734 0
-1736 1733 0
1737 -1733 -1733 -1738 0
-1737 1733 0
-1737 1733 0
-1737 1738 0
-1739 1740 1732 1735 1736 1737 0
1739 -1740 0
1739 -1732 0
1739 -1735 0
1739 -1736 0
1739 -1737 0
1741 -1733 -1742 0
-1741 1733 0
-1741 1742 0
1743 -1734 -1742 0
-1743 1734 0
-1743 1742 0
1744 -1734 -1745 0
-1744 1734 0
-1744 1745 0
1746 -1733 -1745 -1738 0
-1746 1733 0
-1746 1745 0
-1746 1738 0
-264 1747 1741 1743 1744 1746 0
264 -1747 0
264 -1741 0
264 -1743 0
264 -1744 0
264 -1746 0
1748 -1733 -1749 0
-1748 1733 0
-1748 1749 0
1750 -1734 -1751 0
-1750 1734 0
-1750 1751 0
1752 -1734 -1749 0
-1752 1734 0
-1752 1749 0
1753 -1733 -1751 -1738 0
-1753 1733 0
-1753 1751 0
-1753 1738 0
-262 1754 1748 1750 1752 1753 0
262 -1754 0
262 -1748 0
262 -1750 0
262 -1752 0
262 -1753 0
1755 -1756 -1749 0
-1755 1756 0
-1755 1749 0
1757 -1758 -1749 0
-1757 1758 0
-1757 1749 0
1759 -1758 -1751 0
-1759 1758 0
-1759 1751 0
1760 -1756 -1751 -1738 0
-1760 1756 0
-1760 1751 0
-1760 1738 0
-265 1761 1755 1757 1759 1760 0
265 -1761 0
265 -1755 0
265 -1757 0
265 -1759 0
265 -1760 0
1762 -1745 -1758 0
-1762 1745 0
-1762 1758 0
1763 -1742 -1756 0
-1763 1742 0
-1763 1756 0
1764 -1742 -1758 0
-1764 1742 0
-1764 1758 0
1765 -1745 -1756 -1738 0
-1765 1745 0
-1765 1756 0
-1765 1738 0
-263 1766 1762 1763 1764 1765 0
263 -1766 0
263 -1762 0
263 -1763 0
263 -1764 0
263 -1765 0
1767 -1745 -1742 0
-1767 1745 0
-1767 1742 0
1768 -1742 -1742 0
-1768 1742 0
-1768 1742 0
1769 -1742 -1745 0
-1769 1742 0
-1769 1745 0
1770 -1745 -1745 -1738 0
-1770 1745 0
-1770 1745 0
-1770 1738 0
-1771 1772 1767 1768 1769 1770 0
1771 -1772 0
1771 -1767 0
1771 -1768 0
1771 -1769 0
1771 -1770 0
1773 -1774 -1775 0
-1773 1774 0
-1773 1775 0
1776 -1775 -1775 0
-1776 1775 0
-1776 1775 0
1777 -1775 -1774 0
-1777 1775 0
-1777 1774 0
1778 -1774 -1774 -1779 0
-1778 1774 0
-1778 1774 0
-1778 1779 0
-1780 1781 1773 1776 1777 1778 0
1780 -1781 0
1780 -1773 0
1780 -1776 0
1780 -1777 0
1780 -1778 0
1782 -1774 -1783 0
-1782 1774 0
-1782 1783 0
1784 -1775 -1783 0
-1784 1775 0
-1784 1783 0
1785 -1775 -1786 0
-1785 1775 0
-1785 1786 0
1787 -1774 -1786 -1779 0
-1787 1774 0
-1787 1786 0
-1787 1779 0
-49 1788 1782 1784 1785 1787 0
49 -1788 0
49 -1782 0
49 -1784 0
49 -1785 0
49 -1787 0
1789 -1774 -1790 0
-1789 1774 0
-1789 1790 0
1791 -1775 -1792 0
-1791 1775 0
-1791 1792 0
1793 -1775 -1790 0
-1793 1775 0
-1793 1790 0
1794 -1774 -1792 -1779 0
-1794 1774 0
-1794 1792 0
-1794 1779 0
-47 1795 1789 1791 1793 1794 0
47 -1795 0
47 -1789 0
47 -1791 0
47 -1793 0
47 -1794 0
1796 -1797 -1790 0
-1796 1797 0
-1796 1790 0
1798 -1799 -1790 0
-1798 1799 0
-1798 1790 0
1800 -1799 -1792 0
-1800 1799 0
-1800 1792 0
1801 -1797 -1792 -1779 0
-1801 1797 0
-1801 1792 0
-1801 1779 0
-50 1802 1796 1798 1800 1801 0
50 -1802 0
50 -1796 0
50 -1798 0
50 -1800 0
50 -1801 0
1803 -1786 -1799 0
-1803 1786 0
-1803 1799 0
1804 -1783 -1797 0
-1804 1783 0
-1804 1797 0
1805 -1783 -1799 0
-1805 1783 0
-1805 1799 0
1806 -1786 -1797 -1779 0
-1806 1786 0
-1806 1797 0
-1806 1779 0
-48 1807 1803 1804 1805 1806 0
48 -1807 0
48 -1803 0
48 -1804 0
48 -1805 0
48 -1806 0
1808 -1786 -1783 0
-1808 1786 0
-1808 1783 0
1809 -1783 -1783 0
-1809 1783 0
-1809 1783 0
1810 -1783 -1786 0
-1810 1783 0
-1810 1786 0
1811 -1786 -1786 -1779 0
-1811 1786 0
-1811 1786 0
-1811 1779 0
-1812 1813 1808 1809 1810 1811 0
1812 -1813 0
1812 -1808 0
1812 -1809 0
1812 -1810 0
1812 -1811 0
1814 -1815 -1816 0
-1814 1815 0
-1814 1816 0
1817 -1816 -1816 0
-1817 1816 0
-1817 1816 0
1818 -1816 -1815 0
-1818 1816 0
-1818 1815 0
1819 -1815 -1815 -1820 0
-1819 1815 0
-1819 1815 0
-1819 1820 0
-1821 1822 1814 1817 1818 1819 0
1821 -1822 0
1821 -1814 0
1821 -1817 0
1821 -1818 0
1821 -1819 0
1823 -1815 -1824 0
-1823 1815 0
-1823 1824 0
1825 -1816 -1824 0
-1825 1816 0
-1825 1824 0
1826 -1816 -1827 0
-1826 1816 0
-1826 1827 0
1828 -1815 -1827 -1820 0
-1828 1815 0
-1828 1827 0
-1828 1820 0
-579 1829 1823 1825 1826 1828 0
579 -1829 0
579 -1823 0
579 -1825 0
579 -1826 0
579 -1828 0
1830 -1815 -1831 0
-1830 1815 0
-1830 1831 0
1832 -1816 -1833 0
-1832 1816 0
-1832 1833 0
1834 -1816 -1831 0
-1834 1816 0
-1834 1831 0
1835 -1815 -1833 -1820 0
-1835 1815 0
-1835 1833 0
-1835 1820 0
-577 1836 1830 1832 1834 1835 0
577 -1836 0
577 -1830 0
577 -1832 0
577 -1834 0
577 -1835 0
1837 -1838 -1831 0
-1837 1838 0
-1837 1831 0
1839 -1840 -1831 0
-1839 1840 0
-1839 1831 0
1841 -1840 -1833 0
-1841 1840 0
-1841 1833 0
1842 -1838 -1833 -1820 0
-1842 1838 0
-1842 1833 0
-1842 1820 0
-580 1843 1837 1839 1841 1842 0
580 -1843 0
580 -1837 0
580 -1839 0
580 -1841 0
580 -1842 0
1844 -1827 -1840 0
-1844 1827 0
-1844 1840 0
1845 -1824 -1838 0
-1845 1824 0
-1845 1838 0
1846 -1824 -1840 0
-1846 1824 0
-1846 1840 0
1847 -1827 -1838 -1820 0
-1847 1827 0
-1847 1838 0
-1847 1820 0
-578 1848 1844 1845 1846 1847 0
578 -1848 0
578 -1844 0
578 -1845 0
578 -1846 0
578 -1847 0
1849 -1827 -1824 0
-1849 1827 0
-1849 1824 0
1850 -1824 -1824 0
-1850 1824 0
-1850 1824 0
1851 -1824 -1827 0
-1851 1824 0
-1851 1827 0
1852 -1827 -1827 -1820 0
-1852 1827 0
-1852 1827 0
-1852 1820 0
-1853 1854 1849 1850 1851 1852 0
1853 -1854 0
1853 -1849 0
1853 -1850 0
1853 -1851 0
1853 -1852 0
1855 -1856 -1856 0
-1855 1856 0
-1855 1856 0
-1857 1858 1855 0
1857 -1858 0
1857 -1855 0
1859 -1856 -1860 0
-1859 1856 0
-1859 1860 0
-534 1861 1859 0
534 -1861 0
534 -1859 0
1862 -1856 -1863 0
-1862 1856 0
-1862 1863 0
-532 1864 1862 0
532 -1864 0
532 -1862 0
1865 -1866 -1863 0
-1865 1866 0
-1865 1863 0
-535 1867 1865 0
535 -1867 0
535 -1865 0
1868 -1860 -1866 0
-1868 1860 0
-1868 1866 0
-533 1869 1868 0
533 -1869 0
533 -1868 0
1870 -1860 -1860 0
-1870 1860 0
-1870 1860 0
-1871 1872 1870 0
1871 -1872 0
1871 -1870 0
1873 -1874 -1874 0
-1873 1874 0
-1873 1874 0
-1875 1876 1873 0
1875 -1876 0
1875 -1873 0
1877 -1874 -1878 0
-1877 1874 0
-1877 1878 0
-199 1879 1877 0
199 -1879 0
199 -1877 0
1880 -1874 -1881 0
-1880 1874 0
-1880 1881 0
-197 1882 1880 0
197 -1882 0
197 -1880 0
1883 -1884 -1881 0
-1883 1884 0
-1883 1881 0
-200 1885 1883 0
200 -1885 0
200 -1883 0
1886 -1878 -1884 0
-1886 1878 0
-1886 1884 0
-198 1887 1886 0
198 -1887 0
198 -1886 0
1888 -1878 -1878 0
-1888 1878 0
-1888 1878 0
-1889 1890 1888 0
1889 -1890 0
1889 -1888 0
1891 -1892 -1892 0
-1891 1892 0
-1891 1892 0
-1893 1894 1891 0
1893 -1894 0
1893 -1891 0
1895 -1892 -1896 0
-1895 1892 0
-1895 1896 0
-859 1897 1895 0
859 -1897 0
859 -1895 0
1898 -1892 -1899 0
-1898 1892 0
-1898 1899 0
-857 1900 1898 0
857 -1900 0
857 -1898 0
1901 -1902 -1899 0
-1901 1902 0
-1901 1899 0
-860 1903 1901 0
860 -1903 0
860 -1901 0
1904 -1896 -1902 0
-1904 1896 0
-1904 1902 0
-858 1905 1904 0
858 -1905 0
858 -1904 0
1906 -1896 -1896 0
-1906 1896 0
-1906 1896 0
-1907 1908 1906 0
1907 -1908 0
1907 -1906 0
1909 -1536 -1536 0
-1909 1536 0
-1909 1536 0
-1910 1542 1909 0
1910 -1542 0
1910 -1909 0
1911 -1536 -1528 0
-1911 1536 0
-1911 1528 0
-529 1512 1911 0
529 -1512 0
529 -1911 0
1912 -1536 -1526 0
-1912 1536 0
-1912 1526 0
-527 1515 1912 0
527 -1515 0
527 -1912 0
1913 -1531 -1526 0
-1913 1531 0
-1913 1526 0
-530 1521 1913 0
530 -1521 0
530 -1913 0
1914 -1528 -1531 0
-1914 1528 0
-1914 1531 0
-528 1519 1914 0
528 -1519 0
528 -1914 0
1915 -1528 -1528 0
-1915 1528 0
-1915 1528 0
-1916 1508 1915 0
1916 -1508 0
1916 -1915 0
1917 -1918 -1919 0
-1917 1918 0
-1917 1919 0
1920 -1919 -1919 0
-1920 1919 0
-1920 1919 0
1921 -1919 -1918 0
-1921 1919 0
-1921 1918 0
1922 -1918 -1918 -1923 0
-1922 1918 0
-1922 1918 0
-1922 1923 0
-1924 1925 1917 1920 1921 1922 0
1924 -1925 0
1924 -1917 0
1924 -1920 0
1924 -1921 0
1924 -1922 0
1926 -1918 -1927 0
-1926 1918 0
-1926 1927 0
1928 -1919 -1927 0
-1928 1919 0
-1928 1927 0
1929 -1919 -1930 0
-1929 1919 0
-1929 1930 0
1931 -1918 -1930 -1923 0
-1931 1918 0
-1931 1930 0
-1931 1923 0
-24 1932 1926 1928 1929 1931 0
24 -1932 0
24 -1926 0
24 -1928 0
24 -1929 0
24 -1931 0
1933 -1918 -1934 0
-1933 1918 0
-1933 1934 0
1935 -1919 -1936 0
-1935 1919 0
-1935 1936 0
1937 -1919 -1934 0
-1937 1919 0
-1937 1934 0
1938 -1918 -1936 -1923 0
-1938 1918 0
-1938 1936 0
-1938 1923 0
-22 1939 1933 1935 1937 1938 0
22 -1939 0
22 -1933 0
22 -1935 0
22 -1937 0
22 -1938 0
1940 -1941 -1934 0
-1940 1941 0
-1940 1934 0
1942 -1943 -1934 0
-1942 1943 0
-1942 1934 0
1944 -1943 -1936 0
-1944 1943 0
-1944 1936 0
1945 -1941 -1936 -1923 0
-1945 1941 0
-1945 1936 0
-1945 1923 0
-25 1946 1940 1942 1944 1945 0
25 -1946 0
25 -1940 0
25 -1942 0
25 -1944 0
25 -1945 0
1947 -1930 -1943 0
-1947 1930 0
-1947 1943 0
1948 -1927 -1941 0
-1948 1927 0
-1948 1941 0
1949 -1927 -1943 0
-1949 1927 0
-1949 1943 0
1950 -1930 -1941 -1923 0
-1950 1930 0
-1950 1941 0
-1950 1923 0
-23 1951 1947 1948 1949 1950 0
23 -1951 0
23 -1947 0
23 -1948 0
23 -1949 0
23 -1950 0
1952 -1930 -1927 0
-1952 1930 0
-1952 1927 0
1953 -1927 -1927 0
-1953 1927 0
-1953 1927 0
1954 -1927 -1930 0
-1954 1927 0
-1954 1930 0
1955 -1930 -1930 -1923 0
-1955 1930 0
-1955 1930 0
-1955 1923 0
-1956 1957 1952 1953 1954 1955 0
1956 -1957 0
1956 -1952 0
1956 -1953 0
1956 -1954 0
1956 -1955 0
1958 -1959 -1960 0
-1958 1959 0
-1958 1960 0
1961 -1960 -1960 0
-1961 1960 0
-1961 1960 0
1962 -1960 -1959 0
-1962 1960 0
-1962 1959 0
1963 -1959 -1959 -1964 0
-1963 1959 0
-1963 1959 0
-1963 1964 0
-1965 1966 1958 1961 1962 1963 0
1965 -1966 0
1965 -1958 0
1965 -1961 0
1965 -1962 0
1965 -1963 0
1967 -1959 -1968 0
-1967 1959 0
-1967 1968 0
1969 -1960 -1968 0
-1969 1960 0
-1969 1968 0
1970 -1960 -1971 0
-1970 1960 0
-1970 1971 0
1972 -1959 -1971 -1964 0
-1972 1959 0
-1972 1971 0
-1972 1964 0
-464 1973 1967 1969 1970 1972 0
464 -1973 0
464 -1967 0
464 -1969 0
464 -1970 0
464 -1972 0
1974 -1959 -1975 0
-1974 1959 0
-1974 1975 0
1976 -1960 -1977 0
-1976 1960 0
-1976 1977 0
1978 -1960 -1975 0
-1978 1960 0
-1978 1975 0
1979 -1959 -1977 -1964 0
-1979 1959 0
-1979 1977 0
-1979 1964 0
-462 1980 1974 1976 1978 1979 0
462 -1980 0
462 -1974 0
462 -1976 0
462 -1978 0
462 -1979 0
1981 -1982 -1975 0
-1981 1982 0
-1981 1975 0
1983 -1984 -1975 0
-1983 1984 0
-1983 1975 0
1985 -1984 -1977 0
-1985 1984 0
-1985 1977 0
1986 -1982 -1977 -1964 0
-1986 1982 0
-1986 1977 0
-1986 1964 0
-465 1987 1981 1983 1985 1986 0
465 -1987 0
465 -1981 0
465 -1983 0
465 -1985 0
465 -1986 0
1988 -1971 -1984 0
-1988 1971 0
-1988 1984 0
1989 -1968 -1982 0
-1989 1968 0
-1989 1982 0
1990 -1968 -1984 0
-1990 1968 0
-1990 1984 0
1991 -1971 -1982 -1964 0
-1991 1971 0
-1991 1982 0
-1991 1964 0
-463 1992 1988 1989 1990 1991 0
463 -1992 0
463 -1988 0
463 -1989 0
463 -1990 0
463 -1991 0
1993 -1971 -1968 0
-1993 1971 0
-1993 1968 0
1994 -1968 -1968 0
-1994 1968 0
-1994 1968 0
1995 -1968 -1971 0
-1995 1968 0
-1995 1971 0
1996 -1971 -1971 -1964 0
-1996 1971 0
-1996 1971 0
-1996 1964 0
-1997 1998 1993 1994 1995 1996 0
1997 -1998 0
1997 -1993 0
1997 -1994 0
1997 -1995 0
1997 -1996 0
1999 -2000 -2001 0
-1999 2000 0
-1999 2001 0
2002 -2001 -2001 0
-2002 2001 0
-2002 2001 0
2003 -2001 -2000 0
-2003 2001 0
-2003 2000 0
2004 -2000 -2000 -1628 0
-2004 2000 0
-2004 2000 0
-2004 1628 0
-2005 2006 1999 2002 2003 2004 0
2005 -2006 0
2005 -1999 0
2005 -2002 0
2005 -2003 0
2005 -2004 0
2007 -2000 -1631 0
-2007 2000 0
-2007 1631 0
2008 -2001 -1631 0
-2008 2001 0
-2008 1631 0
2009 -2001 -1639 0
-2009 2001 0
-2009 1639 0
2010 -2000 -1639 -1628 0
-2010 2000 0
-2010 1639 0
-2010 1628 0
-154 2011 2007 2008 2009 2010 0
154 -2011 0
154 -2007 0
154 -2008 0
154 -2009 0
154 -2010 0
2012 -2000 -1634 0
-2012 2000 0
-2012 1634 0
2013 -2001 -1637 0
-2013 2001 0
-2013 1637 0
2014 -2001 -1634 0
-2014 2001 0
-2014 1634 0
2015 -2000 -1637 -1628 0
-2015 2000 0
-2015 1637 0
-2015 1628 0
-152 2016 2012 2013 2014 2015 0
152 -2016 0
152 -2012 0
152 -2013 0
152 -2014 0
152 -2015 0
2017 -1636 -1634 0
-2017 1636 0
-2017 1634 0
2018 -1626 -1634 0
-2018 1626 0
-2018 1634 0
2019 -1626 -1637 0
-2019 1626 0
-2019 1637 0
2020 -1636 -1637 -1628 0
-2020 1636 0
-2020 1637 0
-2020 1628 0
-155 1633 2017 2018 2019 2020 0
155 -1633 0
155 -2017 0
155 -2018 0
155 -2019 0
155 -2020 0
2021 -1639 -1626 0
-2021 1639 0
-2021 1626 0
2022 -1631 -1636 0
-2022 1631 0
-2022 1636 0
2023 -1631 -1626 0
-2023 1631 0
-2023 1626 0
2024 -1639 -1636 -1628 0
-2024 1639 0
-2024 1636 0
-2024 1628 0
-153 1630 2021 2022 2023 2024 0
153 -1630 0
153 -2021 0
153 -2022 0
153 -2023 0
153 -2024 0
2025 -1639 -1631 0
-2025 1639 0
-2025 1631 0
2026 -1631 -1631 0
-2026 1631 0
-2026 1631 0
2027 -1631 -1639 0
-2027 1631 0
-2027 1639 0
2028 -1639 -1639 -1628 0
-2028 1639 0
-2028 1639 0
-2028 1628 0
-2029 1642 2025 2026 2027 2028 0
2029 -1642 0
2029 -2025 0
2029 -2026 0
2029 -2027 0
2029 -2028 0
2030 -1984 -1984 0
-2030 1984 0
-2030 1984 0
-2031 1964 2030 0
2031 -1964 0
2031 -2030 0
2032 -1984 -1992 0
-2032 1984 0
-2032 1992 0
-959 1968 2032 0
959 -1968 0
959 -2032 0
2033 -1984 -1987 0
-2033 1984 0
-2033 1987 0
-957 1975 2033 0
957 -1975 0
957 -2033 0
2034 -1982 -1987 0
-2034 1982 0
-2034 1987 0
-960 1977 2034 0
960 -1977 0
960 -2034 0
2035 -1992 -1982 0
-2035 1992 0
-2035 1982 0
-958 1971 2035 0
958 -1971 0
958 -2035 0
2036 -1992 -1992 0
-2036 1992 0
-2036 1992 0
-2037 1998 2036 0
2037 -1998 0
2037 -2036 0
2038 -2039 -2039 0
-2038 2039 0
-2038 2039 0
-2040 2041 2038 0
2040 -2041 0
2040 -2038 0
2042 -2039 -2043 0
-2042 2039 0
-2042 2043 0
-829 2044 2042 0
829 -2044 0
829 -2042 0
2045 -2039 -2046 0
-2045 2039 0
-2045 2046 0
-827 2047 2045 0
827 -2047 0
827 -2045 0
2048 -2049 -2046 0
-2048 2049 0
-2048 2046 0
-830 2050 2048 0
830 -2050 0
830 -2048 0
2051 -2043 -2049 0
-2051 2043 0
-2051 2049 0
-828 2052 2051 0
828 -2052 0
828 -2051 0
2053 -2043 -2043 0
-2053 2043 0
-2053 2043 0
-2054 2055 2053 0
2054 -2055 0
2054 -2053 0
2056 -2057 -2057 0
-2056 2057 0
-2056 2057 0
-2058 2059 2056 0
2058 -2059 0
2058 -2056 0
2060 -2057 -2061 0
-2060 2057 0
-2060 2061 0
-359 2062 2060 0
359 -2062 0
359 -2060 0
2063 -2057 -2064 0
-2063 2057 0
-2063 2064 0
-357 2065 2063 0
357 -2065 0
357 -2063 0
2066 -2067 -2064 0
-2066 2067 0
-2066 2064 0
-360 2068 2066 0
360 -2068 0
360 -2066 0
2069 -2061 -2067 0
-2069 2061 0
-2069 2067 0
-358 2070 2069 0
358 -2070 0
358 -2069 0
2071 -2061 -2061 0
-2071 2061 0
-2071 2061 0
-2072 2073 2071 0
2072 -2073 0
2072 -2071 0
2074 -2075 -2076 0
-2074 2075 0
-2074 2076 0
2077 -2076 -2076 0
-2077 2076 0
-2077 2076 0
2078 -2076 -2075 0
-2078 2076 0
-2078 2075 0
2079 -2075 -2075 -2080 0
-2079 2075 0
-2079 2075 0
-2079 2080 0
-2081 2082 2074 2077 2078 2079 0
2081 -2082 0
2081 -2074 0
2081 -2077 0
2081 -2078 0
2081 -2079 0
2083 -2075 -2084 0
-2083 2075 0
-2083 2084 0
2085 -2076 -2084 0
-2085 2076 0
-2085 2084 0
2086 -2076 -2087 0
-2086 2076 0
-2086 2087 0
2088 -2075 -2087 -2080 0
-2088 2075 0
-2088 2087 0
-2088 2080 0
-729 2089 2083 2085 2086 2088 0
729 -2089 0
729 -2083 0
729 -2085 0
729 -2086 0
729 -2088 0
2090 -2075 -2091 0
-2090 2075 0
-2090 2091 0
2092 -2076 -2093 0
-2092 2076 0
-2092 2093 0
2094 -2076 -2091 0
-2094 2076 0
-2094 2091 0
2095 -2075 -2093 -2080 0
-2095 2075 0
-2095 2093 0
-2095 2080 0
-727 2096 2090 2092 2094 2095 0
727 -2096 0
727 -2090 0
727 -2092 0
727 -2094 0
727 -2095 0
2097 -2098 -2091 0
-2097 2098 0
-2097 2091 0
2099 -2100 -2091 0
-2099 2100 0
-2099 2091 0
2101 -2100 -2093 0
-2101 2100 0
-2101 2093 0
2102 -2098 -2093 -2080 0
-2102 2098 0
-2102 2093 0
-2102 2080 0
-730 2103 2097 2099 2101 2102 0
730 -2103 0
730 -2097 0
730 -2099 0
730 -2101 0
730 -2102 0
2104 -2087 -2100 0
-2104 2087 0
-2104 2100 0
2105 -2084 -2098 0
-2105 2084 0
-2105 2098 0
2106 -2084 -2100 0
-2106 2084 0
-2106 2100 0
2107 -2087 -2098 -2080 0
-2107 2087 0
-2107 2098 0
-2107 2080 0
-728 2108 2104 2105 2106 2107 0
728 -2108 0
728 -2104 0
728 -2105 0
728 -2106 0
728 -2107 0
2109 -2087 -2084 0
-2109 2087 0
-2109 2084 0
2110 -2084 -2084 0
-2110 2084 0
-2110 2084 0
2111 -2084 -2087 0
-2111 2084 0
-2111 2087 0
2112 -2087 -2087 -2080 0
-2112 2087 0
-2112 2087 0
-2112 2080 0
-2113 2114 2109 2110 2111 2112 0
2113 -2114 0
2113 -2109 0
2113 -2110 0
2113 -2111 0
2113 -2112 0
2115 -2116 -2116 0
-2115 2116 0
-2115 2116 0
-2117 2118 2115 0
2117 -2118 0
2117 -2115 0
2119 -2116 -2120 0
-2119 2116 0
-2119 2120 0
-1194 2121 2119 0
1194 -2121 0
1194 -2119 0
2122 -2116 -2123 0
-2122 2116 0
-2122 2123 0
-1192 2124 2122 0
1192 -2124 0
1192 -2122 0
2125 -2126 -2123 0
-2125 2126 0
-2125 2123 0
-1195 2127 2125 0
1195 -2127 0
1195 -2125 0
2128 -2120 -2126 0
-2128 2120 0
-2128 2126 0
-1193 2129 2128 0
1193 -2129 0
1193 -2128 0
2130 -2120 -2120 0
-2130 2120 0
-2130 2120 0
-2131 2132 2130 0
2131 -2132 0
2131 -2130 0
2133 -2134 -2134 0
-2133 2134 0
-2133 2134 0
-2135 2136 2133 0
2135 -2136 0
2135 -2133 0
2137 -2134 -2138 0
-2137 2134 0
-2137 2138 0
-854 2139 2137 0
854 -2139 0
854 -2137 0
2140 -2134 -2141 0
-2140 2134 0
-2140 2141 0
-852 2142 2140 0
852 -2142 0
852 -2140 0
2143 -2144 -2141 0
-2143 2144 0
-2143 2141 0
-855 2145 2143 0
855 -2145 0
855 -2143 0
2146 -2138 -2144 0
-2146 2138 0
-2146 2144 0
-853 2147 2146 0
853 -2147 0
853 -2146 0
2148 -2138 -2138 0
-2148 2138 0
-2148 2138 0
-2149 2150 2148 0
2149 -2150 0
2149 -2148 0
2151 -2152 -2153 0
-2151 2152 0
-2151 2153 0
2154 -2153 -2153 0
-2154 2153 0
-2154 2153 0
2155 -2153 -2152 0
-2155 2153 0
-2155 2152 0
2156 -2152 -2152 -2157 0
-2156 2152 0
-2156 2152 0
-2156 2157 0
-2158 2159 2151 2154 2155 2156 0
2158 -2159 0
2158 -2151 0
2158 -2154 0
2158 -2155 0
2158 -2156 0
2160 -2152 -2161 0
-2160 2152 0
-2160 2161 0
2162 -2153 -2161 0
-2162 2153 0
-2162 2161 0
2163 -2153 -2164 0
-2163 2153 0
-2163 2164 0
2165 -2152 -2164 -2157 0
-2165 2152 0
-2165 2164 0
-2165 2157 0
-1024 2166 2160 2162 2163 2165 0
1024 -2166 0
1024 -2160 0
1024 -2162 0
1024 -2163 0
1024 -2165 0
2167 -2152 -2168 0
-2167 2152 0
-2167 2168 0
2169 -2153 -2170 0
-2169 2153 0
-2169 2170 0
2171 -2153 -2168 0
-2171 2153 0
-2171 2168 0
2172 -2152 -2170 -2157 0
-2172 2152 0
-2172 2170 0
-2172 2157 0
-1022 2173 2167 2169 2171 2172 0
1022 -2173 0
1022 -2167 0
1022 -2169 0
1022 -2171 0
1022 -2172 0
2174 -2175 -2168 0
-2174 2175 0
-2174 2168 0
2176 -2177 -2168 0
-2176 2177 0
-2176 2168 0
2178 -2177 -2170 0
-2178 2177 0
-2178 2170 0
2179 -2175 -2170 -2157 0
-2179 2175 0
-2179 2170 0
-2179 2157 0
-1025 2180 2174 2176 2178 2179 0
1025 -2180 0
1025 -2174 0
1025 -2176 0
1025 -2178 0
1025 -2179 0
2181 -2164 -2177 0
-2181 2164 0
-2181 2177 0
2182 -2161 -2175 0
-2182 2161 0
-2182 2175 0
2183 -2161 -2177 0
-2183 2161 0
-2183 2177 0
2184 -2164 -2175 -2157 0
-2184 2164 0
-2184 2175 0
-2184 2157 0
-1023 2185 2181 2182 2183 2184 0
1023 -2185 0
1023 -2181 0
1023 -2182 0
1023 -2183 0
1023 -2184 0
2186 -2164 -2161 0
-2186 2164 0
-2186 2161 0
2187 -2161 -2161 0
-2187 2161 0
-2187 2161 0
2188 -2161 -2164 0
-2188 2161 0
-2188 2164 0
2189 -2164 -2164 -2157 0
-2189 2164 0
-2189 2164 0
-2189 2157 0
-2190 2191 2186 2187 2188 2189 0
2190 -2191 0
2190 -2186 0
2190 -2187 0
2190 -2188 0
2190 -2189 0
2192 -2193 -2194 0
-2192 2193 0
-2192 2194 0
2195 -2194 -2194 0
-2195 2194 0
-2195 2194 0
2196 -2194 -2193 0
-2196 2194 0
-2196 2193 0
2197 -2193 -2193 -2198 0
-2197 2193 0
-2197 2193 0
-2197 2198 0
-2199 2200 2192 2195 2196 2197 0
2199 -2200 0
2199 -2192 0
2199 -2195 0
2199 -2196 0
2199 -2197 0
2201 -2193 -2202 0
-2201 2193 0
-2201 2202 0
2203 -2194 -2202 0
-2203 2194 0
-2203 2202 0
2204 -2194 -2205 0
-2204 2194 0
-2204 2205 0
2206 -2193 -2205 -2198 0
-2206 2193 0
-2206 2205 0
-2206 2198 0
-749 2207 2201 2203 2204 2206 0
749 -2207 0
749 -2201 0
749 -2203 0
749 -2204 0
749 -2206 0
2208 -2193 -2209 0
-2208 2193 0
-2208 2209 0
2210 -2194 -2211 0
-2210 2194 0
-2210 2211 0
2212 -2194 -2209 0
-2212 2194 0
-2212 2209 0
2213 -2193 -2211 -2198 0
-2213 2193 0
-2213 2211 0
-2213 2198 0
-747 2214 2208 2210 2212 2213 0
747 -2214 0
747 -2208 0
747 -2210 0
747 -2212 0
747 -2213 0
2215 -2216 -2209 0
-2215 2216 0
-2215 2209 0
2217 -2218 -2209 0
-2217 2218 0
-2217 2209 0
2219 -2218 -2211 0
-2219 2218 0
-2219 2211 0
2220 -2216 -2211 -2198 0
-2220 2216 0
-2220 2211 0
-2220 2198 0
-750 2221 2215 2217 2219 2220 0
750 -2221 0
750 -2215 0
750 -2217 0
750 -2219 0
750 -2220 0
2222 -2205 -2218 0
-2222 2205 0
-2222 2218 0
2223 -2202 -2216 0
-2223 2202 0
-2223 2216 0
2224 -2202 -2218 0
-2224 2202 0
-2224 2218 0
2225 -2205 -2216 -2198 0
-2225 2205 0
-2225 2216 0
-2225 2198 0
-748 2226 2222 2223 2224 2225 0
748 -2226 0
748 -2222 0
748 -2223 0
748 -2224 0
748 -2225 0
2227 -2205 -2202 0
-2227 2205 0
-2227 2202 0
2228 -2202 -2202 0
-2228 2202 0
-2228 2202 0
2229 -2202 -2205 0
-2229 2202 0
-2229 2205 0
2230 -2205 -2205 -2198 0
-2230 2205 0
-2230 2205 0
-2230 2198 0
-2231 2232 2227 2228 2229 2230 0
2231 -2232 0
2231 -2227 0
2231 -2228 0
2231 -2229 0
2231 -2230 0
2233 -1544 -1544 0
-2233 1544 0
-2233 1544 0
-2234 1551 2233 0
2234 -1551 0
2234 -2233 0
2235 -1544 -1556 0
-2235 1544 0
-2235 1556 0
-774 1558 2235 0
774 -1558 0
774 -2235 0
2236 -1544 -1562 0
-2236 1544 0
-2236 1562 0
-772 1565 2236 0
772 -1565 0
772 -2236 0
2237 -1567 -1562 0
-2237 1567 0
-2237 1562 0
-775 1572 2237 0
775 -1572 0
775 -2237 0
2238 -1556 -1567 0
-2238 1556 0
-2238 1567 0
-773 1577 2238 0
773 -1577 0
773 -2238 0
2239 -1556 -1556 0
-2239 1556 0
-2239 1556 0
-2240 1583 2239 0
2240 -1583 0
2240 -2239 0
2241 -2242 -2242 0
-2241 2242 0
-2241 2242 0
-2243 2244 2241 0
2243 -2244 0
2243 -2241 0
2245 -2242 -2246 0
-2245 2242 0
-2245 2246 0
-949 2247 2245 0
949 -2247 0
949 -2245 0
2248 -2242 -2249 0
-2248 2242 0
-2248 2249 0
-947 2250 2248 0
947 -2250 0
947 -2248 0
2251 -2252 -2249 0
-2251 2252 0
-2251 2249 0
-950 2253 2251 0
950 -2253 0
950 -2251 0
2254 -2246 -2252 0
-2254 2246 0
-2254 2252 0
-948 2255 2254 0
948 -2255 0
948 -2254 0
2256 -2246 -2246 0
-2256 2246 0
-2256 2246 0
-2257 2258 2256 0
2257 -2258 0
2257 -2256 0
2259 -2260 -2260 0
-2259 2260 0
-2259 2260 0
-2261 2262 2259 0
2261 -2262 0
2261 -2259 0
2263 -2260 -2264 0
-2263 2260 0
-2263 2264 0
-594 2265 2263 0
594 -2265 0
594 -2263 0
2266 -2260 -2267 0
-2266 2260 0
-2266 2267 0
-592 2268 2266 0
592 -2268 0
592 -2266 0
2269 -2270 -2267 0
-2269 2270 0
-2269 2267 0
-595 2271 2269 0
595 -2271 0
595 -2269 0
2272 -2264 -2270 0
-2272 2264 0
-2272 2270 0
-593 2273 2272 0
593 -2273 0
593 -2272 0
2274 -2264 -2264 0
-2274 2264 0
-2274 2264 0
-2275 2276 2274 0
2275 -2276 0
2275 -2274 0
2277 -1626 -2001 0
-2277 1626 0
-2277 2001 0
2002 -2001 -2001 0
-2002 2001 0
-2002 2001 0
2278 -2001 -1626 0
-2278 2001 0
-2278 1626 0
2279 -1626 -1626 -2006 0
-2279 1626 0
-2279 1626 0
-2279 2006 0
-2280 1628 2277 2002 2278 2279 0
2280 -1628 0
2280 -2277 0
2280 -2002 0
2280 -2278 0
2280 -2279 0
2281 -1626 -2011 0
-2281 1626 0
-2281 2011 0
2282 -2001 -2011 0
-2282 2001 0
-2282 2011 0
2283 -2001 -1630 0
-2283 2001 0
-2283 1630 0
2284 -1626 -1630 -2006 0
-2284 1626 0
-2284 1630 0
-2284 2006 0
-234 1631 2281 2282 2283 2284 0
234 -1631 0
234 -2281 0
234 -2282 0
234 -2283 0
234 -2284 0
2285 -1626 -2016 0
-2285 1626 0
-2285 2016 0
2286 -2001 -1633 0
-2286 2001 0
-2286 1633 0
2287 -2001 -2016 0
-2287 2001 0
-2287 2016 0
2288 -1626 -1633 -2006 0
-2288 1626 0
-2288 1633 0
-2288 2006 0
-232 1634 2285 2286 2287 2288 0
232 -1634 0
232 -2285 0
232 -2286 0
232 -2287 0
232 -2288 0
2289 -1636 -2016 0
-2289 1636 0
-2289 2016 0
2290 -2000 -2016 0
-2290 2000 0
-2290 2016 0
2291 -2000 -1633 0
-2291 2000 0
-2291 1633 0
2292 -1636 -1633 -2006 0
-2292 1636 0
-2292 1633 0
-2292 2006 0
-235 1637 2289 2290 2291 2292 0
235 -1637 0
235 -2289 0
235 -2290 0
235 -2291 0
235 -2292 0
2293 -1630 -2000 0
-2293 1630 0
-2293 2000 0
2294 -2011 -1636 0
-2294 2011 0
-2294 1636 0
2295 -2011 -2000 0
-2295 2011 0
-2295 2000 0
2296 -1630 -1636 -2006 0
-2296 1630 0
-2296 1636 0
-2296 2006 0
-233 1639 2293 2294 2295 2296 0
233 -1639 0
233 -2293 0
233 -2294 0
233 -2295 0
233 -2296 0
2297 -1630 -2011 0
-2297 1630 0
-2297 2011 0
2298 -2011 -2011 0
-2298 2011 0
-2298 2011 0
2299 -2011 -1630 0
-2299 2011 0
-2299 1630 0
2300 -1630 -1630 -2006 0
-2300 1630 0
-2300 1630 0
-2300 2006 0
-2301 1642 2297 2298 2299 2300 0
2301 -1642 0
2301 -2297 0
2301 -2298 0
2301 -2299 0
2301 -2300 0
2302 -2303 -2304 0
-2302 2303 0
-2302 2304 0
2305 -2304 -2304 0
-2305 2304 0
-2305 2304 0
2306 -2304 -2303 0
-2306 2304 0
-2306 2303 0
2307 -2303 -2303 -2308 0
-2307 2303 0
-2307 2303 0
-2307 2308 0
-2309 2310 2302 2305 2306 2307 0
2309 -2310 0
2309 -2302 0
2309 -2305 0
2309 -2306 0
2309 -2307 0
2311 -2303 -2312 0
-2311 2303 0
-2311 2312 0
2313 -2304 -2312 0
-2313 2304 0
-2313 2312 0
2314 -2304 -2315 0
-2314 2304 0
-2314 2315 0
2316 -2303 -2315 -2308 0
-2316 2303 0
-2316 2315 0
-2316 2308 0
-1124 2317 2311 2313 2314 2316 0
1124 -2317 0
1124 -2311 0
1124 -2313 0
1124 -2314 0
1124 -2316 0
2318 -2303 -2319 0
-2318 2303 0
-2318 2319 0
2320 -2304 -2321 0
-2320 2304 0
-2320 2321 0
2322 -2304 -2319 0
-2322 2304 0
-2322 2319 0
2323 -2303 -2321 -2308 0
-2323 2303 0
-2323 2321 0
-2323 2308 0
-1122 2324 2318 2320 2322 2323 0
1122 -2324 0
1122 -2318 0
1122 -2320 0
1122 -2322 0
1122 -2323 0
2325 -2326 -2319 0
-2325 2326 0
-2325 2319 0
2327 -2328 -2319 0
-2327 2328 0
-2327 2319 0
2329 -2328 -2321 0
-2329 2328 0
-2329 2321 0
2330 -2326 -2321 -2308 0
-2330 2326 0
-2330 2321 0
-2330 2308 0
-1125 2331 2325 2327 2329 2330 0
1125 -2331 0
1125 -2325 0
1125 -2327 0
1125 -2329 0
1125 -2330 0
2332 -2315 -2328 0
-2332 2315 0
-2332 2328 0
2333 -2312 -2326 0
-2333 2312 0
-2333 2326 0
2334 -2312 -2328 0
-2334 2312 0
-2334 2328 0
2335 -2315 -2326 -2308 0
-2335 2315 0
-2335 2326 0
-2335 2308 0
-1123 2336 2332 2333 2334 2335 0
1123 -2336 0
1123 -2332 0
1123 -2333 0
1123 -2334 0
1123 -2335 0
2337 -2315 -2312 0
-2337 2315 0
-2337 2312 0
2338 -2312 -2312 0
-2338 2312 0
-2338 2312 0
2339 -2312 -2315 0
-2339 2312 0
-2339 2315 0
2340 -2315 -2315 -2308 0
-2340 2315 0
-2340 2315 0
-2340 2308 0
-2341 2342 2337 2338 2339 2340 0
2341 -2342 0
2341 -2337 0
2341 -2338 0
2341 -2339 0
2341 -2340 0
2343 -1524 -1517 0
-2343 1524 0
-2343 1517 0
2344 -1517 -1517 0
-2344 1517 0
-2344 1517 0
2345 -1517 -1524 0
-2345 1517 0
-2345 1524 0
2346 -1524 -1524 -1542 0
-2346 1524 0
-2346 1524 0
-2346 1542 0
-2347 1510 2343 2344 2345 2346 0
2347 -1510 0
2347 -2343 0
2347 -2344 0
2347 -2345 0
2347 -2346 0
2348 -1524 -1512 0
-2348 1524 0
-2348 1512 0
2349 -1517 -1512 0
-2349 1517 0
-2349 1512 0
2350 -1517 -1519 0
-2350 1517 0
-2350 1519 0
2351 -1524 -1519 -1542 0
-2351 1524 0
-2351 1519 0
-2351 1542 0
-104 1504 2348 2349 2350 2351 0
104 -1504 0
104 -2348 0
104 -2349 0
104 -2350 0
104 -2351 0
2352 -1524 -1515 0
-2352 1524 0
-2352 1515 0
2353 -1517 -1521 0
-2353 1517 0
-2353 1521 0
2354 -1517 -1515 0
-2354 1517 0
-2354 1515 0
2355 -1524 -1521 -1542 0
-2355 1524 0
-2355 1521 0
-2355 1542 0
-102 1503 2352 2353 2354 2355 0
102 -1503 0
102 -2352 0
102 -2353 0
102 -2354 0
102 -2355 0
2356 -1531 -1515 0
-2356 1531 0
-2356 1515 0
2357 -1536 -1515 0
-2357 1536 0
-2357 1515 0
2358 -1536 -1521 0
-2358 1536 0
-2358 1521 0
2359 -1531 -1521 -1542 0
-2359 1531 0
-2359 1521 0
-2359 1542 0
-105 1526 2356 2357 2358 2359 0
105 -1526 0
105 -2356 0
105 -2357 0
105 -2358 0
105 -2359 0
2360 -1519 -1536 0
-2360 1519 0
-2360 1536 0
2361 -1512 -1531 0
-2361 1512 0
-2361 1531 0
2362 -1512 -1536 0
-2362 1512 0
-2362 1536 0
2363 -1519 -1531 -1542 0
-2363 1519 0
-2363 1531 0
-2363 1542 0
-103 1528 2360 2361 2362 2363 0
103 -1528 0
103 -2360 0
103 -2361 0
103 -2362 0
103 -2363 0
2364 -1519 -1512 0
-2364 1519 0
-2364 1512 0
1538 -1512 -1512 0
-1538 1512 0
-1538 1512 0
2365 -1512 -1519 0
-2365 1512 0
-2365 1519 0
2366 -1519 -1519 -1542 0
-2366 1519 0
-2366 1519 0
-2366 1542 0
-2367 1508 2364 1538 2365 2366 0
2367 -1508 0
2367 -2364 0
2367 -1538 0
2367 -2365 0
2367 -2366 0
2368 -2369 -2369 0
-2368 2369 0
-2368 2369 0
-2370 2371 2368 0
2370 -2371 0
2370 -2368 0
2372 -2369 -2373 0
-2372 2369 0
-2372 2373 0
-769 2374 2372 0
769 -2374 0
769 -2372 0
2375 -2369 -2376 0
-2375 2369 0
-2375 2376 0
-767 2377 2375 0
767 -2377 0
767 -2375 0
2378 -2379 -2376 0
-2378 2379 0
-2378 2376 0
-770 2380 2378 0
770 -2380 0
770 -2378 0
2381 -2373 -2379 0
-2381 2373 0
-2381 2379 0
-768 2382 2381 0
768 -2382 0
768 -2381 0
2383 -2373 -2373 0
-2383 2373 0
-2383 2373 0
-2384 2385 2383 0
2384 -2385 0
2384 -2383 0
2386 -1943 -1943 0
-2386 1943 0
-2386 1943 0
-2387 1923 2386 0
2387 -1923 0
2387 -2386 0
2388 -1943 -1951 0
-2388 1943 0
-2388 1951 0
-239 1927 2388 0
239 -1927 0
239 -2388 0
2389 -1943 -1946 0
-2389 1943 0
-2389 1946 0
-237 1934 2389 0
237 -1934 0
237 -2389 0
2390 -1941 -1946 0
-2390 1941 0
-2390 1946 0
-240 1936 2390 0
240 -1936 0
240 -2390 0
2391 -1951 -1941 0
-2391 1951 0
-2391 1941 0
-238 1930 2391 0
238 -1930 0
238 -2391 0
2392 -1951 -1951 0
-2392 1951 0
-2392 1951 0
-2393 1957 2392 0
2393 -1957 0
2393 -2392 0
2394 -2395 -2395 0
-2394 2395 0
-2394 2395 0
-2396 2397 2394 0
2396 -2397 0
2396 -2394 0
2398 -2395 -2399 0
-2398 2395 0
-2398 2399 0
-1099 2400 2398 0
1099 -2400 0
1099 -2398 0
2401 -2395 -2402 0
-2401 2395 0
-2401 2402 0
-1097 2403 2401 0
1097 -2403 0
1097 -2401 0
2404 -2405 -2402 0
-2404 2405 0
-2404 2402 0
-1100 2406 2404 0
1100 -2406 0
1100 -2404 0
2407 -2399 -2405 0
-2407 2399 0
-2407 2405 0
-1098 2408 2407 0
1098 -2408 0
1098 -2407 0
2409 -2399 -2399 0
-2409 2399 0
-2409 2399 0
-2410 2411 2409 0
2410 -2411 0
2410 -2409 0
2412 -2413 -2414 0
-2412 2413 0
-2412 2414 0
2415 -2414 -2414 0
-2415 2414 0
-2415 2414 0
2416 -2414 -2413 0
-2416 2414 0
-2416 2413 0
2417 -2413 -2413 -2418 0
-2417 2413 0
-2417 2413 0
-2417 2418 0
-2419 2420 2412 2415 2416 2417 0
2419 -2420 0
2419 -2412 0
2419 -2415 0
2419 -2416 0
2419 -2417 0
2421 -2413 -2422 0
-2421 2413 0
-2421 2422 0
2423 -2414 -2422 0
-2423 2414 0
-2423 2422 0
2424 -2414 -2425 0
-2424 2414 0
-2424 2425 0
2426 -2413 -2425 -2418 0
-2426 2413 0
-2426 2425 0
-2426 2418 0
-194 2427 2421 2423 2424 2426 0
194 -2427 0
194 -2421 0
194 -2423 0
194 -2424 0
194 -2426 0
2428 -2413 -2429 0
-2428 2413 0
-2428 2429 0
2430 -2414 -2431 0
-2430 2414 0
-2430 2431 0
2432 -2414 -2429 0
-2432 2414 0
-2432 2429 0
2433 -2413 -2431 -2418 0
-2433 2413 0
-2433 2431 0
-2433 2418 0
-192 2434 2428 2430 2432 2433 0
192 -2434 0
192 -2428 0
192 -2430 0
192 -2432 0
192 -2433 0
2435 -2436 -2429 0
-2435 2436 0
-2435 2429 0
2437 -2438 -2429 0
-2437 2438 0
-2437 2429 0
2439 -2438 -2431 0
-2439 2438 0
-2439 2431 0
2440 -2436 -2431 -2418 0
-2440 2436 0
-2440 2431 0
-2440 2418 0
-195 2441 2435 2437 2439 2440 0
195 -2441 0
195 -2435 0
195 -2437 0
195 -2439 0
195 -2440 0
2442 -2425 -2438 0
-2442 2425 0
-2442 2438 0
2443 -2422 -2436 0
-2443 2422 0
-2443 2436 0
2444 -2422 -2438 0
-2444 2422 0
-2444 2438 0
2445 -2425 -2436 -2418 0
-2445 2425 0
-2445 2436 0
-2445 2418 0
-193 2446 2442 2443 2444 2445 0
193 -2446 0
193 -2442 0
193 -2443 0
193 -2444 0
193 -2445 0
2447 -2425 -2422 0
-2447 2425 0
-2447 2422 0
2448 -2422 -2422 0
-2448 2422 0
-2448 2422 0
2449 -2422 -2425 0
-2449 2422 0
-2449 2425 0
2450 -2425 -2425 -2418 0
-2450 2425 0
-2450 2425 0
-2450 2418 0
-2451 2452 2447 2448 2449 2450 0
2451 -2452 0
2451 -2447 0
2451 -2448 0
2451 -2449 0
2451 -2450 0
2453 -1223 -2454 0
-2453 1223 0
-2453 2454 0
2455 -2454 -2454 0
-2455 2454 0
-2455 2454 0
2456 -2454 -1223 0
-2456 2454 0
-2456 1223 0
2457 -1223 -1223 -2458 0
-2457 1223 0
-2457 1223 0
-2457 2458 0
-2459 1225 2453 2455 2456 2457 0
2459 -1225 0
2459 -2453 0
2459 -2455 0
2459 -2456 0
2459 -2457 0
2460 -1223 -2461 0
-2460 1223 0
-2460 2461 0
2462 -2454 -2461 0
-2462 2454 0
-2462 2461 0
2463 -2454 -1227 0
-2463 2454 0
-2463 1227 0
2464 -1223 -1227 -2458 0
-2464 1223 0
-2464 1227 0
-2464 2458 0
-374 1228 2460 2462 2463 2464 0
374 -1228 0
374 -2460 0
374 -2462 0
374 -2463 0
374 -2464 0
2465 -1223 -2466 0
-2465 1223 0
-2465 2466 0
2467 -2454 -1230 0
-2467 2454 0
-2467 1230 0
2468 -2454 -2466 0
-2468 2454 0
-2468 2466 0
2469 -1223 -1230 -2458 0
-2469 1223 0
-2469 1230 0
-2469 2458 0
-372 1231 2465 2467 2468 2469 0
372 -1231 0
372 -2465 0
372 -2467 0
372 -2468 0
372 -2469 0
2470 -1233 -2466 0
-2470 1233 0
-2470 2466 0
2471 -2472 -2466 0
-2471 2472 0
-2471 2466 0
2473 -2472 -1230 0
-2473 2472 0
-2473 1230 0
2474 -1233 -1230 -2458 0
-2474 1233 0
-2474 1230 0
-2474 2458 0
-375 1234 2470 2471 2473 2474 0
375 -1234 0
375 -2470 0
375 -2471 0
375 -2473 0
375 -2474 0
2475 -1227 -2472 0
-2475 1227 0
-2475 2472 0
2476 -2461 -1233 0
-2476 2461 0
-2476 1233 0
2477 -2461 -2472 0
-2477 2461 0
-2477 2472 0
2478 -1227 -1233 -2458 0
-2478 1227 0
-2478 1233 0
-2478 2458 0
-373 1236 2475 2476 2477 2478 0
373 -1236 0
373 -2475 0
373 -2476 0
373 -2477 0
373 -2478 0
2479 -1227 -2461 0
-2479 1227 0
-2479 2461 0
2480 -2461 -2461 0
-2480 2461 0
-2480 2461 0
2481 -2461 -1227 0
-2481 2461 0
-2481 1227 0
2482 -1227 -1227 -2458 0
-2482 1227 0
-2482 1227 0
-2482 2458 0
-2483 1239 2479 2480 2481 2482 0
2483 -1239 0
2483 -2479 0
2483 -2480 0
2483 -2481 0
2483 -2482 0
2484 -2485 -2486 0
-2484 2485 0
-2484 2486 0
2487 -2486 -2486 0
-2487 2486 0
-2487 2486 0
2488 -2486 -2485 0
-2488 2486 0
-2488 2485 0
2489 -2485 -2485 -1876 0
-2489 2485 0
-2489 2485 0
-2489 1876 0
-2490 2491 2484 2487 2488 2489 0
2490 -2491 0
2490 -2484 0
2490 -2487 0
2490 -2488 0
2490 -2489 0
2492 -2485 -1879 0
-2492 2485 0
-2492 1879 0
2493 -2486 -1879 0
-2493 2486 0
-2493 1879 0
2494 -2486 -1887 0
-2494 2486 0
-2494 1887 0
2495 -2485 -1887 -1876 0
-2495 2485 0
-2495 1887 0
-2495 1876 0
-14 2496 2492 2493 2494 2495 0
14 -2496 0
14 -2492 0
14 -2493 0
14 -2494 0
14 -2495 0
2497 -2485 -1882 0
-2497 2485 0
-2497 1882 0
2498 -2486 -1885 0
-2498 2486 0
-2498 1885 0
2499 -2486 -1882 0
-2499 2486 0
-2499 1882 0
2500 -2485 -1885 -1876 0
-2500 2485 0
-2500 1885 0
-2500 1876 0
-12 2501 2497 2498 2499 2500 0
12 -2501 0
12 -2497 0
12 -2498 0
12 -2499 0
12 -2500 0
2502 -1884 -1882 0
-2502 1884 0
-2502 1882 0
2503 -1874 -1882 0
-2503 1874 0
-2503 1882 0
2504 -1874 -1885 0
-2504 1874 0
-2504 1885 0
2505 -1884 -1885 -1876 0
-2505 1884 0
-2505 1885 0
-2505 1876 0
-15 1881 2502 2503 2504 2505 0
15 -1881 0
15 -2502 0
15 -2503 0
15 -2504 0
15 -2505 0
2506 -1887 -1874 0
-2506 1887 0
-2506 1874 0
2507 -1879 -1884 0
-2507 1879 0
-2507 1884 0
2508 -1879 -1874 0
-2508 1879 0
-2508 1874 0
2509 -1887 -1884 -1876 0
-2509 1887 0
-2509 1884 0
-2509 1876 0
-13 1878 2506 2507 2508 2509 0
13 -1878 0
13 -2506 0
13 -2507 0
13 -2508 0
13 -2509 0
2510 -1887 -1879 0
-2510 1887 0
-2510 1879 0
2511 -1879 -1879 0
-2511 1879 0
-2511 1879 0
2512 -1879 -1887 0
-2512 1879 0
-2512 1887 0
2513 -1887 -1887 -1876 0
-2513 1887 0
-2513 1887 0
-2513 1876 0
-2514 1890 2510 2511 2512 2513 0
2514 -1890 0
2514 -2510 0
2514 -2511 0
2514 -2512 0
2514 -2513 0
2515 -1900 -1900 0
-2515 1900 0
-2515 1900 0
-2516 1894 2515 0
2516 -1894 0
2516 -2515 0
2517 -1900 -2518 0
-2517 1900 0
-2517 2518 0
-839 2519 2517 0
839 -2519 0
839 -2517 0
2520 -1900 -1899 0
-2520 1900 0
-2520 1899 0
-837 1892 2520 0
837 -1892 0
837 -2520 0
2521 -1903 -1899 0
-2521 1903 0
-2521 1899 0
-840 1902 2521 0
840 -1902 0
840 -2521 0
2522 -2518 -1903 0
-2522 2518 0
-2522 1903 0
-838 2523 2522 0
838 -2523 0
838 -2522 0
2524 -2518 -2518 0
-2524 2518 0
-2524 2518 0
-2525 2526 2524 0
2525 -2526 0
2525 -2524 0
2527 -1320 -1320 0
-2527 1320 0
-2527 1320 0
-2528 1300 2527 0
2528 -1300 0
2528 -2527 0
2529 -1320 -1328 0
-2529 1320 0
-2529 1328 0
-969 1304 2529 0
969 -1304 0
969 -2529 0
2530 -1320 -1323 0
-2530 1320 0
-2530 1323 0
-967 1311 2530 0
967 -1311 0
967 -2530 0
2531 -1318 -1323 0
-2531 1318 0
-2531 1323 0
-970 1313 2531 0
970 -1313 0
970 -2531 0
2532 -1328 -1318 0
-2532 1328 0
-2532 1318 0
-968 1307 2532 0
968 -1307 0
968 -2532 0
2533 -1328 -1328 0
-2533 1328 0
-2533 1328 0
-2534 1334 2533 0
2534 -1334 0
2534 -2533 0
2535 -2485 -2485 0
-2535 2485 0
-2535 2485 0
-2536 2491 2535 0
2536 -2491 0
2536 -2535 0
2537 -2485 -1887 0
-2537 2485 0
-2537 1887 0
-119 2496 2537 0
119 -2496 0
119 -2537 0
2538 -2485 -1885 0
-2538 2485 0
-2538 1885 0
-117 2501 2538 0
117 -2501 0
117 -2538 0
2539 -1884 -1885 0
-2539 1884 0
-2539 1885 0
-120 1881 2539 0
120 -1881 0
120 -2539 0
2540 -1887 -1884 0
-2540 1887 0
-2540 1884 0
-118 1878 2540 0
118 -1878 0
118 -2540 0
2541 -1887 -1887 0
-2541 1887 0
-2541 1887 0
-2542 1890 2541 0
2542 -1890 0
2542 -2541 0
2543 -1856 -2544 0
-2543 1856 0
-2543 2544 0
2545 -2544 -2544 0
-2545 2544 0
-2545 2544 0
2546 -2544 -1856 0
-2546 2544 0
-2546 1856 0
2547 -1856 -1856 -2548 0
-2547 1856 0
-2547 1856 0
-2547 2548 0
-2549 1858 2543 2545 2546 2547 0
2549 -1858 0
2549 -2543 0
2549 -2545 0
2549 -2546 0
2549 -2547 0
2550 -1856 -2551 0
-2550 1856 0
-2550 2551 0
2552 -2544 -2551 0
-2552 2544 0
-2552 2551 0
2553 -2544 -1860 0
-2553 2544 0
-2553 1860 0
2554 -1856 -1860 -2548 0
-2554 1856 0
-2554 1860 0
-2554 2548 0
-189 1861 2550 2552 2553 2554 0
189 -1861 0
189 -2550 0
189 -2552 0
189 -2553 0
189 -2554 0
2555 -1856 -2556 0
-2555 1856 0
-2555 2556 0
2557 -2544 -1863 0
-2557 2544 0
-2557 1863 0
2558 -2544 -2556 0
-2558 2544 0
-2558 2556 0
2559 -1856 -1863 -2548 0
-2559 1856 0
-2559 1863 0
-2559 2548 0
-187 1864 2555 2557 2558 2559 0
187 -1864 0
187 -2555 0
187 -2557 0
187 -2558 0
187 -2559 0
2560 -1866 -2556 0
-2560 1866 0
-2560 2556 0
2561 -2562 -2556 0
-2561 2562 0
-2561 2556 0
2563 -2562 -1863 0
-2563 2562 0
-2563 1863 0
2564 -1866 -1863 -2548 0
-2564 1866 0
-2564 1863 0
-2564 2548 0
-190 1867 2560 2561 2563 2564 0
190 -1867 0
190 -2560 0
190 -2561 0
190 -2563 0
190 -2564 0
2565 -1860 -2562 0
-2565 1860 0
-2565 2562 0
2566 -2551 -1866 0
-2566 2551 0
-2566 1866 0
2567 -2551 -2562 0
-2567 2551 0
-2567 2562 0
2568 -1860 -1866 -2548 0
-2568 1860 0
-2568 1866 0
-2568 2548 0
-188 1869 2565 2566 2567 2568 0
188 -1869 0
188 -2565 0
188 -2566 0
188 -2567 0
188 -2568 0
2569 -1860 -2551 0
-2569 1860 0
-2569 2551 0
2570 -2551 -2551 0
-2570 2551 0
-2570 2551 0
2571 -2551 -1860 0
-2571 2551 0
-2571 1860 0
2572 -1860 -1860 -2548 0
-2572 1860 0
-2572 1860 0
-2572 2548 0
-2573 1872 2569 2570 2571 2572 0
2573 -1872 0
2573 -2569 0
2573 -2570 0
2573 -2571 0
2573 -2572 0
2574 -2575 -2576 0
-2574 2575 0
-2574 2576 0
2577 -2576 -2576 0
-2577 2576 0
-2577 2576 0
2578 -2576 -2575 0
-2578 2576 0
-2578 2575 0
2579 -2575 -2575 -2580 0
-2579 2575 0
-2579 2575 0
-2579 2580 0
-2581 2582 2574 2577 2578 2579 0
2581 -2582 0
2581 -2574 0
2581 -2577 0
2581 -2578 0
2581 -2579 0
2583 -2575 -2584 0
-2583 2575 0
-2583 2584 0
2585 -2576 -2584 0
-2585 2576 0
-2585 2584 0
2586 -2576 -2587 0
-2586 2576 0
-2586 2587 0
2588 -2575 -2587 -2580 0
-2588 2575 0
-2588 2587 0
-2588 2580 0
-614 2589 2583 2585 2586 2588 0
614 -2589 0
614 -2583 0
614 -2585 0
614 -2586 0
614 -2588 0
2590 -2575 -2591 0
-2590 2575 0
-2590 2591 0
2592 -2576 -2593 0
-2592 2576 0
-2592 2593 0
2594 -2576 -2591 0
-2594 2576 0
-2594 2591 0
2595 -2575 -2593 -2580 0
-2595 2575 0
-2595 2593 0
-2595 2580 0
-612 2596 2590 2592 2594 2595 0
612 -2596 0
612 -2590 0
612 -2592 0
612 -2594 0
612 -2595 0
2597 -2598 -2591 0
-2597 2598 0
-2597 2591 0
2599 -2600 -2591 0
-2599 2600 0
-2599 2591 0
2601 -2600 -2593 0
-2601 2600 0
-2601 2593 0
2602 -2598 -2593 -2580 0
-2602 2598 0
-2602 2593 0
-2602 2580 0
-615 2603 2597 2599 2601 2602 0
615 -2603 0
615 -2597 0
615 -2599 0
615 -2601 0
615 -2602 0
2604 -2587 -2600 0
-2604 2587 0
-2604 2600 0
2605 -2584 -2598 0
-2605 2584 0
-2605 2598 0
2606 -2584 -2600 0
-2606 2584 0
-2606 2600 0
2607 -2587 -2598 -2580 0
-2607 2587 0
-2607 2598 0
-2607 2580 0
-613 2608 2604 2605 2606 2607 0
613 -2608 0
613 -2604 0
613 -2605 0
613 -2606 0
613 -2607 0
2609 -2587 -2584 0
-2609 2587 0
-2609 2584 0
2610 -2584 -2584 0
-2610 2584 0
-2610 2584 0
2611 -2584 -2587 0
-2611 2584 0
-2611 2587 0
2612 -2587 -2587 -2580 0
-2612 2587 0
-2612 2587 0
-2612 2580 0
-2613 2614 2609 2610 2611 2612 0
2613 -2614 0
2613 -2609 0
2613 -2610 0
2613 -2611 0
2613 -2612 0
2615 -2616 -2617 0
-2615 2616 0
-2615 2617 0
2618 -2617 -2617 0
-2618 2617 0
-2618 2617 0
2619 -2617 -2616 0
-2619 2617 0
-2619 2616 0
2620 -2616 -2616 -2621 0
-2620 2616 0
-2620 2616 0
-2620 2621 0
-2622 2623 2615 2618 2619 2620 0
2622 -2623 0
2622 -2615 0
2622 -2618 0
2622 -2619 0
2622 -2620 0
2624 -2616 -2625 0
-2624 2616 0
-2624 2625 0
2626 -2617 -2625 0
-2626 2617 0
-2626 2625 0
2627 -2617 -2628 0
-2627 2617 0
-2627 2628 0
2629 -2616 -2628 -2621 0
-2629 2616 0
-2629 2628 0
-2629 2621 0
-674 2630 2624 2626 2627 2629 0
674 -2630 0
674 -2624 0
674 -2626 0
674 -2627 0
674 -2629 0
2631 -2616 -2632 0
-2631 2616 0
-2631 2632 0
2633 -2617 -2634 0
-2633 2617 0
-2633 2634 0
2635 -2617 -2632 0
-2635 2617 0
-2635 2632 0
2636 -2616 -2634 -2621 0
-2636 2616 0
-2636 2634 0
-2636 2621 0
-672 2637 2631 2633 2635 2636 0
672 -2637 0
672 -2631 0
672 -2633 0
672 -2635 0
672 -2636 0
2638 -2639 -2632 0
-2638 2639 0
-2638 2632 0
2640 -2641 -2632 0
-2640 2641 0
-2640 2632 0
2642 -2641 -2634 0
-2642 2641 0
-2642 2634 0
2643 -2639 -2634 -2621 0
-2643 2639 0
-2643 2634 0
-2643 2621 0
-675 2644 2638 2640 2642 2643 0
675 -2644 0
675 -2638 0
675 -2640 0
675 -2642 0
675 -2643 0
2645 -2628 -2641 0
-2645 2628 0
-2645 2641 0
2646 -2625 -2639 0
-2646 2625 0
-2646 2639 0
2647 -2625 -2641 0
-2647 2625 0
-2647 2641 0
2648 -2628 -2639 -2621 0
-2648 2628 0
-2648 2639 0
-2648 2621 0
-673 2649 2645 2646 2647 2648 0
673 -2649 0
673 -2645 0
673 -2646 0
673 -2647 0
673 -2648 0
2650 -2628 -2625 0
-2650 2628 0
-2650 2625 0
2651 -2625 -2625 0
-2651 2625 0
-2651 2625 0
2652 -2625 -2628 0
-2652 2625 0
-2652 2628 0
2653 -2628 -2628 -2621 0
-2653 2628 0
-2653 2628 0
-2653 2621 0
-2654 2655 2650 2651 2652 2653 0
2654 -2655 0
2654 -2650 0
2654 -2651 0
2654 -2652 0
2654 -2653 0
2656 -2657 -2658 0
-2656 2657 0
-2656 2658 0
2659 -2658 -2658 0
-2659 2658 0
-2659 2658 0
2660 -2658 -2657 0
-2660 2658 0
-2660 2657 0
2661 -2657 -2657 -2662 0
-2661 2657 0
-2661 2657 0
-2661 2662 0
-2663 2664 2656 2659 2660 2661 0
2663 -2664 0
2663 -2656 0
2663 -2659 0
2663 -2660 0
2663 -2661 0
2665 -2657 -2666 0
-2665 2657 0
-2665 2666 0
2667 -2658 -2666 0
-2667 2658 0
-2667 2666 0
2668 -2658 -2669 0
-2668 2658 0
-2668 2669 0
2670 -2657 -2669 -2662 0
-2670 2657 0
-2670 2669 0
-2670 2662 0
-364 2671 2665 2667 2668 2670 0
364 -2671 0
364 -2665 0
364 -2667 0
364 -2668 0
364 -2670 0
2672 -2657 -2673 0
-2672 2657 0
-2672 2673 0
2674 -2658 -2675 0
-2674 2658 0
-2674 2675 0
2676 -2658 -2673 0
-2676 2658 0
-2676 2673 0
2677 -2657 -2675 -2662 0
-2677 2657 0
-2677 2675 0
-2677 2662 0
-362 2678 2672 2674 2676 2677 0
362 -2678 0
362 -2672 0
362 -2674 0
362 -2676 0
362 -2677 0
2679 -2680 -2673 0
-2679 2680 0
-2679 2673 0
2681 -2682 -2673 0
-2681 2682 0
-2681 2673 0
2683 -2682 -2675 0
-2683 2682 0
-2683 2675 0
2684 -2680 -2675 -2662 0
-2684 2680 0
-2684 2675 0
-2684 2662 0
-365 2685 2679 2681 2683 2684 0
365 -2685 0
365 -2679 0
365 -2681 0
365 -2683 0
365 -2684 0
2686 -2669 -2682 0
-2686 2669 0
-2686 2682 0
2687 -2666 -2680 0
-2687 2666 0
-2687 2680 0
2688 -2666 -2682 0
-2688 2666 0
-2688 2682 0
2689 -2669 -2680 -2662 0
-2689 2669 0
-2689 2680 0
-2689 2662 0
-363 2690 2686 2687 2688 2689 0
363 -2690 0
363 -2686 0
363 -2687 0
363 -2688 0
363 -2689 0
2691 -2669 -2666 0
-2691 2669 0
-2691 2666 0
2692 -2666 -2666 0
-2692 2666 0
-2692 2666 0
2693 -2666 -2669 0
-2693 2666 0
-2693 2669 0
2694 -2669 -2669 -2662 0
-2694 2669 0
-2694 2669 0
-2694 2662 0
-2695 2696 2691 2692 2693 2694 0
2695 -2696 0
2695 -2691 0
2695 -2692 0
2695 -2693 0
2695 -2694 0
2697 -2698 -2698 0
-2697 2698 0
-2697 2698 0
-2699 2700 2697 0
2699 -2700 0
2699 -2697 0
2701 -2698 -2702 0
-2701 2698 0
-2701 2702 0
-1109 2703 2701 0
1109 -2703 0
1109 -2701 0
2704 -2698 -2705 0
-2704 2698 0
-2704 2705 0
-1107 2706 2704 0
1107 -2706 0
1107 -2704 0
2707 -2708 -2705 0
-2707 2708 0
-2707 2705 0
-1110 2709 2707 0
1110 -2709 0
1110 -2707 0
2710 -2702 -2708 0
-2710 2702 0
-2710 2708 0
-1108 2711 2710 0
1108 -2711 0
1108 -2710 0
2712 -2702 -2702 0
-2712 2702 0
-2712 2702 0
-2713 2714 2712 0
2713 -2714 0
2713 -2712 0
2715 -2716 -2716 0
-2715 2716 0
-2715 2716 0
-2717 2718 2715 0
2717 -2718 0
2717 -2715 0
2719 -2716 -2720 0
-2719 2716 0
-2719 2720 0
-1114 2721 2719 0
1114 -2721 0
1114 -2719 0
2722 -2716 -2723 0
-2722 2716 0
-2722 2723 0
-1112 2724 2722 0
1112 -2724 0
1112 -2722 0
2725 -2726 -2723 0
-2725 2726 0
-2725 2723 0
-1115 2727 2725 0
1115 -2727 0
1115 -2725 0
2728 -2720 -2726 0
-2728 2720 0
-2728 2726 0
-1113 2729 2728 0
1113 -2729 0
1113 -2728 0
2730 -2720 -2720 0
-2730 2720 0
-2730 2720 0
-2731 2732 2730 0
2731 -2732 0
2731 -2730 0
2733 -2734 -2735 0
-2733 2734 0
-2733 2735 0
2736 -2735 -2735 0
-2736 2735 0
-2736 2735 0
2737 -2735 -2734 0
-2737 2735 0
-2737 2734 0
2738 -2734 -2734 -2739 0
-2738 2734 0
-2738 2734 0
-2738 2739 0
-2740 2741 2733 2736 2737 2738 0
2740 -2741 0
2740 -2733 0
2740 -2736 0
2740 -2737 0
2740 -2738 0
2742 -2734 -2743 0
-2742 2734 0
-2742 2743 0
2744 -2735 -2743 0
-2744 2735 0
-2744 2743 0
2745 -2735 -2746 0
-2745 2735 0
-2745 2746 0
2747 -2734 -2746 -2739 0
-2747 2734 0
-2747 2746 0
-2747 2739 0
-524 2748 2742 2744 2745 2747 0
524 -2748 0
524 -2742 0
524 -2744 0
524 -2745 0
524 -2747 0
2749 -2734 -2750 0
-2749 2734 0
-2749 2750 0
2751 -2735 -2752 0
-2751 2735 0
-2751 2752 0
2753 -2735 -2750 0
-2753 2735 0
-2753 2750 0
2754 -2734 -2752 -2739 0
-2754 2734 0
-2754 2752 0
-2754 2739 0
-522 2755 2749 2751 2753 2754 0
522 -2755 0
522 -2749 0
522 -2751 0
522 -2753 0
522 -2754 0
2756 -2757 -2750 0
-2756 2757 0
-2756 2750 0
2758 -2759 -2750 0
-2758 2759 0
-2758 2750 0
2760 -2759 -2752 0
-2760 2759 0
-2760 2752 0
2761 -2757 -2752 -2739 0
-2761 2757 0
-2761 2752 0
-2761 2739 0
-525 2762 2756 2758 2760 2761 0
525 -2762 0
525 -2756 0
525 -2758 0
525 -2760 0
525 -2761 0
2763 -2746 -2759 0
-2763 2746 0
-2763 2759 0
2764 -2743 -2757 0
-2764 2743 0
-2764 2757 0
2765 -2743 -2759 0
-2765 2743 0
-2765 2759 0
2766 -2746 -2757 -2739 0
-2766 2746 0
-2766 2757 0
-2766 2739 0
-523 2767 2763 2764 2765 2766 0
523 -2767 0
523 -2763 0
523 -2764 0
523 -2765 0
523 -2766 0
2768 -2746 -2743 0
-2768 2746 0
-2768 2743 0
2769 -2743 -2743 0
-2769 2743 0
-2769 2743 0
2770 -2743 -2746 0
-2770 2743 0
-2770 2746 0
2771 -2746 -2746 -2739 0
-2771 2746 0
-2771 2746 0
-2771 2739 0
-2772 2773 2768 2769 2770 2771 0
2772 -2773 0
2772 -2768 0
2772 -2769 0
2772 -2770 0
2772 -2771 0
2774 -2775 -2775 0
-2774 2775 0
-2774 2775 0
-2776 2777 2774 0
2776 -2777 0
2776 -2774 0
2778 -2775 -2779 0
-2778 2775 0
-2778 2779 0
-1164 2780 2778 0
1164 -2780 0
1164 -2778 0
2781 -2775 -2782 0
-2781 2775 0
-2781 2782 0
-1162 2783 2781 0
1162 -2783 0
1162 -2781 0
2784 -2785 -2782 0
-2784 2785 0
-2784 2782 0
-1165 2786 2784 0
1165 -2786 0
1165 -2784 0
2787 -2779 -2785 0
-2787 2779 0
-2787 2785 0
-1163 2788 2787 0
1163 -2788 0
1163 -2787 0
2789 -2779 -2779 0
-2789 2779 0
-2789 2779 0
-2790 2791 2789 0
2790 -2791 0
2790 -2789 0
2792 -2793 -2794 0
-2792 2793 0
-2792 2794 0
2795 -2794 -2794 0
-2795 2794 0
-2795 2794 0
2796 -2794 -2793 0
-2796 2794 0
-2796 2793 0
2797 -2793 -2793 -2798 0
-2797 2793 0
-2797 2793 0
-2797 2798 0
-2799 2800 2792 2795 2796 2797 0
2799 -2800 0
2799 -2792 0
2799 -2795 0
2799 -2796 0
2799 -2797 0
2801 -2793 -2802 0
-2801 2793 0
-2801 2802 0
2803 -2794 -2802 0
-2803 2794 0
-2803 2802 0
2804 -2794 -2805 0
-2804 2794 0
-2804 2805 0
2806 -2793 -2805 -2798 0
-2806 2793 0
-2806 2805 0
-2806 2798 0
-129 2807 2801 2803 2804 2806 0
129 -2807 0
129 -2801 0
129 -2803 0
129 -2804 0
129 -2806 0
2808 -2793 -2809 0
-2808 2793 0
-2808 2809 0
2810 -2794 -2811 0
-2810 2794 0
-2810 2811 0
2812 -2794 -2809 0
-2812 2794 0
-2812 2809 0
2813 -2793 -2811 -2798 0
-2813 2793 0
-2813 2811 0
-2813 2798 0
-127 2814 2808 2810 2812 2813 0
127 -2814 0
127 -2808 0
127 -2810 0
127 -2812 0
127 -2813 0
2815 -2816 -2809 0
-2815 2816 0
-2815 2809 0
2817 -2818 -2809 0
-2817 2818 0
-2817 2809 0
2819 -2818 -2811 0
-2819 2818 0
-2819 2811 0
2820 -2816 -2811 -2798 0
-2820 2816 0
-2820 2811 0
-2820 2798 0
-130 2821 2815 2817 2819 2820 0
130 -2821 0
130 -2815 0
130 -2817 0
130 -2819 0
130 -2820 0
2822 -2805 -2818 0
-2822 2805 0
-2822 2818 0
2823 -2802 -2816 0
-2823 2802 0
-2823 2816 0
2824 -2802 -2818 0
-2824 2802 0
-2824 2818 0
2825 -2805 -2816 -2798 0
-2825 2805 0
-2825 2816 0
-2825 2798 0
-128 2826 2822 2823 2824 2825 0
128 -2826 0
128 -2822 0
128 -2823 0
128 -2824 0
128 -2825 0
2827 -2805 -2802 0
-2827 2805 0
-2827 2802 0
2828 -2802 -2802 0
-2828 2802 0
-2828 2802 0
2829 -2802 -2805 0
-2829 2802 0
-2829 2805 0
2830 -2805 -2805 -2798 0
-2830 2805 0
-2830 2805 0
-2830 2798 0
-2831 2832 2827 2828 2829 2830 0
2831 -2832 0
2831 -2827 0
2831 -2828 0
2831 -2829 0
2831 -2830 0
2833 -2834 -2834 0
-2833 2834 0
-2833 2834 0
-2835 2836 2833 0
2835 -2836 0
2835 -2833 0
2837 -2834 -2838 0
-2837 2834 0
-2837 2838 0
-694 2839 2837 0
694 -2839 0
694 -2837 0
2840 -2834 -2841 0
-2840 2834 0
-2840 2841 0
-692 2842 2840 0
692 -2842 0
692 -2840 0
2843 -2844 -2841 0
-2843 2844 0
-2843 2841 0
-695 2845 2843 0
695 -2845 0
695 -2843 0
2846 -2838 -2844 0
-2846 2838 0
-2846 2844 0
-693 2847 2846 0
693 -2847 0
693 -2846 0
2848 -2838 -2838 0
-2848 2838 0
-2848 2838 0
-2849 2850 2848 0
2849 -2850 0
2849 -2848 0
2851 -1723 -1723 0
-2851 1723 0
-2851 1723 0
-2852 1717 2851 0
2852 -1717 0
2852 -2851 0
2853 -1723 -2854 0
-2853 1723 0
-2853 2854 0
-1134 2855 2853 0
1134 -2855 0
1134 -2853 0
2856 -1723 -1722 0
-2856 1723 0
-2856 1722 0
-1132 1715 2856 0
1132 -1715 0
1132 -2856 0
2857 -1726 -1722 0
-2857 1726 0
-2857 1722 0
-1135 1725 2857 0
1135 -1725 0
1135 -2857 0
2858 -2854 -1726 0
-2858 2854 0
-2858 1726 0
-1133 2859 2858 0
1133 -2859 0
1133 -2858 0
2860 -2854 -2854 0
-2860 2854 0
-2860 2854 0
-2861 2862 2860 0
2861 -2862 0
2861 -2860 0
2863 -2864 -2864 0
-2863 2864 0
-2863 2864 0
-2865 2866 2863 0
2865 -2866 0
2865 -2863 0
2867 -2864 -2868 0
-2867 2864 0
-2867 2868 0
-634 2869 2867 0
634 -2869 0
634 -2867 0
2870 -2864 -2871 0
-2870 2864 0
-2870 2871 0
-632 2872 2870 0
632 -2872 0
632 -2870 0
2873 -2874 -2871 0
-2873 2874 0
-2873 2871 0
-635 2875 2873 0
635 -2875 0
635 -2873 0
2876 -2868 -2874 0
-2876 2868 0
-2876 2874 0
-633 2877 2876 0
633 -2877 0
633 -2876 0
2878 -2868 -2868 0
-2878 2868 0
-2878 2868 0
-2879 2880 2878 0
2879 -2880 0
2879 -2878 0
2881 -2039 -2882 0
-2881 2039 0
-2881 2882 0
2883 -2882 -2882 0
-2883 2882 0
-2883 2882 0
2884 -2882 -2039 0
-2884 2882 0
-2884 2039 0
2885 -2039 -2039 -2886 0
-2885 2039 0
-2885 2039 0
-2885 2886 0
-2887 2041 2881 2883 2884 2885 0
2887 -2041 0
2887 -2881 0
2887 -2883 0
2887 -2884 0
2887 -2885 0
2888 -2039 -2889 0
-2888 2039 0
-2888 2889 0
2890 -2882 -2889 0
-2890 2882 0
-2890 2889 0
2891 -2882 -2043 0
-2891 2882 0
-2891 2043 0
2892 -2039 -2043 -2886 0
-2892 2039 0
-2892 2043 0
-2892 2886 0
-389 2044 2888 2890 2891 2892 0
389 -2044 0
389 -2888 0
389 -2890 0
389 -2891 0
389 -2892 0
2893 -2039 -2894 0
-2893 2039 0
-2893 2894 0
2895 -2882 -2046 0
-2895 2882 0
-2895 2046 0
2896 -2882 -2894 0
-2896 2882 0
-2896 2894 0
2897 -2039 -2046 -2886 0
-2897 2039 0
-2897 2046 0
-2897 2886 0
-387 2047 2893 2895 2896 2897 0
387 -2047 0
387 -2893 0
387 -2895 0
387 -2896 0
387 -2897 0
2898 -2049 -2894 0
-2898 2049 0
-2898 2894 0
2899 -2900 -2894 0
-2899 2900 0
-2899 2894 0
2901 -2900 -2046 0
-2901 2900 0
-2901 2046 0
2902 -2049 -2046 -2886 0
-2902 2049 0
-2902 2046 0
-2902 2886 0
-390 2050 2898 2899 2901 2902 0
390 -2050 0
390 -2898 0
390 -2899 0
390 -2901 0
390 -2902 0
2903 -2043 -2900 0
-2903 2043 0
-2903 2900 0
2904 -2889 -2049 0
-2904 2889 0
-2904 2049 0
2905 -2889 -2900 0
-2905 2889 0
-2905 2900 0
2906 -2043 -2049 -2886 0
-2906 2043 0
-2906 2049 0
-2906 2886 0
-388 2052 2903 2904 2905 2906 0
388 -2052 0
388 -2903 0
388 -2904 0
388 -2905 0
388 -2906 0
2907 -2043 -2889 0
-2907 2043 0
-2907 2889 0
2908 -2889 -2889 0
-2908 2889 0
-2908 2889 0
2909 -2889 -2043 0
-2909 2889 0
-2909 2043 0
2910 -2043 -2043 -2886 0
-2910 2043 0
-2910 2043 0
-2910 2886 0
-2911 2055 2907 2908 2909 2910 0
2911 -2055 0
2911 -2907 0
2911 -2908 0
2911 -2909 0
2911 -2910 0
2912 -2913 -2913 0
-2912 2913 0
-2912 2913 0
-2914 2915 2912 0
2914 -2915 0
2914 -2912 0
2916 -2913 -2917 0
-2916 2913 0
-2916 2917 0
-664 2918 2916 0
664 -2918 0
664 -2916 0
2919 -2913 -2920 0
-2919 2913 0
-2919 2920 0
-662 2921 2919 0
662 -2921 0
662 -2919 0
2922 -2923 -2920 0
-2922 2923 0
-2922 2920 0
-665 2924 2922 0
665 -2924 0
665 -2922 0
2925 -2917 -2923 0
-2925 2917 0
-2925 2923 0
-663 2926 2925 0
663 -2926 0
663 -2925 0
2927 -2917 -2917 0
-2927 2917 0
-2927 2917 0
-2928 2929 2927 0
2928 -2929 0
2928 -2927 0
2930 -2075 -2075 0
-2930 2075 0
-2930 2075 0
-2931 2082 2930 0
2931 -2082 0
2931 -2930 0
2932 -2075 -2087 0
-2932 2075 0
-2932 2087 0
-1054 2089 2932 0
1054 -2089 0
1054 -2932 0
2933 -2075 -2093 0
-2933 2075 0
-2933 2093 0
-1052 2096 2933 0
1052 -2096 0
1052 -2933 0
2934 -2098 -2093 0
-2934 2098 0
-2934 2093 0
-1055 2103 2934 0
1055 -2103 0
1055 -2934 0
2935 -2087 -2098 0
-2935 2087 0
-2935 2098 0
-1053 2108 2935 0
1053 -2108 0
1053 -2935 0
2936 -2087 -2087 0
-2936 2087 0
-2936 2087 0
-2937 2114 2936 0
2937 -2114 0
2937 -2936 0
2938 -2939 -2940 0
-2938 2939 0
-2938 2940 0
2941 -2940 -2940 0
-2941 2940 0
-2941 2940 0
2942 -2940 -2939 0
-2942 2940 0
-2942 2939 0
2943 -2939 -2939 -2944 0
-2943 2939 0
-2943 2939 0
-2943 2944 0
-2945 2946 2938 2941 2942 2943 0
2945 -2946 0
2945 -2938 0
2945 -2941 0
2945 -2942 0
2945 -2943 0
2947 -2939 -2948 0
-2947 2939 0
-2947 2948 0
2949 -2940 -2948 0
-2949 2940 0
-2949 2948 0
2950 -2940 -2951 0
-2950 2940 0
-2950 2951 0
2952 -2939 -2951 -2944 0
-2952 2939 0
-2952 2951 0
-2952 2944 0
-124 2953 2947 2949 2950 2952 0
124 -2953 0
124 -2947 0
124 -2949 0
124 -2950 0
124 -2952 0
2954 -2939 -2955 0
-2954 2939 0
-2954 2955 0
2956 -2940 -2957 0
-2956 2940 0
-2956 2957 0
2958 -2940 -2955 0
-2958 2940 0
-2958 2955 0
2959 -2939 -2957 -2944 0
-2959 2939 0
-2959 2957 0
-2959 2944 0
-122 2960 2954 2956 2958 2959 0
122 -2960 0
122 -2954 0
122 -2956 0
122 -2958 0
122 -2959 0
2961 -2962 -2955 0
-2961 2962 0
-2961 2955 0
2963 -2964 -2955 0
-2963 2964 0
-2963 2955 0
2965 -2964 -2957 0
-2965 2964 0
-2965 2957 0
2966 -2962 -2957 -2944 0
-2966 2962 0
-2966 2957 0
-2966 2944 0
-125 2967 2961 2963 2965 2966 0
125 -2967 0
125 -2961 0
125 -2963 0
125 -2965 0
125 -2966 0
2968 -2951 -2964 0
-2968 2951 0
-2968 2964 0
2969 -2948 -2962 0
-2969 2948 0
-2969 2962 0
2970 -2948 -2964 0
-2970 2948 0
-2970 2964 0
2971 -2951 -2962 -2944 0
-2971 2951 0
-2971 2962 0
-2971 2944 0
-123 2972 2968 2969 2970 2971 0
123 -2972 0
123 -2968 0
123 -2969 0
123 -2970 0
123 -2971 0
2973 -2951 -2948 0
-2973 2951 0
-2973 2948 0
2974 -2948 -2948 0
-2974 2948 0
-2974 2948 0
2975 -2948 -2951 0
-2975 2948 0
-2975 2951 0
2976 -2951 -2951 -2944 0
-2976 2951 0
-2976 2951 0
-2976 2944 0
-2977 2978 2973 2974 2975 2976 0
2977 -2978 0
2977 -2973 0
2977 -2974 0
2977 -2975 0
2977 -2976 0
2979 -2980 -2980 0
-2979 2980 0
-2979 2980 0
-2981 2982 2979 0
2981 -2982 0
2981 -2979 0
2983 -2980 -2984 0
-2983 2980 0
-2983 2984 0
-1189 2985 2983 0
1189 -2985 0
1189 -2983 0
2986 -2980 -2987 0
-2986 2980 0
-2986 2987 0
-1187 2988 2986 0
1187 -2988 0
1187 -2986 0
2989 -2990 -2987 0
-2989 2990 0
-2989 2987 0
-1190 2991 2989 0
1190 -2991 0
1190 -2989 0
2992 -2984 -2990 0
-2992 2984 0
-2992 2990 0
-1188 2993 2992 0
1188 -2993 0
1188 -2992 0
2994 -2984 -2984 0
-2994 2984 0
-2994 2984 0
-2995 2996 2994 0
2995 -2996 0
2995 -2994 0
2997 -2998 -2998 0
-2997 2998 0
-2997 2998 0
-2999 3000 2997 0
2999 -3000 0
2999 -2997 0
3001 -2998 -3002 0
-3001 2998 0
-3001 3002 0
-739 3003 3001 0
739 -3003 0
739 -3001 0
3004 -2998 -3005 0
-3004 2998 0
-3004 3005 0
-737 3006 3004 0
737 -3006 0
737 -3004 0
3007 -3008 -3005 0
-3007 3008 0
-3007 3005 0
-740 3009 3007 0
740 -3009 0
740 -3007 0
3010 -3002 -3008 0
-3010 3002 0
-3010 3008 0
-738 3011 3010 0
738 -3011 0
738 -3010 0
3012 -3002 -3002 0
-3012 3002 0
-3012 3002 0
-3013 3014 3012 0
3013 -3014 0
3013 -3012 0
3015 -3016 -3016 0
-3015 3016 0
-3015 3016 0
-3017 3018 3015 0
3017 -3018 0
3017 -3015 0
3019 -3016 -3020 0
-3019 3016 0
-3019 3020 0
-744 3021 3019 0
744 -3021 0
744 -3019 0
3022 -3016 -3023 0
-3022 3016 0
-3022 3023 0
-742 3024 3022 0
742 -3024 0
742 -3022 0
3025 -3026 -3023 0
-3025 3026 0
-3025 3023 0
-745 3027 3025 0
745 -3027 0
745 -3025 0
3028 -3020 -3026 0
-3028 3020 0
-3028 3026 0
-743 3029 3028 0
743 -3029 0
743 -3028 0
3030 -3020 -3020 0
-3030 3020 0
-3030 3020 0
-3031 3032 3030 0
3031 -3032 0
3031 -3030 0
3033 -1524 -1524 0
-3033 1524 0
-3033 1524 0
-3034 1510 3033 0
3034 -1510 0
3034 -3033 0
3035 -1524 -1519 0
-3035 1524 0
-3035 1519 0
-409 1504 3035 0
409 -1504 0
409 -3035 0
3036 -1524 -1521 0
-3036 1524 0
-3036 1521 0
-407 1503 3036 0
407 -1503 0
407 -3036 0
3037 -1531 -1521 0
-3037 1531 0
-3037 1521 0
-410 1526 3037 0
410 -1526 0
410 -3037 0
3038 -1519 -1531 0
-3038 1519 0
-3038 1531 0
-408 1528 3038 0
408 -1528 0
408 -3038 0
3039 -1519 -1519 0
-3039 1519 0
-3039 1519 0
-3040 1508 3039 0
3040 -1508 0
3040 -3039 0
3041 -1699 -1699 0
-3041 1699 0
-3041 1699 0
-3042 1679 3041 0
3042 -1679 0
3042 -3041 0
3043 -1699 -1707 0
-3043 1699 0
-3043 1707 0
-1169 1683 3043 0
1169 -1683 0
1169 -3043 0
3044 -1699 -1702 0
-3044 1699 0
-3044 1702 0
-1167 1690 3044 0
1167 -1690 0
1167 -3044 0
3045 -1697 -1702 0
-3045 1697 0
-3045 1702 0
-1170 1692 3045 0
1170 -1692 0
1170 -3045 0
3046 -1707 -1697 0
-3046 1707 0
-3046 1697 0
-1168 1686 3046 0
1168 -1686 0
1168 -3046 0
3047 -1707 -1707 0
-3047 1707 0
-3047 1707 0
-3048 1713 3047 0
3048 -1713 0
3048 -3047 0
3049 -3050 -3050 0
-3049 3050 0
-3049 3050 0
-3051 3052 3049 0
3051 -3052 0
3051 -3049 0
3053 -3050 -3054 0
-3053 3050 0
-3053 3054 0
-989 3055 3053 0
989 -3055 0
989 -3053 0
3056 -3050 -3057 0
-3056 3050 0
-3056 3057 0
-987 3058 3056 0
987 -3058 0
987 -3056 0
3059 -3060 -3057 0
-3059 3060 0
-3059 3057 0
-990 3061 3059 0
990 -3061 0
990 -3059 0
3062 -3054 -3060 0
-3062 3054 0
-3062 3060 0
-988 3063 3062 0
988 -3063 0
988 -3062 0
3064 -3054 -3054 0
-3064 3054 0
-3064 3054 0
-3065 3066 3064 0
3065 -3066 0
3065 -3064 0
3067 -3068 -3068 0
-3067 3068 0
-3067 3068 0
-3069 3070 3067 0
3069 -3070 0
3069 -3067 0
3071 -3068 -2273 0
-3071 3068 0
-3071 2273 0
-474 3072 3071 0
474 -3072 0
474 -3071 0
3073 -3068 -2271 0
-3073 3068 0
-3073 2271 0
-472 3074 3073 0
472 -3074 0
472 -3073 0
3075 -2270 -2271 0
-3075 2270 0
-3075 2271 0
-475 2267 3075 0
475 -2267 0
475 -3075 0
3076 -2273 -2270 0
-3076 2273 0
-3076 2270 0
-473 2264 3076 0
473 -2264 0
473 -3076 0
3077 -2273 -2273 0
-3077 2273 0
-3077 2273 0
-3078 2276 3077 0
3078 -2276 0
3078 -3077 0
3079 -2913 -3080 0
-3079 2913 0
-3079 3080 0
3081 -3080 -3080 0
-3081 3080 0
-3081 3080 0
3082 -3080 -2913 0
-3082 3080 0
-3082 2913 0
3083 -2913 -2913 -3084 0
-3083 2913 0
-3083 2913 0
-3083 3084 0
-3085 2915 3079 3081 3082 3083 0
3085 -2915 0
3085 -3079 0
3085 -3081 0
3085 -3082 0
3085 -3083 0
3086 -2913 -3087 0
-3086 2913 0
-3086 3087 0
3088 -3080 -3087 0
-3088 3080 0
-3088 3087 0
3089 -3080 -2917 0
-3089 3080 0
-3089 2917 0
3090 -2913 -2917 -3084 0
-3090 2913 0
-3090 2917 0
-3090 3084 0
-274 2918 3086 3088 3089 3090 0
274 -2918 0
274 -3086 0
274 -3088 0
274 -3089 0
274 -3090 0
3091 -2913 -3092 0
-3091 2913 0
-3091 3092 0
3093 -3080 -2920 0
-3093 3080 0
-3093 2920 0
3094 -3080 -3092 0
-3094 3080 0
-3094 3092 0
3095 -2913 -2920 -3084 0
-3095 2913 0
-3095 2920 0
-3095 3084 0
-272 2921 3091 3093 3094 3095 0
272 -2921 0
272 -3091 0
272 -3093 0
272 -3094 0
272 -3095 0
3096 -2923 -3092 0
-3096 2923 0
-3096 3092 0
3097 -3098 -3092 0
-3097 3098 0
-3097 3092 0
3099 -3098 -2920 0
-3099 3098 0
-3099 2920 0
3100 -2923 -2920 -3084 0
-3100 2923 0
-3100 2920 0
-3100 3084 0
-275 2924 3096 3097 3099 3100 0
275 -2924 0
275 -3096 0
275 -3097 0
275 -3099 0
275 -3100 0
3101 -2917 -3098 0
-3101 2917 0
-3101 3098 0
3102 -3087 -2923 0
-3102 3087 0
-3102 2923 0
3103 -3087 -3098 0
-3103 3087 0
-3103 3098 0
3104 -2917 -2923 -3084 0
-3104 2917 0
-3104 2923 0
-3104 3084 0
-273 2926 3101 3102 3103 3104 0
273 -2926 0
273 -3101 0
273 -3102 0
273 -3103 0
273 -3104 0
3105 -2917 -3087 0
-3105 2917 0
-3105 3087 0
3106 -3087 -3087 0
-3106 3087 0
-3106 3087 0
3107 -3087 -2917 0
-3107 3087 0
-3107 2917 0
3108 -2917 -2917 -3084 0
-3108 2917 0
-3108 2917 0
-3108 3084 0
-3109 2929 3105 3106 3107 3108 0
3109 -2929 0
3109 -3105 0
3109 -3106 0
3109 -3107 0
3109 -3108 0
3110 -2260 -3111 0
-3110 2260 0
-3110 3111 0
3112 -3111 -3111 0
-3112 3111 0
-3112 3111 0
3113 -3111 -2260 0
-3113 3111 0
-3113 2260 0
3114 -2260 -2260 -3070 0
-3114 2260 0
-3114 2260 0
-3114 3070 0
-3115 2262 3110 3112 3113 3114 0
3115 -2262 0
3115 -3110 0
3115 -3112 0
3115 -3113 0
3115 -3114 0
3116 -2260 -3072 0
-3116 2260 0
-3116 3072 0
3117 -3111 -3072 0
-3117 3111 0
-3117 3072 0
3118 -3111 -2264 0
-3118 3111 0
-3118 2264 0
3119 -2260 -2264 -3070 0
-3119 2260 0
-3119 2264 0
-3119 3070 0
-229 2265 3116 3117 3118 3119 0
229 -2265 0
229 -3116 0
229 -3117 0
229 -3118 0
229 -3119 0
3120 -2260 -3074 0
-3120 2260 0
-3120 3074 0
3121 -3111 -2267 0
-3121 3111 0
-3121 2267 0
3122 -3111 -3074 0
-3122 3111 0
-3122 3074 0
3123 -2260 -2267 -3070 0
-3123 2260 0
-3123 2267 0
-3123 3070 0
-227 2268 3120 3121 3122 3123 0
227 -2268 0
227 -3120 0
227 -3121 0
227 -3122 0
227 -3123 0
3124 -2270 -3074 0
-3124 2270 0
-3124 3074 0
3125 -3068 -3074 0
-3125 3068 0
-3125 3074 0
3126 -3068 -2267 0
-3126 3068 0
-3126 2267 0
3127 -2270 -2267 -3070 0
-3127 2270 0
-3127 2267 0
-3127 3070 0
-230 2271 3124 3125 3126 3127 0
230 -2271 0
230 -3124 0
230 -3125 0
230 -3126 0
230 -3127 0
3128 -2264 -3068 0
-3128 2264 0
-3128 3068 0
3129 -3072 -2270 0
-3129 3072 0
-3129 2270 0
3130 -3072 -3068 0
-3130 3072 0
-3130 3068 0
3131 -2264 -2270 -3070 0
-3131 2264 0
-3131 2270 0
-3131 3070 0
-228 2273 3128 3129 3130 3131 0
228 -2273 0
228 -3128 0
228 -3129 0
228 -3130 0
228 -3131 0
3132 -2264 -3072 0
-3132 2264 0
-3132 3072 0
3133 -3072 -3072 0
-3133 3072 0
-3133 3072 0
3134 -3072 -2264 0
-3134 3072 0
-3134 2264 0
3135 -2264 -2264 -3070 0
-3135 2264 0
-3135 2264 0
-3135 3070 0
-3136 2276 3132 3133 3134 3135 0
3136 -2276 0
3136 -3132 0
3136 -3133 0
3136 -3134 0
3136 -3135 0
3137 -2759 -2735 0
-3137 2759 0
-3137 2735 0
2736 -2735 -2735 0
-2736 2735 0
-2736 2735 0
3138 -2735 -2759 0
-3138 2735 0
-3138 2759 0
3139 -2759 -2759 -2741 0
-3139 2759 0
-3139 2759 0
-3139 2741 0
-3140 2739 3137 2736 3138 3139 0
3140 -2739 0
3140 -3137 0
3140 -2736 0
3140 -3138 0
3140 -3139 0
3141 -2759 -2748 0
-3141 2759 0
-3141 2748 0
3142 -2735 -2748 0
-3142 2735 0
-3142 2748 0
3143 -2735 -2767 0
-3143 2735 0
-3143 2767 0
3144 -2759 -2767 -2741 0
-3144 2759 0
-3144 2767 0
-3144 2741 0
-644 2743 3141 3142 3143 3144 0
644 -2743 0
644 -3141 0
644 -3142 0
644 -3143 0
644 -3144 0
3145 -2759 -2755 0
-3145 2759 0
-3145 2755 0
3146 -2735 -2762 0
-3146 2735 0
-3146 2762 0
3147 -2735 -2755 0
-3147 2735 0
-3147 2755 0
3148 -2759 -2762 -2741 0
-3148 2759 0
-3148 2762 0
-3148 2741 0
-642 2750 3145 3146 3147 3148 0
642 -2750 0
642 -3145 0
642 -3146 0
642 -3147 0
642 -3148 0
3149 -2757 -2755 0
-3149 2757 0
-3149 2755 0
3150 -2734 -2755 0
-3150 2734 0
-3150 2755 0
3151 -2734 -2762 0
-3151 2734 0
-3151 2762 0
3152 -2757 -2762 -2741 0
-3152 2757 0
-3152 2762 0
-3152 2741 0
-645 2752 3149 3150 3151 3152 0
645 -2752 0
645 -3149 0
645 -3150 0
645 -3151 0
645 -3152 0
3153 -2767 -2734 0
-3153 2767 0
-3153 2734 0
3154 -2748 -2757 0
-3154 2748 0
-3154 2757 0
3155 -2748 -2734 0
-3155 2748 0
-3155 2734 0
3156 -2767 -2757 -2741 0
-3156 2767 0
-3156 2757 0
-3156 2741 0
-643 2746 3153 3154 3155 3156 0
643 -2746 0
643 -3153 0
643 -3154 0
643 -3155 0
643 -3156 0
3157 -2767 -2748 0
-3157 2767 0
-3157 2748 0
3158 -2748 -2748 0
-3158 2748 0
-3158 2748 0
3159 -2748 -2767 0
-3159 2748 0
-3159 2767 0
3160 -2767 -2767 -2741 0
-3160 2767 0
-3160 2767 0
-3160 2741 0
-3161 2773 3157 3158 3159 3160 0
3161 -2773 0
3161 -3157 0
3161 -3158 0
3161 -3159 0
3161 -3160 0
3162 -1840 -1816 0
-3162 1840 0
-3162 1816 0
1817 -1816 -1816 0
-1817 1816 0
-1817 1816 0
3163 -1816 -1840 0
-3163 1816 0
-3163 1840 0
3164 -1840 -1840 -1822 0
-3164 1840 0
-3164 1840 0
-3164 1822 0
-3165 1820 3162 1817 3163 3164 0
3165 -1820 0
3165 -3162 0
3165 -1817 0
3165 -3163 0
3165 -3164 0
3166 -1840 -1829 0
-3166 1840 0
-3166 1829 0
3167 -1816 -1829 0
-3167 1816 0
-3167 1829 0
3168 -1816 -1848 0
-3168 1816 0
-3168 1848 0
3169 -1840 -1848 -1822 0
-3169 1840 0
-3169 1848 0
-3169 1822 0
-459 1824 3166 3167 3168 3169 0
459 -1824 0
459 -3166 0
459 -3167 0
459 -3168 0
459 -3169 0
3170 -1840 -1836 0
-3170 1840 0
-3170 1836 0
3171 -1816 -1843 0
-3171 1816 0
-3171 1843 0
3172 -1816 -1836 0
-3172 1816 0
-3172 1836 0
3173 -1840 -1843 -1822 0
-3173 1840 0
-3173 1843 0
-3173 1822 0
-457 1831 3170 3171 3172 3173 0
457 -1831 0
457 -3170 0
457 -3171 0
457 -3172 0
457 -3173 0
3174 -1838 -1836 0
-3174 1838 0
-3174 1836 0
3175 -1815 -1836 0
-3175 1815 0
-3175 1836 0
3176 -1815 -1843 0
-3176 1815 0
-3176 1843 0
3177 -1838 -1843 -1822 0
-3177 1838 0
-3177 1843 0
-3177 1822 0
-460 1833 3174 3175 3176 3177 0
460 -1833 0
460 -3174 0
460 -3175 0
460 -3176 0
460 -3177 0
3178 -1848 -1815 0
-3178 1848 0
-3178 1815 0
3179 -1829 -1838 0
-3179 1829 0
-3179 1838 0
3180 -1829 -1815 0
-3180 1829 0
-3180 1815 0
3181 -1848 -1838 -1822 0
-3181 1848 0
-3181 1838 0
-3181 1822 0
-458 1827 3178 3179 3180 3181 0
458 -1827 0
458 -3178 0
458 -3179 0
458 -3180 0
458 -3181 0
3182 -1848 -1829 0
-3182 1848 0
-3182 1829 0
3183 -1829 -1829 0
-3183 1829 0
-3183 1829 0
3184 -1829 -1848 0
-3184 1829 0
-3184 1848 0
3185 -1848 -1848 -1822 0
-3185 1848 0
-3185 1848 0
-3185 1822 0
-3186 1854 3182 3183 3184 3185 0
3186 -1854 0
3186 -3182 0
3186 -3183 0
3186 -3184 0
3186 -3185 0
3187 -3188 -3189 0
-3187 3188 0
-3187 3189 0
3190 -3189 -3189 0
-3190 3189 0
-3190 3189 0
3191 -3189 -3188 0
-3191 3189 0
-3191 3188 0
3192 -3188 -3188 -3193 0
-3192 3188 0
-3192 3188 0
-3192 3193 0
-3194 3195 3187 3190 3191 3192 0
3194 -3195 0
3194 -3187 0
3194 -3190 0
3194 -3191 0
3194 -3192 0
3196 -3188 -3197 0
-3196 3188 0
-3196 3197 0
3198 -3189 -3197 0
-3198 3189 0
-3198 3197 0
3199 -3189 -3200 0
-3199 3189 0
-3199 3200 0
3201 -3188 -3200 -3193 0
-3201 3188 0
-3201 3200 0
-3201 3193 0
-4 3202 3196 3198 3199 3201 0
4 -3202 0
4 -3196 0
4 -3198 0
4 -3199 0
4 -3201 0
3203 -3188 -3204 0
-3203 3188 0
-3203 3204 0
3205 -3189 -3206 0
-3205 3189 0
-3205 3206 0
3207 -3189 -3204 0
-3207 3189 0
-3207 3204 0
3208 -3188 -3206 -3193 0
-3208 3188 0
-3208 3206 0
-3208 3193 0
-2 3209 3203 3205 3207 3208 0
2 -3209 0
2 -3203 0
2 -3205 0
2 -3207 0
2 -3208 0
3210 -3211 -3204 0
-3210 3211 0
-3210 3204 0
3212 -3213 -3204 0
-3212 3213 0
-3212 3204 0
3214 -3213 -3206 0
-3214 3213 0
-3214 3206 0
3215 -3211 -3206 -3193 0
-3215 3211 0
-3215 3206 0
-3215 3193 0
-5 3216 3210 3212 3214 3215 0
5 -3216 0
5 -3210 0
5 -3212 0
5 -3214 0
5 -3215 0
3217 -3200 -3213 0
-3217 3200 0
-3217 3213 0
3218 -3197 -3211 0
-3218 3197 0
-3218 3211 0
3219 -3197 -3213 0
-3219 3197 0
-3219 3213 0
3220 -3200 -3211 -3193 0
-3220 3200 0
-3220 3211 0
-3220 3193 0
-3 3221 3217 3218 3219 3220 0
3 -3221 0
3 -3217 0
3 -3218 0
3 -3219 0
3 -3220 0
3222 -3200 -3197 0
-3222 3200 0
-3222 3197 0
3223 -3197 -3197 0
-3223 3197 0
-3223 3197 0
3224 -3197 -3200 0
-3224 3197 0
-3224 3200 0
3225 -3200 -3200 -3193 0
-3225 3200 0
-3225 3200 0
-3225 3193 0
-3226 3227 3222 3223 3224 3225 0
3226 -3227 0
3226 -3222 0
3226 -3223 0
3226 -3224 0
3226 -3225 0
3228 -3229 -3230 0
-3228 3229 0
-3228 3230 0
3231 -3230 -3230 0
-3231 3230 0
-3231 3230 0
3232 -3230 -3229 0
-3232 3230 0
-3232 3229 0
3233 -3229 -3229 -3234 0
-3233 3229 0
-3233 3229 0
-3233 3234 0
-3235 3236 3228 3231 3232 3233 0
3235 -3236 0
3235 -3228 0
3235 -3231 0
3235 -3232 0
3235 -3233 0
3237 -3229 -3238 0
-3237 3229 0
-3237 3238 0
3239 -3230 -3238 0
-3239 3230 0
-3239 3238 0
3240 -3230 -3241 0
-3240 3230 0
-3240 3241 0
3242 -3229 -3241 -3234 0
-3242 3229 0
-3242 3241 0
-3242 3234 0
-779 3243 3237 3239 3240 3242 0
779 -3243 0
779 -3237 0
779 -3239 0
779 -3240 0
779 -3242 0
3244 -3229 -3245 0
-3244 3229 0
-3244 3245 0
3246 -3230 -3247 0
-3246 3230 0
-3246 3247 0
3248 -3230 -3245 0
-3248 3230 0
-3248 3245 0
3249 -3229 -3247 -3234 0
-3249 3229 0
-3249 3247 0
-3249 3234 0
-777 3250 3244 3246 3248 3249 0
777 -3250 0
777 -3244 0
777 -3246 0
777 -3248 0
777 -3249 0
3251 -3252 -3245 0
-3251 3252 0
-3251 3245 0
3253 -3254 -3245 0
-3253 3254 0
-3253 3245 0
3255 -3254 -3247 0
-3255 3254 0
-3255 3247 0
3256 -3252 -3247 -3234 0
-3256 3252 0
-3256 3247 0
-3256 3234 0
-780 3257 3251 3253 3255 3256 0
780 -3257 0
780 -3251 0
780 -3253 0
780 -3255 0
780 -3256 0
3258 -3241 -3254 0
-3258 3241 0
-3258 3254 0
3259 -3238 -3252 0
-3259 3238 0
-3259 3252 0
3260 -3238 -3254 0
-3260 3238 0
-3260 3254 0
3261 -3241 -3252 -3234 0
-3261 3241 0
-3261 3252 0
-3261 3234 0
-778 3262 3258 3259 3260 3261 0
778 -3262 0
778 -3258 0
778 -3259 0
778 -3260 0
778 -3261 0
3263 -3241 -3238 0
-3263 3241 0
-3263 3238 0
3264 -3238 -3238 0
-3264 3238 0
-3264 3238 0
3265 -3238 -3241 0
-3265 3238 0
-3265 3241 0
3266 -3241 -3241 -3234 0
-3266 3241 0
-3266 3241 0
-3266 3234 0
-3267 3268 3263 3264 3265 3266 0
3267 -3268 0
3267 -3263 0
3267 -3264 0
3267 -3265 0
3267 -3266 0
3269 -2395 -3270 0
-3269 2395 0
-3269 3270 0
3271 -3270 -3270 0
-3271 3270 0
-3271 3270 0
3272 -3270 -2395 0
-3272 3270 0
-3272 2395 0
3273 -2395 -2395 -3274 0
-3273 2395 0
-3273 2395 0
-3273 3274 0
-3275 2397 3269 3271 3272 3273 0
3275 -2397 0
3275 -3269 0
3275 -3271 0
3275 -3272 0
3275 -3273 0
3276 -2395 -3277 0
-3276 2395 0
-3276 3277 0
3278 -3270 -3277 0
-3278 3270 0
-3278 3277 0
3279 -3270 -2399 0
-3279 3270 0
-3279 2399 0
3280 -2395 -2399 -3274 0
-3280 2395 0
-3280 2399 0
-3280 3274 0
-794 2400 3276 3278 3279 3280 0
794 -2400 0
794 -3276 0
794 -3278 0
794 -3279 0
794 -3280 0
3281 -2395 -3282 0
-3281 2395 0
-3281 3282 0
3283 -3270 -2402 0
-3283 3270 0
-3283 2402 0
3284 -3270 -3282 0
-3284 3270 0
-3284 3282 0
3285 -2395 -2402 -3274 0
-3285 2395 0
-3285 2402 0
-3285 3274 0
-792 2403 3281 3283 3284 3285 0
792 -2403 0
792 -3281 0
792 -3283 0
792 -3284 0
792 -3285 0
3286 -2405 -3282 0
-3286 2405 0
-3286 3282 0
3287 -3288 -3282 0
-3287 3288 0
-3287 3282 0
3289 -3288 -2402 0
-3289 3288 0
-3289 2402 0
3290 -2405 -2402 -3274 0
-3290 2405 0
-3290 2402 0
-3290 3274 0
-795 2406 3286 3287 3289 3290 0
795 -2406 0
795 -3286 0
795 -3287 0
795 -3289 0
795 -3290 0
3291 -2399 -3288 0
-3291 2399 0
-3291 3288 0
3292 -3277 -2405 0
-3292 3277 0
-3292 2405 0
3293 -3277 -3288 0
-3293 3277 0
-3293 3288 0
3294 -2399 -2405 -3274 0
-3294 2399 0
-3294 2405 0
-3294 3274 0
-793 2408 3291 3292 3293 3294 0
793 -2408 0
793 -3291 0
793 -3292 0
793 -3293 0
793 -3294 0
3295 -2399 -3277 0
-3295 2399 0
-3295 3277 0
3296 -3277 -3277 0
-3296 3277 0
-3296 3277 0
3297 -3277 -2399 0
-3297 3277 0
-3297 2399 0
3298 -2399 -2399 -3274 0
-3298 2399 0
-3298 2399 0
-3298 3274 0
-3299 2411 3295 3296 3297 3298 0
3299 -2411 0
3299 -3295 0
3299 -3296 0
3299 -3297 0
3299 -3298 0
3300 -1715 -2855 0
-3300 1715 0
-3300 2855 0
3301 -2855 -2855 0
-3301 2855 0
-3301 2855 0
3302 -2855 -1715 0
-3302 2855 0
-3302 1715 0
3303 -1715 -1715 -2862 0
-3303 1715 0
-3303 1715 0
-3303 2862 0
-3304 1717 3300 3301 3302 3303 0
3304 -1717 0
3304 -3300 0
3304 -3301 0
3304 -3302 0
3304 -3303 0
3305 -1715 -3306 0
-3305 1715 0
-3305 3306 0
3307 -2855 -3306 0
-3307 2855 0
-3307 3306 0
3308 -2855 -1719 0
-3308 2855 0
-3308 1719 0
3309 -1715 -1719 -2862 0
-3309 1715 0
-3309 1719 0
-3309 2862 0
-844 1720 3305 3307 3308 3309 0
844 -1720 0
844 -3305 0
844 -3307 0
844 -3308 0
844 -3309 0
3310 -1715 -2854 0
-3310 1715 0
-3310 2854 0
3311 -2855 -1722 0
-3311 2855 0
-3311 1722 0
3312 -2855 -2854 0
-3312 2855 0
-3312 2854 0
3313 -1715 -1722 -2862 0
-3313 1715 0
-3313 1722 0
-3313 2862 0
-842 1723 3310 3311 3312 3313 0
842 -1723 0
842 -3310 0
842 -3311 0
842 -3312 0
842 -3313 0
3314 -1725 -2854 0
-3314 1725 0
-3314 2854 0
3315 -2859 -2854 0
-3315 2859 0
-3315 2854 0
3316 -2859 -1722 0
-3316 2859 0
-3316 1722 0
3317 -1725 -1722 -2862 0
-3317 1725 0
-3317 1722 0
-3317 2862 0
-845 1726 3314 3315 3316 3317 0
845 -1726 0
845 -3314 0
845 -3315 0
845 -3316 0
845 -3317 0
3318 -1719 -2859 0
-3318 1719 0
-3318 2859 0
3319 -3306 -1725 0
-3319 3306 0
-3319 1725 0
3320 -3306 -2859 0
-3320 3306 0
-3320 2859 0
3321 -1719 -1725 -2862 0
-3321 1719 0
-3321 1725 0
-3321 2862 0
-843 1728 3318 3319 3320 3321 0
843 -1728 0
843 -3318 0
843 -3319 0
843 -3320 0
843 -3321 0
3322 -1719 -3306 0
-3322 1719 0
-3322 3306 0
3323 -3306 -3306 0
-3323 3306 0
-3323 3306 0
3324 -3306 -1719 0
-3324 3306 0
-3324 1719 0
3325 -1719 -1719 -2862 0
-3325 1719 0
-3325 1719 0
-3325 2862 0
-3326 1731 3322 3323 3324 3325 0
3326 -1731 0
3326 -3322 0
3326 -3323 0
3326 -3324 0
3326 -3325 0
3327 -2562 -2562 0
-3327 2562 0
-3327 2562 0
-3328 2548 3327 0
3328 -2548 0
3328 -3327 0
3329 -2562 -1869 0
-3329 2562 0
-3329 1869 0
-414 2551 3329 0
414 -2551 0
414 -3329 0
3330 -2562 -1867 0
-3330 2562 0
-3330 1867 0
-412 2556 3330 0
412 -2556 0
412 -3330 0
3331 -1866 -1867 0
-3331 1866 0
-3331 1867 0
-415 1863 3331 0
415 -1863 0
415 -3331 0
3332 -1869 -1866 0
-3332 1869 0
-3332 1866 0
-413 1860 3332 0
413 -1860 0
413 -3332 0
3333 -1869 -1869 0
-3333 1869 0
-3333 1869 0
-3334 1872 3333 0
3334 -1872 0
3334 -3333 0
3335 -2369 -3336 0
-3335 2369 0
-3335 3336 0
3337 -3336 -3336 0
-3337 3336 0
-3337 3336 0
3338 -3336 -2369 0
-3338 3336 0
-3338 2369 0
3339 -2369 -2369 -3340 0
-3339 2369 0
-3339 2369 0
-3339 3340 0
-3341 2371 3335 3337 3338 3339 0
3341 -2371 0
3341 -3335 0
3341 -3337 0
3341 -3338 0
3341 -3339 0
3342 -2369 -3343 0
-3342 2369 0
-3342 3343 0
3344 -3336 -3343 0
-3344 3336 0
-3344 3343 0
3345 -3336 -2373 0
-3345 3336 0
-3345 2373 0
3346 -2369 -2373 -3340 0
-3346 2369 0
-3346 2373 0
-3346 3340 0
-344 2374 3342 3344 3345 3346 0
344 -2374 0
344 -3342 0
344 -3344 0
344 -3345 0
344 -3346 0
3347 -2369 -3348 0
-3347 2369 0
-3347 3348 0
3349 -3336 -2376 0
-3349 3336 0
-3349 2376 0
3350 -3336 -3348 0
-3350 3336 0
-3350 3348 0
3351 -2369 -2376 -3340 0
-3351 2369 0
-3351 2376 0
-3351 3340 0
-342 2377 3347 3349 3350 3351 0
342 -2377 0
342 -3347 0
342 -3349 0
342 -3350 0
342 -3351 0
3352 -2379 -3348 0
-3352 2379 0
-3352 3348 0
3353 -3354 -3348 0
-3353 3354 0
-3353 3348 0
3355 -3354 -2376 0
-3355 3354 0
-3355 2376 0
3356 -2379 -2376 -3340 0
-3356 2379 0
-3356 2376 0
-3356 3340 0
-345 2380 3352 3353 3355 3356 0
345 -2380 0
345 -3352 0
345 -3353 0
345 -3355 0
345 -3356 0
3357 -2373 -3354 0
-3357 2373 0
-3357 3354 0
3358 -3343 -2379 0
-3358 3343 0
-3358 2379 0
3359 -3343 -3354 0
-3359 3343 0
-3359 3354 0
3360 -2373 -2379 -3340 0
-3360 2373 0
-3360 2379 0
-3360 3340 0
-343 2382 3357 3358 3359 3360 0
343 -2382 0
343 -3357 0
343 -3358 0
343 -3359 0
343 -3360 0
3361 -2373 -3343 0
-3361 2373 0
-3361 3343 0
3362 -3343 -3343 0
-3362 3343 0
-3362 3343 0
3363 -3343 -2373 0
-3363 3343 0
-3363 2373 0
3364 -2373 -2373 -3340 0
-3364 2373 0
-3364 2373 0
-3364 3340 0
-3365 2385 3361 3362 3363 3364 0
3365 -2385 0
3365 -3361 0
3365 -3362 0
3365 -3363 0
3365 -3364 0
3366 -2759 -2759 0
-3366 2759 0
-3366 2759 0
-3367 2739 3366 0
3367 -2739 0
3367 -3366 0
3368 -2759 -2767 0
-3368 2759 0
-3368 2767 0
-999 2743 3368 0
999 -2743 0
999 -3368 0
3369 -2759 -2762 0
-3369 2759 0
-3369 2762 0
-997 2750 3369 0
997 -2750 0
997 -3369 0
3370 -2757 -2762 0
-3370 2757 0
-3370 2762 0
-1000 2752 3370 0
1000 -2752 0
1000 -3370 0
3371 -2767 -2757 0
-3371 2767 0
-3371 2757 0
-998 2746 3371 0
998 -2746 0
998 -3371 0
3372 -2767 -2767 0
-3372 2767 0
-3372 2767 0
-3373 2773 3372 0
3373 -2773 0
3373 -3372 0
3374 -1259 -3375 0
-3374 1259 0
-3374 3375 0
3376 -3375 -3375 0
-3376 3375 0
-3376 3375 0
3377 -3375 -1259 0
-3377 3375 0
-3377 1259 0
3378 -1259 -1259 -1646 0
-3378 1259 0
-3378 1259 0
-3378 1646 0
-3379 1261 3374 3376 3377 3378 0
3379 -1261 0
3379 -3374 0
3379 -3376 0
3379 -3377 0
3379 -3378 0
3380 -1259 -1648 0
-3380 1259 0
-3380 1648 0
3381 -3375 -1648 0
-3381 3375 0
-3381 1648 0
3382 -3375 -1263 0
-3382 3375 0
-3382 1263 0
3383 -1259 -1263 -1646 0
-3383 1259 0
-3383 1263 0
-3383 1646 0
-249 1264 3380 3381 3382 3383 0
249 -1264 0
249 -3380 0
249 -3381 0
249 -3382 0
249 -3383 0
3384 -1259 -1650 0
-3384 1259 0
-3384 1650 0
3385 -3375 -1266 0
-3385 3375 0
-3385 1266 0
3386 -3375 -1650 0
-3386 3375 0
-3386 1650 0
3387 -1259 -1266 -1646 0
-3387 1259 0
-3387 1266 0
-3387 1646 0
-247 1267 3384 3385 3386 3387 0
247 -1267 0
247 -3384 0
247 -3385 0
247 -3386 0
247 -3387 0
3388 -1269 -1650 0
-3388 1269 0
-3388 1650 0
3389 -1644 -1650 0
-3389 1644 0
-3389 1650 0
3390 -1644 -1266 0
-3390 1644 0
-3390 1266 0
3391 -1269 -1266 -1646 0
-3391 1269 0
-3391 1266 0
-3391 1646 0
-250 1270 3388 3389 3390 3391 0
250 -1270 0
250 -3388 0
250 -3389 0
250 -3390 0
250 -3391 0
3392 -1263 -1644 0
-3392 1263 0
-3392 1644 0
3393 -1648 -1269 0
-3393 1648 0
-3393 1269 0
3394 -1648 -1644 0
-3394 1648 0
-3394 1644 0
3395 -1263 -1269 -1646 0
-3395 1263 0
-3395 1269 0
-3395 1646 0
-248 1272 3392 3393 3394 3395 0
248 -1272 0
248 -3392 0
248 -3393 0
248 -3394 0
248 -3395 0
3396 -1263 -1648 0
-3396 1263 0
-3396 1648 0
3397 -1648 -1648 0
-3397 1648 0
-3397 1648 0
3398 -1648 -1263 0
-3398 1648 0
-3398 1263 0
3399 -1263 -1263 -1646 0
-3399 1263 0
-3399 1263 0
-3399 1646 0
-3400 1275 3396 3397 3398 3399 0
3400 -1275 0
3400 -3396 0
3400 -3397 0
3400 -3398 0
3400 -3399 0
3401 -3402 -3402 0
-3401 3402 0
-3401 3402 0
-3403 3404 3401 0
3403 -3404 0
3403 -3401 0
3405 -3402 -3406 0
-3405 3402 0
-3405 3406 0
-1119 3407 3405 0
1119 -3407 0
1119 -3405 0
3408 -3402 -3409 0
-3408 3402 0
-3408 3409 0
-1117 3410 3408 0
1117 -3410 0
1117 -3408 0
3411 -3412 -3409 0
-3411 3412 0
-3411 3409 0
-1120 3413 3411 0
1120 -3413 0
1120 -3411 0
3414 -3406 -3412 0
-3414 3406 0
-3414 3412 0
-1118 3415 3414 0
1118 -3415 0
1118 -3414 0
3416 -3406 -3406 0
-3416 3406 0
-3416 3406 0
-3417 3418 3416 0
3417 -3418 0
3417 -3416 0
3419 -3420 -3421 0
-3419 3420 0
-3419 3421 0
3422 -3421 -3421 0
-3422 3421 0
-3422 3421 0
3423 -3421 -3420 0
-3423 3421 0
-3423 3420 0
3424 -3420 -3420 -3425 0
-3424 3420 0
-3424 3420 0
-3424 3425 0
-3426 3427 3419 3422 3423 3424 0
3426 -3427 0
3426 -3419 0
3426 -3422 0
3426 -3423 0
3426 -3424 0
3428 -3420 -3429 0
-3428 3420 0
-3428 3429 0
3430 -3421 -3429 0
-3430 3421 0
-3430 3429 0
3431 -3421 -3432 0
-3431 3421 0
-3431 3432 0
3433 -3420 -3432 -3425 0
-3433 3420 0
-3433 3432 0
-3433 3425 0
-1044 3434 3428 3430 3431 3433 0
1044 -3434 0
1044 -3428 0
1044 -3430 0
1044 -3431 0
1044 -3433 0
3435 -3420 -3436 0
-3435 3420 0
-3435 3436 0
3437 -3421 -3438 0
-3437 3421 0
-3437 3438 0
3439 -3421 -3436 0
-3439 3421 0
-3439 3436 0
3440 -3420 -3438 -3425 0
-3440 3420 0
-3440 3438 0
-3440 3425 0
-1042 3441 3435 3437 3439 3440 0
1042 -3441 0
1042 -3435 0
1042 -3437 0
1042 -3439 0
1042 -3440 0
3442 -3443 -3436 0
-3442 3443 0
-3442 3436 0
3444 -3445 -3436 0
-3444 3445 0
-3444 3436 0
3446 -3445 -3438 0
-3446 3445 0
-3446 3438 0
3447 -3443 -3438 -3425 0
-3447 3443 0
-3447 3438 0
-3447 3425 0
-1045 3448 3442 3444 3446 3447 0
1045 -3448 0
1045 -3442 0
1045 -3444 0
1045 -3446 0
1045 -3447 0
3449 -3432 -3445 0
-3449 3432 0
-3449 3445 0
3450 -3429 -3443 0
-3450 3429 0
-3450 3443 0
3451 -3429 -3445 0
-3451 3429 0
-3451 3445 0
3452 -3432 -3443 -3425 0
-3452 3432 0
-3452 3443 0
-3452 3425 0
-1043 3453 3449 3450 3451 3452 0
1043 -3453 0
1043 -3449 0
1043 -3450 0
1043 -3451 0
1043 -3452 0
3454 -3432 -3429 0
-3454 3432 0
-3454 3429 0
3455 -3429 -3429 0
-3455 3429 0
-3455 3429 0
3456 -3429 -3432 0
-3456 3429 0
-3456 3432 0
3457 -3432 -3432 -3425 0
-3457 3432 0
-3457 3432 0
-3457 3425 0
-3458 3459 3454 3455 3456 3457 0
3458 -3459 0
3458 -3454 0
3458 -3455 0
3458 -3456 0
3458 -3457 0
3460 -3461 -3461 0
-3460 3461 0
-3460 3461 0
-3462 3463 3460 0
3462 -3463 0
3462 -3460 0
3464 -3461 -3465 0
-3464 3461 0
-3464 3465 0
-709 3466 3464 0
709 -3466 0
709 -3464 0
3467 -3461 -3468 0
-3467 3461 0
-3467 3468 0
-707 3469 3467 0
707 -3469 0
707 -3467 0
3470 -3471 -3468 0
-3470 3471 0
-3470 3468 0
-710 3472 3470 0
710 -3472 0
710 -3470 0
3473 -3465 -3471 0
-3473 3465 0
-3473 3471 0
-708 3474 3473 0
708 -3474 0
708 -3473 0
3475 -3465 -3465 0
-3475 3465 0
-3475 3465 0
-3476 3477 3475 0
3476 -3477 0
3476 -3475 0
3478 -2057 -3479 0
-3478 2057 0
-3478 3479 0
3480 -3479 -3479 0
-3480 3479 0
-3480 3479 0
3481 -3479 -2057 0
-3481 3479 0
-3481 2057 0
3482 -2057 -2057 -3483 0
-3482 2057 0
-3482 2057 0
-3482 3483 0
-3484 2059 3478 3480 3481 3482 0
3484 -2059 0
3484 -3478 0
3484 -3480 0
3484 -3481 0
3484 -3482 0
3485 -2057 -3486 0
-3485 2057 0
-3485 3486 0
3487 -3479 -3486 0
-3487 3479 0
-3487 3486 0
3488 -3479 -2061 0
-3488 3479 0
-3488 2061 0
3489 -2057 -2061 -3483 0
-3489 2057 0
-3489 2061 0
-3489 3483 0
-74 2062 3485 3487 3488 3489 0
74 -2062 0
74 -3485 0
74 -3487 0
74 -3488 0
74 -3489 0
3490 -2057 -3491 0
-3490 2057 0
-3490 3491 0
3492 -3479 -2064 0
-3492 3479 0
-3492 2064 0
3493 -3479 -3491 0
-3493 3479 0
-3493 3491 0
3494 -2057 -2064 -3483 0
-3494 2057 0
-3494 2064 0
-3494 3483 0
-72 2065 3490 3492 3493 3494 0
72 -2065 0
72 -3490 0
72 -3492 0
72 -3493 0
72 -3494 0
3495 -2067 -3491 0
-3495 2067 0
-3495 3491 0
3496 -3497 -3491 0
-3496 3497 0
-3496 3491 0
3498 -3497 -2064 0
-3498 3497 0
-3498 2064 0
3499 -2067 -2064 -3483 0
-3499 2067 0
-3499 2064 0
-3499 3483 0
-75 2068 3495 3496 3498 3499 0
75 -2068 0
75 -3495 0
75 -3496 0
75 -3498 0
75 -3499 0
3500 -2061 -3497 0
-3500 2061 0
-3500 3497 0
3501 -3486 -2067 0
-3501 3486 0
-3501 2067 0
3502 -3486 -3497 0
-3502 3486 0
-3502 3497 0
3503 -2061 -2067 -3483 0
-3503 2061 0
-3503 2067 0
-3503 3483 0
-73 2070 3500 3501 3502 3503 0
73 -2070 0
73 -3500 0
73 -3501 0
73 -3502 0
73 -3503 0
3504 -2061 -3486 0
-3504 2061 0
-3504 3486 0
3505 -3486 -3486 0
-3505 3486 0
-3505 3486 0
3506 -3486 -2061 0
-3506 3486 0
-3506 2061 0
3507 -2061 -2061 -3483 0
-3507 2061 0
-3507 2061 0
-3507 3483 0
-3508 2073 3504 3505 3506 3507 0
3508 -2073 0
3508 -3504 0
3508 -3505 0
3508 -3506 0
3508 -3507 0
3509 -3510 -3511 0
-3509 3510 0
-3509 3511 0
3512 -3511 -3511 0
-3512 3511 0
-3512 3511 0
3513 -3511 -3510 0
-3513 3511 0
-3513 3510 0
3514 -3510 -3510 -3515 0
-3514 3510 0
-3514 3510 0
-3514 3515 0
-3516 3517 3509 3512 3513 3514 0
3516 -3517 0
3516 -3509 0
3516 -3512 0
3516 -3513 0
3516 -3514 0
3518 -3510 -3519 0
-3518 3510 0
-3518 3519 0
3520 -3511 -3519 0
-3520 3511 0
-3520 3519 0
3521 -3511 -3522 0
-3521 3511 0
-3521 3522 0
3523 -3510 -3522 -3515 0
-3523 3510 0
-3523 3522 0
-3523 3515 0
-719 3524 3518 3520 3521 3523 0
719 -3524 0
719 -3518 0
719 -3520 0
719 -3521 0
719 -3523 0
3525 -3510 -3526 0
-3525 3510 0
-3525 3526 0
3527 -3511 -3528 0
-3527 3511 0
-3527 3528 0
3529 -3511 -3526 0
-3529 3511 0
-3529 3526 0
3530 -3510 -3528 -3515 0
-3530 3510 0
-3530 3528 0
-3530 3515 0
-717 3531 3525 3527 3529 3530 0
717 -3531 0
717 -3525 0
717 -3527 0
717 -3529 0
717 -3530 0
3532 -3533 -3526 0
-3532 3533 0
-3532 3526 0
3534 -3535 -3526 0
-3534 3535 0
-3534 3526 0
3536 -3535 -3528 0
-3536 3535 0
-3536 3528 0
3537 -3533 -3528 -3515 0
-3537 3533 0
-3537 3528 0
-3537 3515 0
-720 3538 3532 3534 3536 3537 0
720 -3538 0
720 -3532 0
720 -3534 0
720 -3536 0
720 -3537 0
3539 -3522 -3535 0
-3539 3522 0
-3539 3535 0
3540 -3519 -3533 0
-3540 3519 0
-3540 3533 0
3541 -3519 -3535 0
-3541 3519 0
-3541 3535 0
3542 -3522 -3533 -3515 0
-3542 3522 0
-3542 3533 0
-3542 3515 0
-718 3543 3539 3540 3541 3542 0
718 -3543 0
718 -3539 0
718 -3540 0
718 -3541 0
718 -3542 0
3544 -3522 -3519 0
-3544 3522 0
-3544 3519 0
3545 -3519 -3519 0
-3545 3519 0
-3545 3519 0
3546 -3519 -3522 0
-3546 3519 0
-3546 3522 0
3547 -3522 -3522 -3515 0
-3547 3522 0
-3547 3522 0
-3547 3515 0
-3548 3549 3544 3545 3546 3547 0
3548 -3549 0
3548 -3544 0
3548 -3545 0
3548 -3546 0
3548 -3547 0
3550 -1892 -2519 0
-3550 1892 0
-3550 2519 0
3551 -2519 -2519 0
-3551 2519 0
-3551 2519 0
3552 -2519 -1892 0
-3552 2519 0
-3552 1892 0
3553 -1892 -1892 -2526 0
-3553 1892 0
-3553 1892 0
-3553 2526 0
-3554 1894 3550 3551 3552 3553 0
3554 -1894 0
3554 -3550 0
3554 -3551 0
3554 -3552 0
3554 -3553 0
3555 -1892 -3556 0
-3555 1892 0
-3555 3556 0
3557 -2519 -3556 0
-3557 2519 0
-3557 3556 0
3558 -2519 -1896 0
-3558 2519 0
-3558 1896 0
3559 -1892 -1896 -2526 0
-3559 1892 0
-3559 1896 0
-3559 2526 0
-434 1897 3555 3557 3558 3559 0
434 -1897 0
434 -3555 0
434 -3557 0
434 -3558 0
434 -3559 0
3560 -1892 -2518 0
-3560 1892 0
-3560 2518 0
3561 -2519 -1899 0
-3561 2519 0
-3561 1899 0
3562 -2519 -2518 0
-3562 2519 0
-3562 2518 0
3563 -1892 -1899 -2526 0
-3563 1892 0
-3563 1899 0
-3563 2526 0
-432 1900 3560 3561 3562 3563 0
432 -1900 0
432 -3560 0
432 -3561 0
432 -3562 0
432 -3563 0
3564 -1902 -2518 0
-3564 1902 0
-3564 2518 0
3565 -2523 -2518 0
-3565 2523 0
-3565 2518 0
3566 -2523 -1899 0
-3566 2523 0
-3566 1899 0
3567 -1902 -1899 -2526 0
-3567 1902 0
-3567 1899 0
-3567 2526 0
-435 1903 3564 3565 3566 3567 0
435 -1903 0
435 -3564 0
435 -3565 0
435 -3566 0
435 -3567 0
3568 -1896 -2523 0
-3568 1896 0
-3568 2523 0
3569 -3556 -1902 0
-3569 3556 0
-3569 1902 0
3570 -3556 -2523 0
-3570 3556 0
-3570 2523 0
3571 -1896 -1902 -2526 0
-3571 1896 0
-3571 1902 0
-3571 2526 0
-433 1905 3568 3569 3570 3571 0
433 -1905 0
433 -3568 0
433 -3569 0
433 -3570 0
433 -3571 0
3572 -1896 -3556 0
-3572 1896 0
-3572 3556 0
3573 -3556 -3556 0
-3573 3556 0
-3573 3556 0
3574 -3556 -1896 0
-3574 3556 0
-3574 1896 0
3575 -1896 -1896 -2526 0
-3575 1896 0
-3575 1896 0
-3575 2526 0
-3576 1908 3572 3573 3574 3575 0
3576 -1908 0
3576 -3572 0
3576 -3573 0
3576 -3574 0
3576 -3575 0
3577 -3578 -3578 0
-3577 3578 0
-3577 3578 0
-3579 3580 3577 0
3579 -3580 0
3579 -3577 0
3581 -3578 -3063 0
-3581 3578 0
-3581 3063 0
-909 3582 3581 0
909 -3582 0
909 -3581 0
3583 -3578 -3061 0
-3583 3578 0
-3583 3061 0
-907 3584 3583 0
907 -3584 0
907 -3583 0
3585 -3060 -3061 0
-3585 3060 0
-3585 3061 0
-910 3057 3585 0
910 -3057 0
910 -3585 0
3586 -3063 -3060 0
-3586 3063 0
-3586 3060 0
-908 3054 3586 0
908 -3054 0
908 -3586 0
3587 -3063 -3063 0
-3587 3063 0
-3587 3063 0
-3588 3066 3587 0
3588 -3066 0
3588 -3587 0
3589 -3590 -3591 0
-3589 3590 0
-3589 3591 0
3592 -3591 -3591 0
-3592 3591 0
-3592 3591 0
3593 -3591 -3590 0
-3593 3591 0
-3593 3590 0
3594 -3590 -3590 -3595 0
-3594 3590 0
-3594 3590 0
-3594 3595 0
-3596 3597 3589 3592 3593 3594 0
3596 -3597 0
3596 -3589 0
3596 -3592 0
3596 -3593 0
3596 -3594 0
3598 -3590 -3599 0
-3598 3590 0
-3598 3599 0
3600 -3591 -3599 0
-3600 3591 0
-3600 3599 0
3601 -3591 -3602 0
-3601 3591 0
-3601 3602 0
3603 -3590 -3602 -3595 0
-3603 3590 0
-3603 3602 0
-3603 3595 0
-214 3604 3598 3600 3601 3603 0
214 -3604 0
214 -3598 0
214 -3600 0
214 -3601 0
214 -3603 0
3605 -3590 -3606 0
-3605 3590 0
-3605 3606 0
3607 -3591 -3608 0
-3607 3591 0
-3607 3608 0
3609 -3591 -3606 0
-3609 3591 0
-3609 3606 0
3610 -3590 -3608 -3595 0
-3610 3590 0
-3610 3608 0
-3610 3595 0
-212 3611 3605 3607 3609 3610 0
212 -3611 0
212 -3605 0
212 -3607 0
212 -3609 0
212 -3610 0
3612 -3613 -3606 0
-3612 3613 0
-3612 3606 0
3614 -3615 -3606 0
-3614 3615 0
-3614 3606 0
3616 -3615 -3608 0
-3616 3615 0
-3616 3608 0
3617 -3613 -3608 -3595 0
-3617 3613 0
-3617 3608 0
-3617 3595 0
-215 3618 3612 3614 3616 3617 0
215 -3618 0
215 -3612 0
215 -3614 0
215 -3616 0
215 -3617 0
3619 -3602 -3615 0
-3619 3602 0
-3619 3615 0
3620 -3599 -3613 0
-3620 3599 0
-3620 3613 0
3621 -3599 -3615 0
-3621 3599 0
-3621 3615 0
3622 -3602 -3613 -3595 0
-3622 3602 0
-3622 3613 0
-3622 3595 0
-213 3623 3619 3620 3621 3622 0
213 -3623 0
213 -3619 0
213 -3620 0
213 -3621 0
213 -3622 0
3624 -3602 -3599 0
-3624 3602 0
-3624 3599 0
3625 -3599 -3599 0
-3625 3599 0
-3625 3599 0
3626 -3599 -3602 0
-3626 3599 0
-3626 3602 0
3627 -3602 -3602 -3595 0
-3627 3602 0
-3627 3602 0
-3627 3595 0
-3628 3629 3624 3625 3626 3627 0
3628 -3629 0
3628 -3624 0
3628 -3625 0
3628 -3626 0
3628 -3627 0
3630 -2793 -2793 0
-3630 2793 0
-3630 2793 0
-3631 2800 3630 0
3631 -2800 0
3631 -3630 0
3632 -2793 -2805 0
-3632 2793 0
-3632 2805 0
-444 2807 3632 0
444 -2807 0
444 -3632 0
3633 -2793 -2811 0
-3633 2793 0
-3633 2811 0
-442 2814 3633 0
442 -2814 0
442 -3633 0
3634 -2816 -2811 0
-3634 2816 0
-3634 2811 0
-445 2821 3634 0
445 -2821 0
445 -3634 0
3635 -2805 -2816 0
-3635 2805 0
-3635 2816 0
-443 2826 3635 0
443 -2826 0
443 -3635 0
3636 -2805 -2805 0
-3636 2805 0
-3636 2805 0
-3637 2832 3636 0
3637 -2832 0
3637 -3636 0
3638 -1728 -1720 0
-3638 1728 0
-3638 1720 0
3639 -1720 -1720 0
-3639 1720 0
-3639 1720 0
3640 -1720 -1728 0
-3640 1720 0
-3640 1728 0
3641 -1728 -1728 -1717 0
-3641 1728 0
-3641 1728 0
-3641 1717 0
-3642 1731 3638 3639 3640 3641 0
3642 -1731 0
3642 -3638 0
3642 -3639 0
3642 -3640 0
3642 -3641 0
3643 -1728 -2855 0
-3643 1728 0
-3643 2855 0
3644 -1720 -2855 0
-3644 1720 0
-3644 2855 0
3645 -1720 -2859 0
-3645 1720 0
-3645 2859 0
3646 -1728 -2859 -1717 0
-3646 1728 0
-3646 2859 0
-3646 1717 0
-944 3306 3643 3644 3645 3646 0
944 -3306 0
944 -3643 0
944 -3644 0
944 -3645 0
944 -3646 0
3647 -1728 -1715 0
-3647 1728 0
-3647 1715 0
3648 -1720 -1725 0
-3648 1720 0
-3648 1725 0
3649 -1720 -1715 0
-3649 1720 0
-3649 1715 0
3650 -1728 -1725 -1717 0
-3650 1728 0
-3650 1725 0
-3650 1717 0
-942 1719 3647 3648 3649 3650 0
942 -1719 0
942 -3647 0
942 -3648 0
942 -3649 0
942 -3650 0
3651 -1726 -1715 0
-3651 1726 0
-3651 1715 0
3652 -1723 -1715 0
-3652 1723 0
-3652 1715 0
3653 -1723 -1725 0
-3653 1723 0
-3653 1725 0
3654 -1726 -1725 -1717 0
-3654 1726 0
-3654 1725 0
-3654 1717 0
-945 1722 3651 3652 3653 3654 0
945 -1722 0
945 -3651 0
945 -3652 0
945 -3653 0
945 -3654 0
3655 -2859 -1723 0
-3655 2859 0
-3655 1723 0
3656 -2855 -1726 0
-3656 2855 0
-3656 1726 0
3657 -2855 -1723 0
-3657 2855 0
-3657 1723 0
3658 -2859 -1726 -1717 0
-3658 2859 0
-3658 1726 0
-3658 1717 0
-943 2854 3655 3656 3657 3658 0
943 -2854 0
943 -3655 0
943 -3656 0
943 -3657 0
943 -3658 0
3659 -2859 -2855 0
-3659 2859 0
-3659 2855 0
3301 -2855 -2855 0
-3301 2855 0
-3301 2855 0
3660 -2855 -2859 0
-3660 2855 0
-3660 2859 0
3661 -2859 -2859 -1717 0
-3661 2859 0
-3661 2859 0
-3661 1717 0
-3662 2862 3659 3301 3660 3661 0
3662 -2862 0
3662 -3659 0
3662 -3301 0
3662 -3660 0
3662 -3661 0
3663 -3664 -3664 0
-3663 3664 0
-3663 3664 0
-3665 3666 3663 0
3665 -3666 0
3665 -3663 0
3667 -3664 -3668 0
-3667 3664 0
-3667 3668 0
-279 3669 3667 0
279 -3669 0
279 -3667 0
3670 -3664 -3671 0
-3670 3664 0
-3670 3671 0
-277 3672 3670 0
277 -3672 0
277 -3670 0
3673 -3674 -3671 0
-3673 3674 0
-3673 3671 0
-280 3675 3673 0
280 -3675 0
280 -3673 0
3676 -3668 -3674 0
-3676 3668 0
-3676 3674 0
-278 3677 3676 0
278 -3677 0
278 -3676 0
3678 -3668 -3668 0
-3678 3668 0
-3678 3668 0
-3679 3680 3678 0
3679 -3680 0
3679 -3678 0
3681 -2818 -2818 0
-3681 2818 0
-3681 2818 0
-3682 2798 3681 0
3682 -2798 0
3682 -3681 0
3683 -2818 -2826 0
-3683 2818 0
-3683 2826 0
-564 2802 3683 0
564 -2802 0
564 -3683 0
3684 -2818 -2821 0
-3684 2818 0
-3684 2821 0
-562 2809 3684 0
562 -2809 0
562 -3684 0
3685 -2816 -2821 0
-3685 2816 0
-3685 2821 0
-565 2811 3685 0
565 -2811 0
565 -3685 0
3686 -2826 -2816 0
-3686 2826 0
-3686 2816 0
-563 2805 3686 0
563 -2805 0
563 -3686 0
3687 -2826 -2826 0
-3687 2826 0
-3687 2826 0
-3688 2832 3687 0
3688 -2832 0
3688 -3687 0
3689 -3690 -3691 0
-3689 3690 0
-3689 3691 0
3692 -3691 -3691 0
-3692 3691 0
-3692 3691 0
3693 -3691 -3690 0
-3693 3691 0
-3693 3690 0
3694 -3690 -3690 -3695 0
-3694 3690 0
-3694 3690 0
-3694 3695 0
-3696 3697 3689 3692 3693 3694 0
3696 -3697 0
3696 -3689 0
3696 -3692 0
3696 -3693 0
3696 -3694 0
3698 -3690 -3699 0
-3698 3690 0
-3698 3699 0
3700 -3691 -3699 0
-3700 3691 0
-3700 3699 0
3701 -3691 -3702 0
-3701 3691 0
-3701 3702 0
3703 -3690 -3702 -3695 0
-3703 3690 0
-3703 3702 0
-3703 3695 0
-519 3704 3698 3700 3701 3703 0
519 -3704 0
519 -3698 0
519 -3700 0
519 -3701 0
519 -3703 0
3705 -3690 -3706 0
-3705 3690 0
-3705 3706 0
3707 -3691 -3708 0
-3707 3691 0
-3707 3708 0
3709 -3691 -3706 0
-3709 3691 0
-3709 3706 0
3710 -3690 -3708 -3695 0
-3710 3690 0
-3710 3708 0
-3710 3695 0
-517 3711 3705 3707 3709 3710 0
517 -3711 0
517 -3705 0
517 -3707 0
517 -3709 0
517 -3710 0
3712 -3713 -3706 0
-3712 3713 0
-3712 3706 0
3714 -3715 -3706 0
-3714 3715 0
-3714 3706 0
3716 -3715 -3708 0
-3716 3715 0
-3716 3708 0
3717 -3713 -3708 -3695 0
-3717 3713 0
-3717 3708 0
-3717 3695 0
-520 3718 3712 3714 3716 3717 0
520 -3718 0
520 -3712 0
520 -3714 0
520 -3716 0
520 -3717 0
3719 -3702 -3715 0
-3719 3702 0
-3719 3715 0
3720 -3699 -3713 0
-3720 3699 0
-3720 3713 0
3721 -3699 -3715 0
-3721 3699 0
-3721 3715 0
3722 -3702 -3713 -3695 0
-3722 3702 0
-3722 3713 0
-3722 3695 0
-518 3723 3719 3720 3721 3722 0
518 -3723 0
518 -3719 0
518 -3720 0
518 -3721 0
518 -3722 0
3724 -3702 -3699 0
-3724 3702 0
-3724 3699 0
3725 -3699 -3699 0
-3725 3699 0
-3725 3699 0
3726 -3699 -3702 0
-3726 3699 0
-3726 3702 0
3727 -3702 -3702 -3695 0
-3727 3702 0
-3727 3702 0
-3727 3695 0
-3728 3729 3724 3725 3726 3727 0
3728 -3729 0
3728 -3724 0
3728 -3725 0
3728 -3726 0
3728 -3727 0
3730 -3731 -3732 0
-3730 3731 0
-3730 3732 0
3733 -3732 -3732 0
-3733 3732 0
-3733 3732 0
3734 -3732 -3731 0
-3734 3732 0
-3734 3731 0
3735 -3731 -3731 -3736 0
-3735 3731 0
-3735 3731 0
-3735 3736 0
-3737 3738 3730 3733 3734 3735 0
3737 -3738 0
3737 -3730 0
3737 -3733 0
3737 -3734 0
3737 -3735 0
3739 -3731 -3740 0
-3739 3731 0
-3739 3740 0
3741 -3732 -3740 0
-3741 3732 0
-3741 3740 0
3742 -3732 -3743 0
-3742 3732 0
-3742 3743 0
3744 -3731 -3743 -3736 0
-3744 3731 0
-3744 3743 0
-3744 3736 0
-284 3745 3739 3741 3742 3744 0
284 -3745 0
284 -3739 0
284 -3741 0
284 -3742 0
284 -3744 0
3746 -3731 -3747 0
-3746 3731 0
-3746 3747 0
3748 -3732 -3749 0
-3748 3732 0
-3748 3749 0
3750 -3732 -3747 0
-3750 3732 0
-3750 3747 0
3751 -3731 -3749 -3736 0
-3751 3731 0
-3751 3749 0
-3751 3736 0
-282 3752 3746 3748 3750 3751 0
282 -3752 0
282 -3746 0
282 -3748 0
282 -3750 0
282 -3751 0
3753 -3754 -3747 0
-3753 3754 0
-3753 3747 0
3755 -3756 -3747 0
-3755 3756 0
-3755 3747 0
3757 -3756 -3749 0
-3757 3756 0
-3757 3749 0
3758 -3754 -3749 -3736 0
-3758 3754 0
-3758 3749 0
-3758 3736 0
-285 3759 3753 3755 3757 3758 0
285 -3759 0
285 -3753 0
285 -3755 0
285 -3757 0
285 -3758 0
3760 -3743 -3756 0
-3760 3743 0
-3760 3756 0
3761 -3740 -3754 0
-3761 3740 0
-3761 3754 0
3762 -3740 -3756 0
-3762 3740 0
-3762 3756 0
3763 -3743 -3754 -3736 0
-3763 3743 0
-3763 3754 0
-3763 3736 0
-283 3764 3760 3761 3762 3763 0
283 -3764 0
283 -3760 0
283 -3761 0
283 -3762 0
283 -3763 0
3765 -3743 -3740 0
-3765 3743 0
-3765 3740 0
3766 -3740 -3740 0
-3766 3740 0
-3766 3740 0
3767 -3740 -3743 0
-3767 3740 0
-3767 3743 0
3768 -3743 -3743 -3736 0
-3768 3743 0
-3768 3743 0
-3768 3736 0
-3769 3770 3765 3766 3767 3768 0
3769 -3770 0
3769 -3765 0
3769 -3766 0
3769 -3767 0
3769 -3768 0
3771 -3772 -3772 0
-3771 3772 0
-3771 3772 0
-3773 3774 3771 0
3773 -3774 0
3773 -3771 0
3775 -3772 -3776 0
-3775 3772 0
-3775 3776 0
-684 3777 3775 0
684 -3777 0
684 -3775 0
3778 -3772 -3779 0
-3778 3772 0
-3778 3779 0
-682 3780 3778 0
682 -3780 0
682 -3778 0
3781 -3782 -3779 0
-3781 3782 0
-3781 3779 0
-685 3783 3781 0
685 -3783 0
685 -3781 0
3784 -3776 -3782 0
-3784 3776 0
-3784 3782 0
-683 3785 3784 0
683 -3785 0
683 -3784 0
3786 -3776 -3776 0
-3786 3776 0
-3786 3776 0
-3787 3788 3786 0
3787 -3788 0
3787 -3786 0
3789 -3690 -3690 0
-3789 3690 0
-3789 3690 0
-3790 3697 3789 0
3790 -3697 0
3790 -3789 0
3791 -3690 -3702 0
-3791 3690 0
-3791 3702 0
-914 3704 3791 0
914 -3704 0
914 -3791 0
3792 -3690 -3708 0
-3792 3690 0
-3792 3708 0
-912 3711 3792 0
912 -3711 0
912 -3792 0
3793 -3713 -3708 0
-3793 3713 0
-3793 3708 0
-915 3718 3793 0
915 -3718 0
915 -3793 0
3794 -3702 -3713 0
-3794 3702 0
-3794 3713 0
-913 3723 3794 0
913 -3723 0
913 -3794 0
3795 -3702 -3702 0
-3795 3702 0
-3795 3702 0
-3796 3729 3795 0
3796 -3729 0
3796 -3795 0
3797 -2864 -3798 0
-3797 2864 0
-3797 3798 0
3799 -3798 -3798 0
-3799 3798 0
-3799 3798 0
3800 -3798 -2864 0
-3800 3798 0
-3800 2864 0
3801 -2864 -2864 -3802 0
-3801 2864 0
-3801 2864 0
-3801 3802 0
-3803 2866 3797 3799 3800 3801 0
3803 -2866 0
3803 -3797 0
3803 -3799 0
3803 -3800 0
3803 -3801 0
3804 -2864 -3805 0
-3804 2864 0
-3804 3805 0
3806 -3798 -3805 0
-3806 3798 0
-3806 3805 0
3807 -3798 -2868 0
-3807 3798 0
-3807 2868 0
3808 -2864 -2868 -3802 0
-3808 2864 0
-3808 2868 0
-3808 3802 0
-254 2869 3804 3806 3807 3808 0
254 -2869 0
254 -3804 0
254 -3806 0
254 -3807 0
254 -3808 0
3809 -2864 -3810 0
-3809 2864 0
-3809 3810 0
3811 -3798 -2871 0
-3811 3798 0
-3811 2871 0
3812 -3798 -3810 0
-3812 3798 0
-3812 3810 0
3813 -2864 -2871 -3802 0
-3813 2864 0
-3813 2871 0
-3813 3802 0
-252 2872 3809 3811 3812 3813 0
252 -2872 0
252 -3809 0
252 -3811 0
252 -3812 0
252 -3813 0
3814 -2874 -3810 0
-3814 2874 0
-3814 3810 0
3815 -3816 -3810 0
-3815 3816 0
-3815 3810 0
3817 -3816 -2871 0
-3817 3816 0
-3817 2871 0
3818 -2874 -2871 -3802 0
-3818 2874 0
-3818 2871 0
-3818 3802 0
-255 2875 3814 3815 3817 3818 0
255 -2875 0
255 -3814 0
255 -3815 0
255 -3817 0
255 -3818 0
3819 -2868 -3816 0
-3819 2868 0
-3819 3816 0
3820 -3805 -2874 0
-3820 3805 0
-3820 2874 0
3821 -3805 -3816 0
-3821 3805 0
-3821 3816 0
3822 -2868 -2874 -3802 0
-3822 2868 0
-3822 2874 0
-3822 3802 0
-253 2877 3819 3820 3821 3822 0
253 -2877 0
253 -3819 0
253 -3820 0
253 -3821 0
253 -3822 0
3823 -2868 -3805 0
-3823 2868 0
-3823 3805 0
3824 -3805 -3805 0
-3824 3805 0
-3824 3805 0
3825 -3805 -2868 0
-3825 3805 0
-3825 2868 0
3826 -2868 -2868 -3802 0
-3826 2868 0
-3826 2868 0
-3826 3802 0
-3827 2880 3823 3824 3825 3826 0
3827 -2880 0
3827 -3823 0
3827 -3824 0
3827 -3825 0
3827 -3826 0
3828 -3829 -3830 0
-3828 3829 0
-3828 3830 0
3831 -3830 -3830 0
-3831 3830 0
-3831 3830 0
3832 -3830 -3829 0
-3832 3830 0
-3832 3829 0
3833 -3829 -3829 -2777 0
-3833 3829 0
-3833 3829 0
-3833 2777 0
-3834 3835 3828 3831 3832 3833 0
3834 -3835 0
3834 -3828 0
3834 -3831 0
3834 -3832 0
3834 -3833 0
3836 -3829 -2780 0
-3836 3829 0
-3836 2780 0
3837 -3830 -2780 0
-3837 3830 0
-3837 2780 0
3838 -3830 -2788 0
-3838 3830 0
-3838 2788 0
3839 -3829 -2788 -2777 0
-3839 3829 0
-3839 2788 0
-3839 2777 0
-904 3840 3836 3837 3838 3839 0
904 -3840 0
904 -3836 0
904 -3837 0
904 -3838 0
904 -3839 0
3841 -3829 -2783 0
-3841 3829 0
-3841 2783 0
3842 -3830 -2786 0
-3842 3830 0
-3842 2786 0
3843 -3830 -2783 0
-3843 3830 0
-3843 2783 0
3844 -3829 -2786 -2777 0
-3844 3829 0
-3844 2786 0
-3844 2777 0
-902 3845 3841 3842 3843 3844 0
902 -3845 0
902 -3841 0
902 -3842 0
902 -3843 0
902 -3844 0
3846 -2785 -2783 0
-3846 2785 0
-3846 2783 0
3847 -2775 -2783 0
-3847 2775 0
-3847 2783 0
3848 -2775 -2786 0
-3848 2775 0
-3848 2786 0
3849 -2785 -2786 -2777 0
-3849 2785 0
-3849 2786 0
-3849 2777 0
-905 2782 3846 3847 3848 3849 0
905 -2782 0
905 -3846 0
905 -3847 0
905 -3848 0
905 -3849 0
3850 -2788 -2775 0
-3850 2788 0
-3850 2775 0
3851 -2780 -2785 0
-3851 2780 0
-3851 2785 0
3852 -2780 -2775 0
-3852 2780 0
-3852 2775 0
3853 -2788 -2785 -2777 0
-3853 2788 0
-3853 2785 0
-3853 2777 0
-903 2779 3850 3851 3852 3853 0
903 -2779 0
903 -3850 0
903 -3851 0
903 -3852 0
903 -3853 0
3854 -2788 -2780 0
-3854 2788 0
-3854 2780 0
3855 -2780 -2780 0
-3855 2780 0
-3855 2780 0
3856 -2780 -2788 0
-3856 2780 0
-3856 2788 0
3857 -2788 -2788 -2777 0
-3857 2788 0
-3857 2788 0
-3857 2777 0
-3858 2791 3854 3855 3856 3857 0
3858 -2791 0
3858 -3854 0
3858 -3855 0
3858 -3856 0
3858 -3857 0
3859 -2438 -2438 0
-3859 2438 0
-3859 2438 0
-3860 2418 3859 0
3860 -2418 0
3860 -3859 0
3861 -2438 -2446 0
-3861 2438 0
-3861 2446 0
-424 2422 3861 0
424 -2422 0
424 -3861 0
3862 -2438 -2441 0
-3862 2438 0
-3862 2441 0
-422 2429 3862 0
422 -2429 0
422 -3862 0
3863 -2436 -2441 0
-3863 2436 0
-3863 2441 0
-425 2431 3863 0
425 -2431 0
425 -3863 0
3864 -2446 -2436 0
-3864 2446 0
-3864 2436 0
-423 2425 3864 0
423 -2425 0
423 -3864 0
3865 -2446 -2446 0
-3865 2446 0
-3865 2446 0
-3866 2452 3865 0
3866 -2452 0
3866 -3865 0
3867 -2616 -2616 0
-3867 2616 0
-3867 2616 0
-3868 2623 3867 0
3868 -2623 0
3868 -3867 0
3869 -2616 -2628 0
-3869 2616 0
-3869 2628 0
-1019 2630 3869 0
1019 -2630 0
1019 -3869 0
3870 -2616 -2634 0
-3870 2616 0
-3870 2634 0
-1017 2637 3870 0
1017 -2637 0
1017 -3870 0
3871 -2639 -2634 0
-3871 2639 0
-3871 2634 0
-1020 2644 3871 0
1020 -2644 0
1020 -3871 0
3872 -2628 -2639 0
-3872 2628 0
-3872 2639 0
-1018 2649 3872 0
1018 -2649 0
1018 -3872 0
3873 -2628 -2628 0
-3873 2628 0
-3873 2628 0
-3874 2655 3873 0
3874 -2655 0
3874 -3873 0
3875 -3615 -3591 0
-3875 3615 0
-3875 3591 0
3592 -3591 -3591 0
-3592 3591 0
-3592 3591 0
3876 -3591 -3615 0
-3876 3591 0
-3876 3615 0
3877 -3615 -3615 -3597 0
-3877 3615 0
-3877 3615 0
-3877 3597 0
-3878 3595 3875 3592 3876 3877 0
3878 -3595 0
3878 -3875 0
3878 -3592 0
3878 -3876 0
3878 -3877 0
3879 -3615 -3604 0
-3879 3615 0
-3879 3604 0
3880 -3591 -3604 0
-3880 3591 0
-3880 3604 0
3881 -3591 -3623 0
-3881 3591 0
-3881 3623 0
3882 -3615 -3623 -3597 0
-3882 3615 0
-3882 3623 0
-3882 3597 0
-134 3599 3879 3880 3881 3882 0
134 -3599 0
134 -3879 0
134 -3880 0
134 -3881 0
134 -3882 0
3883 -3615 -3611 0
-3883 3615 0
-3883 3611 0
3884 -3591 -3618 0
-3884 3591 0
-3884 3618 0
3885 -3591 -3611 0
-3885 3591 0
-3885 3611 0
3886 -3615 -3618 -3597 0
-3886 3615 0
-3886 3618 0
-3886 3597 0
-132 3606 3883 3884 3885 3886 0
132 -3606 0
132 -3883 0
132 -3884 0
132 -3885 0
132 -3886 0
3887 -3613 -3611 0
-3887 3613 0
-3887 3611 0
3888 -3590 -3611 0
-3888 3590 0
-3888 3611 0
3889 -3590 -3618 0
-3889 3590 0
-3889 3618 0
3890 -3613 -3618 -3597 0
-3890 3613 0
-3890 3618 0
-3890 3597 0
-135 3608 3887 3888 3889 3890 0
135 -3608 0
135 -3887 0
135 -3888 0
135 -3889 0
135 -3890 0
3891 -3623 -3590 0
-3891 3623 0
-3891 3590 0
3892 -3604 -3613 0
-3892 3604 0
-3892 3613 0
3893 -3604 -3590 0
-3893 3604 0
-3893 3590 0
3894 -3623 -3613 -3597 0
-3894 3623 0
-3894 3613 0
-3894 3597 0
-133 3602 3891 3892 3893 3894 0
133 -3602 0
133 -3891 0
133 -3892 0
133 -3893 0
133 -3894 0
3895 -3623 -3604 0
-3895 3623 0
-3895 3604 0
3896 -3604 -3604 0
-3896 3604 0
-3896 3604 0
3897 -3604 -3623 0
-3897 3604 0
-3897 3623 0
3898 -3623 -3623 -3597 0
-3898 3623 0
-3898 3623 0
-3898 3597 0
-3899 3629 3895 3896 3897 3898 0
3899 -3629 0
3899 -3895 0
3899 -3896 0
3899 -3897 0
3899 -3898 0
3900 -2047 -2047 0
-3900 2047 0
-3900 2047 0
-3901 2041 3900 0
3901 -2041 0
3901 -3900 0
3902 -2047 -2894 0
-3902 2047 0
-3902 2894 0
-849 2882 3902 0
849 -2882 0
849 -3902 0
3903 -2047 -2046 0
-3903 2047 0
-3903 2046 0
-847 2039 3903 0
847 -2039 0
847 -3903 0
3904 -2050 -2046 0
-3904 2050 0
-3904 2046 0
-850 2049 3904 0
850 -2049 0
850 -3904 0
3905 -2894 -2050 0
-3905 2894 0
-3905 2050 0
-848 2900 3905 0
848 -2900 0
848 -3905 0
3906 -2894 -2894 0
-3906 2894 0
-3906 2894 0
-3907 2886 3906 0
3907 -2886 0
3907 -3906 0
3908 -1656 -3909 0
-3908 1656 0
-3908 3909 0
3910 -3909 -3909 0
-3910 3909 0
-3910 3909 0
3911 -3909 -1656 0
-3911 3909 0
-3911 1656 0
3912 -1656 -1656 -3913 0
-3912 1656 0
-3912 1656 0
-3912 3913 0
-3914 1658 3908 3910 3911 3912 0
3914 -1658 0
3914 -3908 0
3914 -3910 0
3914 -3911 0
3914 -3912 0
3915 -1656 -3916 0
-3915 1656 0
-3915 3916 0
3917 -3909 -3916 0
-3917 3909 0
-3917 3916 0
3918 -3909 -1660 0
-3918 3909 0
-3918 1660 0
3919 -1656 -1660 -3913 0
-3919 1656 0
-3919 1660 0
-3919 3913 0
-689 1661 3915 3917 3918 3919 0
689 -1661 0
689 -3915 0
689 -3917 0
689 -3918 0
689 -3919 0
3920 -1656 -3921 0
-3920 1656 0
-3920 3921 0
3922 -3909 -1663 0
-3922 3909 0
-3922 1663 0
3923 -3909 -3921 0
-3923 3909 0
-3923 3921 0
3924 -1656 -1663 -3913 0
-3924 1656 0
-3924 1663 0
-3924 3913 0
-687 1664 3920 3922 3923 3924 0
687 -1664 0
687 -3920 0
687 -3922 0
687 -3923 0
687 -3924 0
3925 -1666 -3921 0
-3925 1666 0
-3925 3921 0
3926 -3927 -3921 0
-3926 3927 0
-3926 3921 0
3928 -3927 -1663 0
-3928 3927 0
-3928 1663 0
3929 -1666 -1663 -3913 0
-3929 1666 0
-3929 1663 0
-3929 3913 0
-690 1667 3925 3926 3928 3929 0
690 -1667 0
690 -3925 0
690 -3926 0
690 -3928 0
690 -3929 0
3930 -1660 -3927 0
-3930 1660 0
-3930 3927 0
3931 -3916 -1666 0
-3931 3916 0
-3931 1666 0
3932 -3916 -3927 0
-3932 3916 0
-3932 3927 0
3933 -1660 -1666 -3913 0
-3933 1660 0
-3933 1666 0
-3933 3913 0
-688 1669 3930 3931 3932 3933 0
688 -1669 0
688 -3930 0
688 -3931 0
688 -3932 0
688 -3933 0
3934 -1660 -3916 0
-3934 1660 0
-3934 3916 0
3935 -3916 -3916 0
-3935 3916 0
-3935 3916 0
3936 -3916 -1660 0
-3936 3916 0
-3936 1660 0
3937 -1660 -1660 -3913 0
-3937 1660 0
-3937 1660 0
-3937 3913 0
-3938 1672 3934 3935 3936 3937 0
3938 -1672 0
3938 -3934 0
3938 -3935 0
3938 -3936 0
3938 -3937 0
3939 -3940 -3941 0
-3939 3940 0
-3939 3941 0
3942 -3941 -3941 0
-3942 3941 0
-3942 3941 0
3943 -3941 -3940 0
-3943 3941 0
-3943 3940 0
3944 -3940 -3940 -3945 0
-3944 3940 0
-3944 3940 0
-3944 3945 0
-3946 3947 3939 3942 3943 3944 0
3946 -3947 0
3946 -3939 0
3946 -3942 0
3946 -3943 0
3946 -3944 0
3948 -3940 -3949 0
-3948 3940 0
-3948 3949 0
3950 -3941 -3949 0
-3950 3941 0
-3950 3949 0
3951 -3941 -3952 0
-3951 3941 0
-3951 3952 0
3953 -3940 -3952 -3945 0
-3953 3940 0
-3953 3952 0
-3953 3945 0
-309 3954 3948 3950 3951 3953 0
309 -3954 0
309 -3948 0
309 -3950 0
309 -3951 0
309 -3953 0
3955 -3940 -3956 0
-3955 3940 0
-3955 3956 0
3957 -3941 -3958 0
-3957 3941 0
-3957 3958 0
3959 -3941 -3956 0
-3959 3941 0
-3959 3956 0
3960 -3940 -3958 -3945 0
-3960 3940 0
-3960 3958 0
-3960 3945 0
-307 3961 3955 3957 3959 3960 0
307 -3961 0
307 -3955 0
307 -3957 0
307 -3959 0
307 -3960 0
3962 -3963 -3956 0
-3962 3963 0
-3962 3956 0
3964 -3965 -3956 0
-3964 3965 0
-3964 3956 0
3966 -3965 -3958 0
-3966 3965 0
-3966 3958 0
3967 -3963 -3958 -3945 0
-3967 3963 0
-3967 3958 0
-3967 3945 0
-310 3968 3962 3964 3966 3967 0
310 -3968 0
310 -3962 0
310 -3964 0
310 -3966 0
310 -3967 0
3969 -3952 -3965 0
-3969 3952 0
-3969 3965 0
3970 -3949 -3963 0
-3970 3949 0
-3970 3963 0
3971 -3949 -3965 0
-3971 3949 0
-3971 3965 0
3972 -3952 -3963 -3945 0
-3972 3952 0
-3972 3963 0
-3972 3945 0
-308 3973 3969 3970 3971 3972 0
308 -3973 0
308 -3969 0
308 -3970 0
308 -3971 0
308 -3972 0
3974 -3952 -3949 0
-3974 3952 0
-3974 3949 0
3975 -3949 -3949 0
-3975 3949 0
-3975 3949 0
3976 -3949 -3952 0
-3976 3949 0
-3976 3952 0
3977 -3952 -3952 -3945 0
-3977 3952 0
-3977 3952 0
-3977 3945 0
-3978 3979 3974 3975 3976 3977 0
3978 -3979 0
3978 -3974 0
3978 -3975 0
3978 -3976 0
3978 -3977 0
3980 -2429 -2429 0
-3980 2429 0
-3980 2429 0
-3981 2418 3980 0
3981 -2418 0
3981 -3980 0
3982 -2429 -2434 0
-3982 2429 0
-3982 2434 0
-394 2414 3982 0
394 -2414 0
394 -3982 0
3983 -2429 -2441 0
-3983 2429 0
-3983 2441 0
-392 2438 3983 0
392 -2438 0
392 -3983 0
3984 -2431 -2441 0
-3984 2431 0
-3984 2441 0
-395 2436 3984 0
395 -2436 0
395 -3984 0
3985 -2434 -2431 0
-3985 2434 0
-3985 2431 0
-393 2413 3985 0
393 -2413 0
393 -3985 0
3986 -2434 -2434 0
-3986 2434 0
-3986 2434 0
-3987 2420 3986 0
3987 -2420 0
3987 -3986 0
3988 -3989 -3989 0
-3988 3989 0
-3988 3989 0
-3990 3991 3988 0
3990 -3991 0
3990 -3988 0
3992 -3989 -1431 0
-3992 3989 0
-3992 1431 0
-139 3993 3992 0
139 -3993 0
139 -3992 0
3994 -3989 -1429 0
-3994 3989 0
-3994 1429 0
-137 3995 3994 0
137 -3995 0
137 -3994 0
3996 -1428 -1429 0
-3996 1428 0
-3996 1429 0
-140 1425 3996 0
140 -1425 0
140 -3996 0
3997 -1431 -1428 0
-3997 1431 0
-3997 1428 0
-138 1422 3997 0
138 -1422 0
138 -3997 0
3998 -1431 -1431 0
-3998 1431 0
-3998 1431 0
-3999 1434 3998 0
3999 -1434 0
3999 -3998 0
4000 -2142 -2142 0
-4000 2142 0
-4000 2142 0
-4001 2136 4000 0
4001 -2136 0
4001 -4000 0
4002 -2142 -4003 0
-4002 2142 0
-4002 4003 0
-834 4004 4002 0
834 -4004 0
834 -4002 0
4005 -2142 -2141 0
-4005 2142 0
-4005 2141 0
-832 2134 4005 0
832 -2134 0
832 -4005 0
4006 -2145 -2141 0
-4006 2145 0
-4006 2141 0
-835 2144 4006 0
835 -2144 0
835 -4006 0
4007 -4003 -2145 0
-4007 4003 0
-4007 2145 0
-833 4008 4007 0
833 -4008 0
833 -4007 0
4009 -4003 -4003 0
-4009 4003 0
-4009 4003 0
-4010 4011 4009 0
4010 -4011 0
4010 -4009 0
4012 -1900 -1897 0
-4012 1900 0
-4012 1897 0
4013 -1897 -1897 0
-4013 1897 0
-4013 1897 0
4014 -1897 -1900 0
-4014 1897 0
-4014 1900 0
4015 -1900 -1900 -1908 0
-4015 1900 0
-4015 1900 0
-4015 1908 0
-4016 1894 4012 4013 4014 4015 0
4016 -1894 0
4016 -4012 0
4016 -4013 0
4016 -4014 0
4016 -4015 0
4017 -1900 -3556 0
-4017 1900 0
-4017 3556 0
4018 -1897 -3556 0
-4018 1897 0
-4018 3556 0
4019 -1897 -2518 0
-4019 1897 0
-4019 2518 0
4020 -1900 -2518 -1908 0
-4020 1900 0
-4020 2518 0
-4020 1908 0
-404 2519 4017 4018 4019 4020 0
404 -2519 0
404 -4017 0
404 -4018 0
404 -4019 0
404 -4020 0
4021 -1900 -1896 0
-4021 1900 0
-4021 1896 0
4022 -1897 -1899 0
-4022 1897 0
-4022 1899 0
4023 -1897 -1896 0
-4023 1897 0
-4023 1896 0
4024 -1900 -1899 -1908 0
-4024 1900 0
-4024 1899 0
-4024 1908 0
-402 1892 4021 4022 4023 4024 0
402 -1892 0
402 -4021 0
402 -4022 0
402 -4023 0
402 -4024 0
4025 -1903 -1896 0
-4025 1903 0
-4025 1896 0
4026 -1905 -1896 0
-4026 1905 0
-4026 1896 0
4027 -1905 -1899 0
-4027 1905 0
-4027 1899 0
4028 -1903 -1899 -1908 0
-4028 1903 0
-4028 1899 0
-4028 1908 0
-405 1902 4025 4026 4027 4028 0
405 -1902 0
405 -4025 0
405 -4026 0
405 -4027 0
405 -4028 0
4029 -2518 -1905 0
-4029 2518 0
-4029 1905 0
4030 -3556 -1903 0
-4030 3556 0
-4030 1903 0
4031 -3556 -1905 0
-4031 3556 0
-4031 1905 0
4032 -2518 -1903 -1908 0
-4032 2518 0
-4032 1903 0
-4032 1908 0
-403 2523 4029 4030 4031 4032 0
403 -2523 0
403 -4029 0
403 -4030 0
403 -4031 0
403 -4032 0
4033 -2518 -3556 0
-4033 2518 0
-4033 3556 0
3573 -3556 -3556 0
-3573 3556 0
-3573 3556 0
4034 -3556 -2518 0
-4034 3556 0
-4034 2518 0
4035 -2518 -2518 -1908 0
-4035 2518 0
-4035 2518 0
-4035 1908 0
-4036 2526 4033 3573 4034 4035 0
4036 -2526 0
4036 -4033 0
4036 -3573 0
4036 -4034 0
4036 -4035 0
4037 -4038 -4039 0
-4037 4038 0
-4037 4039 0
4040 -4039 -4039 0
-4040 4039 0
-4040 4039 0
4041 -4039 -4038 0
-4041 4039 0
-4041 4038 0
4042 -4038 -4038 -4043 0
-4042 4038 0
-4042 4038 0
-4042 4043 0
-4044 4045 4037 4040 4041 4042 0
4044 -4045 0
4044 -4037 0
4044 -4040 0
4044 -4041 0
4044 -4042 0
4046 -4038 -4047 0
-4046 4038 0
-4046 4047 0
4048 -4039 -4047 0
-4048 4039 0
-4048 4047 0
4049 -4039 -4050 0
-4049 4039 0
-4049 4050 0
4051 -4038 -4050 -4043 0
-4051 4038 0
-4051 4050 0
-4051 4043 0
-334 4052 4046 4048 4049 4051 0
334 -4052 0
334 -4046 0
334 -4048 0
334 -4049 0
334 -4051 0
4053 -4038 -4054 0
-4053 4038 0
-4053 4054 0
4055 -4039 -4056 0
-4055 4039 0
-4055 4056 0
4057 -4039 -4054 0
-4057 4039 0
-4057 4054 0
4058 -4038 -4056 -4043 0
-4058 4038 0
-4058 4056 0
-4058 4043 0
-332 4059 4053 4055 4057 4058 0
332 -4059 0
332 -4053 0
332 -4055 0
332 -4057 0
332 -4058 0
4060 -4061 -4054 0
-4060 4061 0
-4060 4054 0
4062 -4063 -4054 0
-4062 4063 0
-4062 4054 0
4064 -4063 -4056 0
-4064 4063 0
-4064 4056 0
4065 -4061 -4056 -4043 0
-4065 4061 0
-4065 4056 0
-4065 4043 0
-335 4066 4060 4062 4064 4065 0
335 -4066 0
335 -4060 0
335 -4062 0
335 -4064 0
335 -4065 0
4067 -4050 -4063 0
-4067 4050 0
-4067 4063 0
4068 -4047 -4061 0
-4068 4047 0
-4068 4061 0
4069 -4047 -4063 0
-4069 4047 0
-4069 4063 0
4070 -4050 -4061 -4043 0
-4070 4050 0
-4070 4061 0
-4070 4043 0
-333 4071 4067 4068 4069 4070 0
333 -4071 0
333 -4067 0
333 -4068 0
333 -4069 0
333 -4070 0
4072 -4050 -4047 0
-4072 4050 0
-4072 4047 0
4073 -4047 -4047 0
-4073 4047 0
-4073 4047 0
4074 -4047 -4050 0
-4074 4047 0
-4074 4050 0
4075 -4050 -4050 -4043 0
-4075 4050 0
-4075 4050 0
-4075 4043 0
-4076 4077 4072 4073 4074 4075 0
4076 -4077 0
4076 -4072 0
4076 -4073 0
4076 -4074 0
4076 -4075 0
4078 -3068 -3111 0
-4078 3068 0
-4078 3111 0
3112 -3111 -3111 0
-3112 3111 0
-3112 3111 0
4079 -3111 -3068 0
-4079 3111 0
-4079 3068 0
4080 -3068 -3068 -2262 0
-4080 3068 0
-4080 3068 0
-4080 2262 0
-4081 3070 4078 3112 4079 4080 0
4081 -3070 0
4081 -4078 0
4081 -3112 0
4081 -4079 0
4081 -4080 0
4082 -3068 -2265 0
-4082 3068 0
-4082 2265 0
4083 -3111 -2265 0
-4083 3111 0
-4083 2265 0
4084 -3111 -2273 0
-4084 3111 0
-4084 2273 0
4085 -3068 -2273 -2262 0
-4085 3068 0
-4085 2273 0
-4085 2262 0
-149 3072 4082 4083 4084 4085 0
149 -3072 0
149 -4082 0
149 -4083 0
149 -4084 0
149 -4085 0
4086 -3068 -2268 0
-4086 3068 0
-4086 2268 0
4087 -3111 -2271 0
-4087 3111 0
-4087 2271 0
4088 -3111 -2268 0
-4088 3111 0
-4088 2268 0
4089 -3068 -2271 -2262 0
-4089 3068 0
-4089 2271 0
-4089 2262 0
-147 3074 4086 4087 4088 4089 0
147 -3074 0
147 -4086 0
147 -4087 0
147 -4088 0
147 -4089 0
4090 -2270 -2268 0
-4090 2270 0
-4090 2268 0
4091 -2260 -2268 0
-4091 2260 0
-4091 2268 0
4092 -2260 -2271 0
-4092 2260 0
-4092 2271 0
4093 -2270 -2271 -2262 0
-4093 2270 0
-4093 2271 0
-4093 2262 0
-150 2267 4090 4091 4092 4093 0
150 -2267 0
150 -4090 0
150 -4091 0
150 -4092 0
150 -4093 0
4094 -2273 -2260 0
-4094 2273 0
-4094 2260 0
4095 -2265 -2270 0
-4095 2265 0
-4095 2270 0
4096 -2265 -2260 0
-4096 2265 0
-4096 2260 0
4097 -2273 -2270 -2262 0
-4097 2273 0
-4097 2270 0
-4097 2262 0
-148 2264 4094 4095 4096 4097 0
148 -2264 0
148 -4094 0
148 -4095 0
148 -4096 0
148 -4097 0
4098 -2273 -2265 0
-4098 2273 0
-4098 2265 0
4099 -2265 -2265 0
-4099 2265 0
-4099 2265 0
4100 -2265 -2273 0
-4100 2265 0
-4100 2273 0
4101 -2273 -2273 -2262 0
-4101 2273 0
-4101 2273 0
-4101 2262 0
-4102 2276 4098 4099 4100 4101 0
4102 -2276 0
4102 -4098 0
4102 -4099 0
4102 -4100 0
4102 -4101 0
4103 -2303 -2303 0
-4103 2303 0
-4103 2303 0
-4104 2310 4103 0
4104 -2310 0
4104 -4103 0
4105 -2303 -2315 0
-4105 2303 0
-4105 2315 0
-1199 2317 4105 0
1199 -2317 0
1199 -4105 0
4106 -2303 -2321 0
-4106 2303 0
-4106 2321 0
-1197 2324 4106 0
1197 -2324 0
1197 -4106 0
4107 -2326 -2321 0
-4107 2326 0
-4107 2321 0
-1200 2331 4107 0
1200 -2331 0
1200 -4107 0
4108 -2315 -2326 0
-4108 2315 0
-4108 2326 0
-1198 2336 4108 0
1198 -2336 0
1198 -4108 0
4109 -2315 -2315 0
-4109 2315 0
-4109 2315 0
-4110 2342 4109 0
4110 -2342 0
4110 -4109 0
4111 -3816 -3816 0
-4111 3816 0
-4111 3816 0
-4112 3802 4111 0
4112 -3802 0
4112 -4111 0
4113 -3816 -2877 0
-4113 3816 0
-4113 2877 0
-514 3805 4113 0
514 -3805 0
514 -4113 0
4114 -3816 -2875 0
-4114 3816 0
-4114 2875 0
-512 3810 4114 0
512 -3810 0
512 -4114 0
4115 -2874 -2875 0
-4115 2874 0
-4115 2875 0
-515 2871 4115 0
515 -2871 0
515 -4115 0
4116 -2877 -2874 0
-4116 2877 0
-4116 2874 0
-513 2868 4116 0
513 -2868 0
513 -4116 0
4117 -2877 -2877 0
-4117 2877 0
-4117 2877 0
-4118 2880 4117 0
4118 -2880 0
4118 -4117 0
4119 -2716 -4120 0
-4119 2716 0
-4119 4120 0
4121 -4120 -4120 0
-4121 4120 0
-4121 4120 0
4122 -4120 -2716 0
-4122 4120 0
-4122 2716 0
4123 -2716 -2716 -4124 0
-4123 2716 0
-4123 2716 0
-4123 4124 0
-4125 2718 4119 4121 4122 4123 0
4125 -2718 0
4125 -4119 0
4125 -4121 0
4125 -4122 0
4125 -4123 0
4126 -2716 -4127 0
-4126 2716 0
-4126 4127 0
4128 -4120 -4127 0
-4128 4120 0
-4128 4127 0
4129 -4120 -2720 0
-4129 4120 0
-4129 2720 0
4130 -2716 -2720 -4124 0
-4130 2716 0
-4130 2720 0
-4130 4124 0
-819 2721 4126 4128 4129 4130 0
819 -2721 0
819 -4126 0
819 -4128 0
819 -4129 0
819 -4130 0
4131 -2716 -4132 0
-4131 2716 0
-4131 4132 0
4133 -4120 -2723 0
-4133 4120 0
-4133 2723 0
4134 -4120 -4132 0
-4134 4120 0
-4134 4132 0
4135 -2716 -2723 -4124 0
-4135 2716 0
-4135 2723 0
-4135 4124 0
-817 2724 4131 4133 4134 4135 0
817 -2724 0
817 -4131 0
817 -4133 0
817 -4134 0
817 -4135 0
4136 -2726 -4132 0
-4136 2726 0
-4136 4132 0
4137 -4138 -4132 0
-4137 4138 0
-4137 4132 0
4139 -4138 -2723 0
-4139 4138 0
-4139 2723 0
4140 -2726 -2723 -4124 0
-4140 2726 0
-4140 2723 0
-4140 4124 0
-820 2727 4136 4137 4139 4140 0
820 -2727 0
820 -4136 0
820 -4137 0
820 -4139 0
820 -4140 0
4141 -2720 -4138 0
-4141 2720 0
-4141 4138 0
4142 -4127 -2726 0
-4142 4127 0
-4142 2726 0
4143 -4127 -4138 0
-4143 4127 0
-4143 4138 0
4144 -2720 -2726 -4124 0
-4144 2720 0
-4144 2726 0
-4144 4124 0
-818 2729 4141 4142 4143 4144 0
818 -2729 0
818 -4141 0
818 -4142 0
818 -4143 0
818 -4144 0
4145 -2720 -4127 0
-4145 2720 0
-4145 4127 0
4146 -4127 -4127 0
-4146 4127 0
-4146 4127 0
4147 -4127 -2720 0
-4147 4127 0
-4147 2720 0
4148 -2720 -2720 -4124 0
-4148 2720 0
-4148 2720 0
-4148 4124 0
-4149 2732 4145 4146 4147 4148 0
4149 -2732 0
4149 -4145 0
4149 -4146 0
4149 -4147 0
4149 -4148 0
4150 -4151 -4151 0
-4150 4151 0
-4150 4151 0
-4152 4153 4150 0
4152 -4153 0
4152 -4150 0
4154 -4151 -4155 0
-4154 4151 0
-4154 4155 0
-1059 4156 4154 0
1059 -4156 0
1059 -4154 0
4157 -4151 -4158 0
-4157 4151 0
-4157 4158 0
-1057 4159 4157 0
1057 -4159 0
1057 -4157 0
4160 -4161 -4158 0
-4160 4161 0
-4160 4158 0
-1060 4162 4160 0
1060 -4162 0
1060 -4160 0
4163 -4155 -4161 0
-4163 4155 0
-4163 4161 0
-1058 4164 4163 0
1058 -4164 0
1058 -4163 0
4165 -4155 -4155 0
-4165 4155 0
-4165 4155 0
-4166 4167 4165 0
4166 -4167 0
4166 -4165 0
4168 -3402 -4169 0
-4168 3402 0
-4168 4169 0
4170 -4169 -4169 0
-4170 4169 0
-4170 4169 0
4171 -4169 -3402 0
-4171 4169 0
-4171 3402 0
4172 -3402 -3402 -4173 0
-4172 3402 0
-4172 3402 0
-4172 4173 0
-4174 3404 4168 4170 4171 4172 0
4174 -3404 0
4174 -4168 0
4174 -4170 0
4174 -4171 0
4174 -4172 0
4175 -3402 -4176 0
-4175 3402 0
-4175 4176 0
4177 -4169 -4176 0
-4177 4169 0
-4177 4176 0
4178 -4169 -3406 0
-4178 4169 0
-4178 3406 0
4179 -3402 -3406 -4173 0
-4179 3402 0
-4179 3406 0
-4179 4173 0
-824 3407 4175 4177 4178 4179 0
824 -3407 0
824 -4175 0
824 -4177 0
824 -4178 0
824 -4179 0
4180 -3402 -4181 0
-4180 3402 0
-4180 4181 0
4182 -4169 -3409 0
-4182 4169 0
-4182 3409 0
4183 -4169 -4181 0
-4183 4169 0
-4183 4181 0
4184 -3402 -3409 -4173 0
-4184 3402 0
-4184 3409 0
-4184 4173 0
-822 3410 4180 4182 4183 4184 0
822 -3410 0
822 -4180 0
822 -4182 0
822 -4183 0
822 -4184 0
4185 -3412 -4181 0
-4185 3412 0
-4185 4181 0
4186 -4187 -4181 0
-4186 4187 0
-4186 4181 0
4188 -4187 -3409 0
-4188 4187 0
-4188 3409 0
4189 -3412 -3409 -4173 0
-4189 3412 0
-4189 3409 0
-4189 4173 0
-825 3413 4185 4186 4188 4189 0
825 -3413 0
825 -4185 0
825 -4186 0
825 -4188 0
825 -4189 0
4190 -3406 -4187 0
-4190 3406 0
-4190 4187 0
4191 -4176 -3412 0
-4191 4176 0
-4191 3412 0
4192 -4176 -4187 0
-4192 4176 0
-4192 4187 0
4193 -3406 -3412 -4173 0
-4193 3406 0
-4193 3412 0
-4193 4173 0
-823 3415 4190 4191 4192 4193 0
823 -3415 0
823 -4190 0
823 -4191 0
823 -4192 0
823 -4193 0
4194 -3406 -4176 0
-4194 3406 0
-4194 4176 0
4195 -4176 -4176 0
-4195 4176 0
-4195 4176 0
4196 -4176 -3406 0
-4196 4176 0
-4196 3406 0
4197 -3406 -3406 -4173 0
-4197 3406 0
-4197 3406 0
-4197 4173 0
-4198 3418 4194 4195 4196 4197 0
4198 -3418 0
4198 -4194 0
4198 -4195 0
4198 -4196 0
4198 -4197 0
4199 -4200 -4200 0
-4199 4200 0
-4199 4200 0
-4201 4202 4199 0
4201 -4202 0
4201 -4199 0
4203 -4200 -4204 0
-4203 4200 0
-4203 4204 0
-974 4205 4203 0
974 -4205 0
974 -4203 0
4206 -4200 -4207 0
-4206 4200 0
-4206 4207 0
-972 4208 4206 0
972 -4208 0
972 -4206 0
4209 -4210 -4207 0
-4209 4210 0
-4209 4207 0
-975 4211 4209 0
975 -4211 0
975 -4209 0
4212 -4204 -4210 0
-4212 4204 0
-4212 4210 0
-973 4213 4212 0
973 -4213 0
973 -4212 0
4214 -4204 -4204 0
-4214 4204 0
-4214 4204 0
-4215 4216 4214 0
4215 -4216 0
4215 -4214 0
4217 -2556 -2556 0
-4217 2556 0
-4217 2556 0
-4218 2548 4217 0
4218 -2548 0
4218 -4217 0
4219 -2556 -1864 0
-4219 2556 0
-4219 1864 0
-384 2544 4219 0
384 -2544 0
384 -4219 0
4220 -2556 -1867 0
-4220 2556 0
-4220 1867 0
-382 2562 4220 0
382 -2562 0
382 -4220 0
4221 -1863 -1867 0
-4221 1863 0
-4221 1867 0
-385 1866 4221 0
385 -1866 0
385 -4221 0
4222 -1864 -1863 0
-4222 1864 0
-4222 1863 0
-383 1856 4222 0
383 -1856 0
383 -4222 0
4223 -1864 -1864 0
-4223 1864 0
-4223 1864 0
-4224 1858 4223 0
4224 -1858 0
4224 -4223 0
4225 -2116 -4226 0
-4225 2116 0
-4225 4226 0
4227 -4226 -4226 0
-4227 4226 0
-4227 4226 0
4228 -4226 -2116 0
-4228 4226 0
-4228 2116 0
4229 -2116 -2116 -4230 0
-4229 2116 0
-4229 2116 0
-4229 4230 0
-4231 2118 4225 4227 4228 4229 0
4231 -2118 0
4231 -4225 0
4231 -4227 0
4231 -4228 0
4231 -4229 0
4232 -2116 -4233 0
-4232 2116 0
-4232 4233 0
4234 -4226 -4233 0
-4234 4226 0
-4234 4233 0
4235 -4226 -2120 0
-4235 4226 0
-4235 2120 0
4236 -2116 -2120 -4230 0
-4236 2116 0
-4236 2120 0
-4236 4230 0
-1104 2121 4232 4234 4235 4236 0
1104 -2121 0
1104 -4232 0
1104 -4234 0
1104 -4235 0
1104 -4236 0
4237 -2116 -4238 0
-4237 2116 0
-4237 4238 0
4239 -4226 -2123 0
-4239 4226 0
-4239 2123 0
4240 -4226 -4238 0
-4240 4226 0
-4240 4238 0
4241 -2116 -2123 -4230 0
-4241 2116 0
-4241 2123 0
-4241 4230 0
-1102 2124 4237 4239 4240 4241 0
1102 -2124 0
1102 -4237 0
1102 -4239 0
1102 -4240 0
1102 -4241 0
4242 -2126 -4238 0
-4242 2126 0
-4242 4238 0
4243 -4244 -4238 0
-4243 4244 0
-4243 4238 0
4245 -4244 -2123 0
-4245 4244 0
-4245 2123 0
4246 -2126 -2123 -4230 0
-4246 2126 0
-4246 2123 0
-4246 4230 0
-1105 2127 4242 4243 4245 4246 0
1105 -2127 0
1105 -4242 0
1105 -4243 0
1105 -4245 0
1105 -4246 0
4247 -2120 -4244 0
-4247 2120 0
-4247 4244 0
4248 -4233 -2126 0
-4248 4233 0
-4248 2126 0
4249 -4233 -4244 0
-4249 4233 0
-4249 4244 0
4250 -2120 -2126 -4230 0
-4250 2120 0
-4250 2126 0
-4250 4230 0
-1103 2129 4247 4248 4249 4250 0
1103 -2129 0
1103 -4247 0
1103 -4248 0
1103 -4249 0
1103 -4250 0
4251 -2120 -4233 0
-4251 2120 0
-4251 4233 0
4252 -4233 -4233 0
-4252 4233 0
-4252 4233 0
4253 -4233 -2120 0
-4253 4233 0
-4253 2120 0
4254 -2120 -2120 -4230 0
-4254 2120 0
-4254 2120 0
-4254 4230 0
-4255 2132 4251 4252 4253 4254 0
4255 -2132 0
4255 -4251 0
4255 -4252 0
4255 -4253 0
4255 -4254 0
4256 -1336 -1336 0
-4256 1336 0
-4256 1336 0
-4257 1343 4256 0
4257 -1343 0
4257 -4256 0
4258 -1336 -1348 0
-4258 1336 0
-4258 1348 0
-784 1350 4258 0
784 -1350 0
784 -4258 0
4259 -1336 -1354 0
-4259 1336 0
-4259 1354 0
-782 1357 4259 0
782 -1357 0
782 -4259 0
4260 -1359 -1354 0
-4260 1359 0
-4260 1354 0
-785 1364 4260 0
785 -1364 0
785 -4260 0
4261 -1348 -1359 0
-4261 1348 0
-4261 1359 0
-783 1369 4261 0
783 -1369 0
783 -4261 0
4262 -1348 -1348 0
-4262 1348 0
-4262 1348 0
-4263 1375 4262 0
4263 -1375 0
4263 -4262 0
4264 -2193 -2193 0
-4264 2193 0
-4264 2193 0
-4265 2200 4264 0
4265 -2200 0
4265 -4264 0
4266 -2193 -2205 0
-4266 2193 0
-4266 2205 0
-1069 2207 4266 0
1069 -2207 0
1069 -4266 0
4267 -2193 -2211 0
-4267 2193 0
-4267 2211 0
-1067 2214 4267 0
1067 -2214 0
1067 -4267 0
4268 -2216 -2211 0
-4268 2216 0
-4268 2211 0
-1070 2221 4268 0
1070 -2221 0
1070 -4268 0
4269 -2205 -2216 0
-4269 2205 0
-4269 2216 0
-1068 2226 4269 0
1068 -2226 0
1068 -4269 0
4270 -2205 -2205 0
-4270 2205 0
-4270 2205 0
-4271 2232 4270 0
4271 -2232 0
4271 -4270 0
4272 -3664 -4273 0
-4272 3664 0
-4272 4273 0
4274 -4273 -4273 0
-4274 4273 0
-4274 4273 0
4275 -4273 -3664 0
-4275 4273 0
-4275 3664 0
4276 -3664 -3664 -4277 0
-4276 3664 0
-4276 3664 0
-4276 4277 0
-4278 3666 4272 4274 4275 4276 0
4278 -3666 0
4278 -4272 0
4278 -4274 0
4278 -4275 0
4278 -4276 0
4279 -3664 -4280 0
-4279 3664 0
-4279 4280 0
4281 -4273 -4280 0
-4281 4273 0
-4281 4280 0
4282 -4273 -3668 0
-4282 4273 0
-4282 3668 0
4283 -3664 -3668 -4277 0
-4283 3664 0
-4283 3668 0
-4283 4277 0
-54 3669 4279 4281 4282 4283 0
54 -3669 0
54 -4279 0
54 -4281 0
54 -4282 0
54 -4283 0
4284 -3664 -4285 0
-4284 3664 0
-4284 4285 0
4286 -4273 -3671 0
-4286 4273 0
-4286 3671 0
4287 -4273 -4285 0
-4287 4273 0
-4287 4285 0
4288 -3664 -3671 -4277 0
-4288 3664 0
-4288 3671 0
-4288 4277 0
-52 3672 4284 4286 4287 4288 0
52 -3672 0
52 -4284 0
52 -4286 0
52 -4287 0
52 -4288 0
4289 -3674 -4285 0
-4289 3674 0
-4289 4285 0
4290 -4291 -4285 0
-4290 4291 0
-4290 4285 0
4292 -4291 -3671 0
-4292 4291 0
-4292 3671 0
4293 -3674 -3671 -4277 0
-4293 3674 0
-4293 3671 0
-4293 4277 0
-55 3675 4289 4290 4292 4293 0
55 -3675 0
55 -4289 0
55 -4290 0
55 -4292 0
55 -4293 0
4294 -3668 -4291 0
-4294 3668 0
-4294 4291 0
4295 -4280 -3674 0
-4295 4280 0
-4295 3674 0
4296 -4280 -4291 0
-4296 4280 0
-4296 4291 0
4297 -3668 -3674 -4277 0
-4297 3668 0
-4297 3674 0
-4297 4277 0
-53 3677 4294 4295 4296 4297 0
53 -3677 0
53 -4294 0
53 -4295 0
53 -4296 0
53 -4297 0
4298 -3668 -4280 0
-4298 3668 0
-4298 4280 0
4299 -4280 -4280 0
-4299 4280 0
-4299 4280 0
4300 -4280 -3668 0
-4300 4280 0
-4300 3668 0
4301 -3668 -3668 -4277 0
-4301 3668 0
-4301 3668 0
-4301 4277 0
-4302 3680 4298 4299 4300 4301 0
4302 -3680 0
4302 -4298 0
4302 -4299 0
4302 -4300 0
4302 -4301 0
4303 -1774 -1774 0
-4303 1774 0
-4303 1774 0
-4304 1781 4303 0
4304 -1781 0
4304 -4303 0
4305 -1774 -1786 0
-4305 1774 0
-4305 1786 0
-259 1788 4305 0
259 -1788 0
259 -4305 0
4306 -1774 -1792 0
-4306 1774 0
-4306 1792 0
-257 1795 4306 0
257 -1795 0
257 -4306 0
4307 -1797 -1792 0
-4307 1797 0
-4307 1792 0
-260 1802 4307 0
260 -1802 0
260 -4307 0
4308 -1786 -1797 0
-4308 1786 0
-4308 1797 0
-258 1807 4308 0
258 -1807 0
258 -4308 0
4309 -1786 -1786 0
-4309 1786 0
-4309 1786 0
-4310 1813 4309 0
4310 -1813 0
4310 -4309 0
4311 -4312 -4313 0
-4311 4312 0
-4311 4313 0
4314 -4313 -4313 0
-4314 4313 0
-4314 4313 0
4315 -4313 -4312 0
-4315 4313 0
-4315 4312 0
4316 -4312 -4312 -4317 0
-4316 4312 0
-4316 4312 0
-4316 4317 0
-4318 4319 4311 4314 4315 4316 0
4318 -4319 0
4318 -4311 0
4318 -4314 0
4318 -4315 0
4318 -4316 0
4320 -4312 -4321 0
-4320 4312 0
-4320 4321 0
4322 -4313 -4321 0
-4322 4313 0
-4322 4321 0
4323 -4313 -4324 0
-4323 4313 0
-4323 4324 0
4325 -4312 -4324 -4317 0
-4325 4312 0
-4325 4324 0
-4325 4317 0
-884 4326 4320 4322 4323 4325 0
884 -4326 0
884 -4320 0
884 -4322 0
884 -4323 0
884 -4325 0
4327 -4312 -4328 0
-4327 4312 0
-4327 4328 0
4329 -4313 -4330 0
-4329 4313 0
-4329 4330 0
4331 -4313 -4328 0
-4331 4313 0
-4331 4328 0
4332 -4312 -4330 -4317 0
-4332 4312 0
-4332 4330 0
-4332 4317 0
-882 4333 4327 4329 4331 4332 0
882 -4333 0
882 -4327 0
882 -4329 0
882 -4331 0
882 -4332 0
4334 -4335 -4328 0
-4334 4335 0
-4334 4328 0
4336 -4337 -4328 0
-4336 4337 0
-4336 4328 0
4338 -4337 -4330 0
-4338 4337 0
-4338 4330 0
4339 -4335 -4330 -4317 0
-4339 4335 0
-4339 4330 0
-4339 4317 0
-885 4340 4334 4336 4338 4339 0
885 -4340 0
885 -4334 0
885 -4336 0
885 -4338 0
885 -4339 0
4341 -4324 -4337 0
-4341 4324 0
-4341 4337 0
4342 -4321 -4335 0
-4342 4321 0
-4342 4335 0
4343 -4321 -4337 0
-4343 4321 0
-4343 4337 0
4344 -4324 -4335 -4317 0
-4344 4324 0
-4344 4335 0
-4344 4317 0
-883 4345 4341 4342 4343 4344 0
883 -4345 0
883 -4341 0
883 -4342 0
883 -4343 0
883 -4344 0
4346 -4324 -4321 0
-4346 4324 0
-4346 4321 0
4347 -4321 -4321 0
-4347 4321 0
-4347 4321 0
4348 -4321 -4324 0
-4348 4321 0
-4348 4324 0
4349 -4324 -4324 -4317 0
-4349 4324 0
-4349 4324 0
-4349 4317 0
-4350 4351 4346 4347 4348 4349 0
4350 -4351 0
4350 -4346 0
4350 -4347 0
4350 -4348 0
4350 -4349 0
4352 -4353 -4353 0
-4352 4353 0
-4352 4353 0
-4354 4355 4352 0
4354 -4355 0
4354 -4352 0
4356 -4353 -4357 0
-4356 4353 0
-4356 4357 0
-1014 4358 4356 0
1014 -4358 0
1014 -4356 0
4359 -4353 -4360 0
-4359 4353 0
-4359 4360 0
-1012 4361 4359 0
1012 -4361 0
1012 -4359 0
4362 -4363 -4360 0
-4362 4363 0
-4362 4360 0
-1015 4364 4362 0
1015 -4364 0
1015 -4362 0
4365 -4357 -4363 0
-4365 4357 0
-4365 4363 0
-1013 4366 4365 0
1013 -4366 0
1013 -4365 0
4367 -4357 -4357 0
-4367 4357 0
-4367 4357 0
-4368 4369 4367 0
4368 -4369 0
4368 -4367 0
4370 -3510 -3510 0
-4370 3510 0
-4370 3510 0
-4371 3517 4370 0
4371 -3517 0
4371 -4370 0
4372 -3510 -3522 0
-4372 3510 0
-4372 3522 0
-1049 3524 4372 0
1049 -3524 0
1049 -4372 0
4373 -3510 -3528 0
-4373 3510 0
-4373 3528 0
-1047 3531 4373 0
1047 -3531 0
1047 -4373 0
4374 -3533 -3528 0
-4374 3533 0
-4374 3528 0
-1050 3538 4374 0
1050 -3538 0
1050 -4374 0
4375 -3522 -3533 0
-4375 3522 0
-4375 3533 0
-1048 3543 4375 0
1048 -3543 0
1048 -4375 0
4376 -3522 -3522 0
-4376 3522 0
-4376 3522 0
-4377 3549 4376 0
4377 -3549 0
4377 -4376 0
4378 -3615 -3615 0
-4378 3615 0
-4378 3615 0
-4379 3595 4378 0
4379 -3595 0
4379 -4378 0
4380 -3615 -3623 0
-4380 3615 0
-4380 3623 0
-454 3599 4380 0
454 -3599 0
454 -4380 0
4381 -3615 -3618 0
-4381 3615 0
-4381 3618 0
-452 3606 4381 0
452 -3606 0
452 -4381 0
4382 -3613 -3618 0
-4382 3613 0
-4382 3618 0
-455 3608 4382 0
455 -3608 0
455 -4382 0
4383 -3623 -3613 0
-4383 3623 0
-4383 3613 0
-453 3602 4383 0
453 -3602 0
453 -4383 0
4384 -3623 -3623 0
-4384 3623 0
-4384 3623 0
-4385 3629 4384 0
4385 -3629 0
4385 -4384 0
4386 -2142 -2139 0
-4386 2142 0
-4386 2139 0
4387 -2139 -2139 0
-4387 2139 0
-4387 2139 0
4388 -2139 -2142 0
-4388 2139 0
-4388 2142 0
4389 -2142 -2142 -2150 0
-4389 2142 0
-4389 2142 0
-4389 2150 0
-4390 2136 4386 4387 4388 4389 0
4390 -2136 0
4390 -4386 0
4390 -4387 0
4390 -4388 0
4390 -4389 0
4391 -2142 -4392 0
-4391 2142 0
-4391 4392 0
4393 -2139 -4392 0
-4393 2139 0
-4393 4392 0
4394 -2139 -4003 0
-4394 2139 0
-4394 4003 0
4395 -2142 -4003 -2150 0
-4395 2142 0
-4395 4003 0
-4395 2150 0
-399 4004 4391 4393 4394 4395 0
399 -4004 0
399 -4391 0
399 -4393 0
399 -4394 0
399 -4395 0
4396 -2142 -2138 0
-4396 2142 0
-4396 2138 0
4397 -2139 -2141 0
-4397 2139 0
-4397 2141 0
4398 -2139 -2138 0
-4398 2139 0
-4398 2138 0
4399 -2142 -2141 -2150 0
-4399 2142 0
-4399 2141 0
-4399 2150 0
-397 2134 4396 4397 4398 4399 0
397 -2134 0
397 -4396 0
397 -4397 0
397 -4398 0
397 -4399 0
4400 -2145 -2138 0
-4400 2145 0
-4400 2138 0
4401 -2147 -2138 0
-4401 2147 0
-4401 2138 0
4402 -2147 -2141 0
-4402 2147 0
-4402 2141 0
4403 -2145 -2141 -2150 0
-4403 2145 0
-4403 2141 0
-4403 2150 0
-400 2144 4400 4401 4402 4403 0
400 -2144 0
400 -4400 0
400 -4401 0
400 -4402 0
400 -4403 0
4404 -4003 -2147 0
-4404 4003 0
-4404 2147 0
4405 -4392 -2145 0
-4405 4392 0
-4405 2145 0
4406 -4392 -2147 0
-4406 4392 0
-4406 2147 0
4407 -4003 -2145 -2150 0
-4407 4003 0
-4407 2145 0
-4407 2150 0
-398 4008 4404 4405 4406 4407 0
398 -4008 0
398 -4404 0
398 -4405 0
398 -4406 0
398 -4407 0
4408 -4003 -4392 0
-4408 4003 0
-4408 4392 0
4409 -4392 -4392 0
-4409 4392 0
-4409 4392 0
4410 -4392 -4003 0
-4410 4392 0
-4410 4003 0
4411 -4003 -4003 -2150 0
-4411 4003 0
-4411 4003 0
-4411 2150 0
-4412 4011 4408 4409 4410 4411 0
4412 -4011 0
4412 -4408 0
4412 -4409 0
4412 -4410 0
4412 -4411 0
4413 -3420 -3420 0
-4413 3420 0
-4413 3420 0
-4414 3427 4413 0
4414 -3427 0
4414 -4413 0
4415 -3420 -3432 0
-4415 3420 0
-4415 3432 0
-1179 3434 4415 0
1179 -3434 0
1179 -4415 0
4416 -3420 -3438 0
-4416 3420 0
-4416 3438 0
-1177 3441 4416 0
1177 -3441 0
1177 -4416 0
4417 -3443 -3438 0
-4417 3443 0
-4417 3438 0
-1180 3448 4417 0
1180 -3448 0
1180 -4417 0
4418 -3432 -3443 0
-4418 3432 0
-4418 3443 0
-1178 3453 4418 0
1178 -3453 0
1178 -4418 0
4419 -3432 -3432 0
-4419 3432 0
-4419 3432 0
-4420 3459 4419 0
4420 -3459 0
4420 -4419 0
4421 -4422 -4422 0
-4421 4422 0
-4421 4422 0
-4423 4424 4421 0
4423 -4424 0
4423 -4421 0
4425 -4422 -4426 0
-4425 4422 0
-4425 4426 0
-724 4427 4425 0
724 -4427 0
724 -4425 0
4428 -4422 -4429 0
-4428 4422 0
-4428 4429 0
-722 4430 4428 0
722 -4430 0
722 -4428 0
4431 -4432 -4429 0
-4431 4432 0
-4431 4429 0
-725 4433 4431 0
725 -4433 0
725 -4431 0
4434 -4426 -4432 0
-4434 4426 0
-4434 4432 0
-723 4435 4434 0
723 -4435 0
723 -4434 0
4436 -4426 -4426 0
-4436 4426 0
-4436 4426 0
-4437 4438 4436 0
4437 -4438 0
4437 -4436 0
4439 -3829 -3829 0
-4439 3829 0
-4439 3829 0
-4440 3835 4439 0
4440 -3835 0
4440 -4439 0
4441 -3829 -2788 0
-4441 3829 0
-4441 2788 0
-1144 3840 4441 0
1144 -3840 0
1144 -4441 0
4442 -3829 -2786 0
-4442 3829 0
-4442 2786 0
-1142 3845 4442 0
1142 -3845 0
1142 -4442 0
4443 -2785 -2786 0
-4443 2785 0
-4443 2786 0
-1145 2782 4443 0
1145 -2782 0
1145 -4443 0
4444 -2788 -2785 0
-4444 2788 0
-4444 2785 0
-1143 2779 4444 0
1143 -2779 0
1143 -4444 0
4445 -2788 -2788 0
-4445 2788 0
-4445 2788 0
-4446 2791 4445 0
4446 -2791 0
4446 -4445 0
4447 -4422 -4448 0
-4447 4422 0
-4447 4448 0
4449 -4448 -4448 0
-4449 4448 0
-4449 4448 0
4450 -4448 -4422 0
-4450 4448 0
-4450 4422 0
4451 -4422 -4422 -4452 0
-4451 4422 0
-4451 4422 0
-4451 4452 0
-4453 4424 4447 4449 4450 4451 0
4453 -4424 0
4453 -4447 0
4453 -4449 0
4453 -4450 0
4453 -4451 0
4454 -4422 -4455 0
-4454 4422 0
-4454 4455 0
4456 -4448 -4455 0
-4456 4448 0
-4456 4455 0
4457 -4448 -4426 0
-4457 4448 0
-4457 4426 0
4458 -4422 -4426 -4452 0
-4458 4422 0
-4458 4426 0
-4458 4452 0
-314 4427 4454 4456 4457 4458 0
314 -4427 0
314 -4454 0
314 -4456 0
314 -4457 0
314 -4458 0
4459 -4422 -4460 0
-4459 4422 0
-4459 4460 0
4461 -4448 -4429 0
-4461 4448 0
-4461 4429 0
4462 -4448 -4460 0
-4462 4448 0
-4462 4460 0
4463 -4422 -4429 -4452 0
-4463 4422 0
-4463 4429 0
-4463 4452 0
-312 4430 4459 4461 4462 4463 0
312 -4430 0
312 -4459 0
312 -4461 0
312 -4462 0
312 -4463 0
4464 -4432 -4460 0
-4464 4432 0
-4464 4460 0
4465 -4466 -4460 0
-4465 4466 0
-4465 4460 0
4467 -4466 -4429 0
-4467 4466 0
-4467 4429 0
4468 -4432 -4429 -4452 0
-4468 4432 0
-4468 4429 0
-4468 4452 0
-315 4433 4464 4465 4467 4468 0
315 -4433 0
315 -4464 0
315 -4465 0
315 -4467 0
315 -4468 0
4469 -4426 -4466 0
-4469 4426 0
-4469 4466 0
4470 -4455 -4432 0
-4470 4455 0
-4470 4432 0
4471 -4455 -4466 0
-4471 4455 0
-4471 4466 0
4472 -4426 -4432 -4452 0
-4472 4426 0
-4472 4432 0
-4472 4452 0
-313 4435 4469 4470 4471 4472 0
313 -4435 0
313 -4469 0
313 -4470 0
313 -4471 0
313 -4472 0
4473 -4426 -4455 0
-4473 4426 0
-4473 4455 0
4474 -4455 -4455 0
-4474 4455 0
-4474 4455 0
4475 -4455 -4426 0
-4475 4455 0
-4475 4426 0
4476 -4426 -4426 -4452 0
-4476 4426 0
-4476 4426 0
-4476 4452 0
-4477 4438 4473 4474 4475 4476 0
4477 -4438 0
4477 -4473 0
4477 -4474 0
4477 -4475 0
4477 -4476 0
4478 -3715 -3715 0
-4478 3715 0
-4478 3715 0
-4479 3695 4478 0
4479 -3695 0
4479 -4478 0
4480 -3715 -3723 0
-4480 3715 0
-4480 3723 0
-994 3699 4480 0
994 -3699 0
994 -4480 0
4481 -3715 -3718 0
-4481 3715 0
-4481 3718 0
-992 3706 4481 0
992 -3706 0
992 -4481 0
4482 -3713 -3718 0
-4482 3713 0
-4482 3718 0
-995 3708 4482 0
995 -3708 0
995 -4482 0
4483 -3723 -3713 0
-4483 3723 0
-4483 3713 0
-993 3702 4483 0
993 -3702 0
993 -4483 0
4484 -3723 -3723 0
-4484 3723 0
-4484 3723 0
-4485 3729 4484 0
4485 -3729 0
4485 -4484 0
4486 -1728 -1728 0
-4486 1728 0
-4486 1728 0
-4487 1731 4486 0
4487 -1731 0
4487 -4486 0
4488 -1728 -2859 0
-4488 1728 0
-4488 2859 0
-1154 3306 4488 0
1154 -3306 0
1154 -4488 0
4489 -1728 -1725 0
-4489 1728 0
-4489 1725 0
-1152 1719 4489 0
1152 -1719 0
1152 -4489 0
4490 -1726 -1725 0
-4490 1726 0
-4490 1725 0
-1155 1722 4490 0
1155 -1722 0
1155 -4490 0
4491 -2859 -1726 0
-4491 2859 0
-4491 1726 0
-1153 2854 4491 0
1153 -2854 0
1153 -4491 0
4492 -2859 -2859 0
-4492 2859 0
-4492 2859 0
-4493 2862 4492 0
4493 -2862 0
4493 -4492 0
4494 -4495 -4496 0
-4494 4495 0
-4494 4496 0
4497 -4496 -4496 0
-4497 4496 0
-4497 4496 0
4498 -4496 -4495 0
-4498 4496 0
-4498 4495 0
4499 -4495 -4495 -4500 0
-4499 4495 0
-4499 4495 0
-4499 4500 0
-4501 4502 4494 4497 4498 4499 0
4501 -4502 0
4501 -4494 0
4501 -4497 0
4501 -4498 0
4501 -4499 0
4503 -4495 -4504 0
-4503 4495 0
-4503 4504 0
4505 -4496 -4504 0
-4505 4496 0
-4505 4504 0
4506 -4496 -4507 0
-4506 4496 0
-4506 4507 0
4508 -4495 -4507 -4500 0
-4508 4495 0
-4508 4507 0
-4508 4500 0
-659 4509 4503 4505 4506 4508 0
659 -4509 0
659 -4503 0
659 -4505 0
659 -4506 0
659 -4508 0
4510 -4495 -4511 0
-4510 4495 0
-4510 4511 0
4512 -4496 -4513 0
-4512 4496 0
-4512 4513 0
4514 -4496 -4511 0
-4514 4496 0
-4514 4511 0
4515 -4495 -4513 -4500 0
-4515 4495 0
-4515 4513 0
-4515 4500 0
-657 4516 4510 4512 4514 4515 0
657 -4516 0
657 -4510 0
657 -4512 0
657 -4514 0
657 -4515 0
4517 -4518 -4511 0
-4517 4518 0
-4517 4511 0
4519 -4520 -4511 0
-4519 4520 0
-4519 4511 0
4521 -4520 -4513 0
-4521 4520 0
-4521 4513 0
4522 -4518 -4513 -4500 0
-4522 4518 0
-4522 4513 0
-4522 4500 0
-660 4523 4517 4519 4521 4522 0
660 -4523 0
660 -4517 0
660 -4519 0
660 -4521 0
660 -4522 0
4524 -4507 -4520 0
-4524 4507 0
-4524 4520 0
4525 -4504 -4518 0
-4525 4504 0
-4525 4518 0
4526 -4504 -4520 0
-4526 4504 0
-4526 4520 0
4527 -4507 -4518 -4500 0
-4527 4507 0
-4527 4518 0
-4527 4500 0
-658 4528 4524 4525 4526 4527 0
658 -4528 0
658 -4524 0
658 -4525 0
658 -4526 0
658 -4527 0
4529 -4507 -4504 0
-4529 4507 0
-4529 4504 0
4530 -4504 -4504 0
-4530 4504 0
-4530 4504 0
4531 -4504 -4507 0
-4531 4504 0
-4531 4507 0
4532 -4507 -4507 -4500 0
-4532 4507 0
-4532 4507 0
-4532 4500 0
-4533 4534 4529 4530 4531 4532 0
4533 -4534 0
4533 -4529 0
4533 -4530 0
4533 -4531 0
4533 -4532 0
4535 -1840 -1840 0
-4535 1840 0
-4535 1840 0
-4536 1820 4535 0
4536 -1820 0
4536 -4535 0
4537 -1840 -1848 0
-4537 1840 0
-4537 1848 0
-874 1824 4537 0
874 -1824 0
874 -4537 0
4538 -1840 -1843 0
-4538 1840 0
-4538 1843 0
-872 1831 4538 0
872 -1831 0
872 -4538 0
4539 -1838 -1843 0
-4539 1838 0
-4539 1843 0
-875 1833 4539 0
875 -1833 0
875 -4539 0
4540 -1848 -1838 0
-4540 1848 0
-4540 1838 0
-873 1827 4540 0
873 -1827 0
873 -4540 0
4541 -1848 -1848 0
-4541 1848 0
-4541 1848 0
-4542 1854 4541 0
4542 -1854 0
4542 -4541 0
4543 -2600 -2600 0
-4543 2600 0
-4543 2600 0
-4544 2580 4543 0
4544 -2580 0
4544 -4543 0
4545 -2600 -2608 0
-4545 2600 0
-4545 2608 0
-899 2584 4545 0
899 -2584 0
899 -4545 0
4546 -2600 -2603 0
-4546 2600 0
-4546 2603 0
-897 2591 4546 0
897 -2591 0
897 -4546 0
4547 -2598 -2603 0
-4547 2598 0
-4547 2603 0
-900 2593 4547 0
900 -2593 0
900 -4547 0
4548 -2608 -2598 0
-4548 2608 0
-4548 2598 0
-898 2587 4548 0
898 -2587 0
898 -4548 0
4549 -2608 -2608 0
-4549 2608 0
-4549 2608 0
-4550 2614 4549 0
4550 -2614 0
4550 -4549 0
4551 -2047 -2044 0
-4551 2047 0
-4551 2044 0
4552 -2044 -2044 0
-4552 2044 0
-4552 2044 0
4553 -2044 -2047 0
-4553 2044 0
-4553 2047 0
4554 -2047 -2047 -2055 0
-4554 2047 0
-4554 2047 0
-4554 2055 0
-4555 2041 4551 4552 4553 4554 0
4555 -2041 0
4555 -4551 0
4555 -4552 0
4555 -4553 0
4555 -4554 0
4556 -2047 -2889 0
-4556 2047 0
-4556 2889 0
4557 -2044 -2889 0
-4557 2044 0
-4557 2889 0
4558 -2044 -2894 0
-4558 2044 0
-4558 2894 0
4559 -2047 -2894 -2055 0
-4559 2047 0
-4559 2894 0
-4559 2055 0
-419 2882 4556 4557 4558 4559 0
419 -2882 0
419 -4556 0
419 -4557 0
419 -4558 0
419 -4559 0
4560 -2047 -2043 0
-4560 2047 0
-4560 2043 0
4561 -2044 -2046 0
-4561 2044 0
-4561 2046 0
4562 -2044 -2043 0
-4562 2044 0
-4562 2043 0
4563 -2047 -2046 -2055 0
-4563 2047 0
-4563 2046 0
-4563 2055 0
-417 2039 4560 4561 4562 4563 0
417 -2039 0
417 -4560 0
417 -4561 0
417 -4562 0
417 -4563 0
4564 -2050 -2043 0
-4564 2050 0
-4564 2043 0
4565 -2052 -2043 0
-4565 2052 0
-4565 2043 0
4566 -2052 -2046 0
-4566 2052 0
-4566 2046 0
4567 -2050 -2046 -2055 0
-4567 2050 0
-4567 2046 0
-4567 2055 0
-420 2049 4564 4565 4566 4567 0
420 -2049 0
420 -4564 0
420 -4565 0
420 -4566 0
420 -4567 0
4568 -2894 -2052 0
-4568 2894 0
-4568 2052 0
4569 -2889 -2050 0
-4569 2889 0
-4569 2050 0
4570 -2889 -2052 0
-4570 2889 0
-4570 2052 0
4571 -2894 -2050 -2055 0
-4571 2894 0
-4571 2050 0
-4571 2055 0
-418 2900 4568 4569 4570 4571 0
418 -2900 0
418 -4568 0
418 -4569 0
418 -4570 0
418 -4571 0
4572 -2894 -2889 0
-4572 2894 0
-4572 2889 0
2908 -2889 -2889 0
-2908 2889 0
-2908 2889 0
4573 -2889 -2894 0
-4573 2889 0
-4573 2894 0
4574 -2894 -2894 -2055 0
-4574 2894 0
-4574 2894 0
-4574 2055 0
-4575 2886 4572 2908 4573 4574 0
4575 -2886 0
4575 -4572 0
4575 -2908 0
4575 -4573 0
4575 -4574 0
4576 -4577 -4577 0
-4576 4577 0
-4576 4577 0
-4578 4579 4576 0
4578 -4579 0
4578 -4576 0
4580 -4577 -4581 0
-4580 4577 0
-4580 4581 0
-1034 4582 4580 0
1034 -4582 0
1034 -4580 0
4583 -4577 -4584 0
-4583 4577 0
-4583 4584 0
-1032 4585 4583 0
1032 -4585 0
1032 -4583 0
4586 -4587 -4584 0
-4586 4587 0
-4586 4584 0
-1035 4588 4586 0
1035 -4588 0
1035 -4586 0
4589 -4581 -4587 0
-4589 4581 0
-4589 4587 0
-1033 4590 4589 0
1033 -4590 0
1033 -4589 0
4591 -4581 -4581 0
-4591 4581 0
-4591 4581 0
-4592 4593 4591 0
4592 -4593 0
4592 -4591 0
4594 -1418 -4595 0
-4594 1418 0
-4594 4595 0
4596 -4595 -4595 0
-4596 4595 0
-4596 4595 0
4597 -4595 -1418 0
-4597 4595 0
-4597 1418 0
4598 -1418 -1418 -3991 0
-4598 1418 0
-4598 1418 0
-4598 3991 0
-4599 1420 4594 4596 4597 4598 0
4599 -1420 0
4599 -4594 0
4599 -4596 0
4599 -4597 0
4599 -4598 0
4600 -1418 -3993 0
-4600 1418 0
-4600 3993 0
4601 -4595 -3993 0
-4601 4595 0
-4601 3993 0
4602 -4595 -1422 0
-4602 4595 0
-4602 1422 0
4603 -1418 -1422 -3991 0
-4603 1418 0
-4603 1422 0
-4603 3991 0
-39 1423 4600 4601 4602 4603 0
39 -1423 0
39 -4600 0
39 -4601 0
39 -4602 0
39 -4603 0
4604 -1418 -3995 0
-4604 1418 0
-4604 3995 0
4605 -4595 -1425 0
-4605 4595 0
-4605 1425 0
4606 -4595 -3995 0
-4606 4595 0
-4606 3995 0
4607 -1418 -1425 -3991 0
-4607 1418 0
-4607 1425 0
-4607 3991 0
-37 1426 4604 4605 4606 4607 0
37 -1426 0
37 -4604 0
37 -4605 0
37 -4606 0
37 -4607 0
4608 -1428 -3995 0
-4608 1428 0
-4608 3995 0
4609 -3989 -3995 0
-4609 3989 0
-4609 3995 0
4610 -3989 -1425 0
-4610 3989 0
-4610 1425 0
4611 -1428 -1425 -3991 0
-4611 1428 0
-4611 1425 0
-4611 3991 0
-40 1429 4608 4609 4610 4611 0
40 -1429 0
40 -4608 0
40 -4609 0
40 -4610 0
40 -4611 0
4612 -1422 -3989 0
-4612 1422 0
-4612 3989 0
4613 -3993 -1428 0
-4613 3993 0
-4613 1428 0
4614 -3993 -3989 0
-4614 3993 0
-4614 3989 0
4615 -1422 -1428 -3991 0
-4615 1422 0
-4615 1428 0
-4615 3991 0
-38 1431 4612 4613 4614 4615 0
38 -1431 0
38 -4612 0
38 -4613 0
38 -4614 0
38 -4615 0
4616 -1422 -3993 0
-4616 1422 0
-4616 3993 0
4617 -3993 -3993 0
-4617 3993 0
-4617 3993 0
4618 -3993 -1422 0
-4618 3993 0
-4618 1422 0
4619 -1422 -1422 -3991 0
-4619 1422 0
-4619 1422 0
-4619 3991 0
-4620 1434 4616 4617 4618 4619 0
4620 -1434 0
4620 -4616 0
4620 -4617 0
4620 -4618 0
4620 -4619 0
4621 -4622 -4623 0
-4621 4622 0
-4621 4623 0
4624 -4623 -4623 0
-4624 4623 0
-4624 4623 0
4625 -4623 -4622 0
-4625 4623 0
-4625 4622 0
4626 -4622 -4622 -4627 0
-4626 4622 0
-4626 4622 0
-4626 4627 0
-4628 4629 4621 4624 4625 4626 0
4628 -4629 0
4628 -4621 0
4628 -4624 0
4628 -4625 0
4628 -4626 0
4630 -4622 -4631 0
-4630 4622 0
-4630 4631 0
4632 -4623 -4631 0
-4632 4623 0
-4632 4631 0
4633 -4623 -4634 0
-4633 4623 0
-4633 4634 0
4635 -4622 -4634 -4627 0
-4635 4622 0
-4635 4634 0
-4635 4627 0
-789 4636 4630 4632 4633 4635 0
789 -4636 0
789 -4630 0
789 -4632 0
789 -4633 0
789 -4635 0
4637 -4622 -4638 0
-4637 4622 0
-4637 4638 0
4639 -4623 -4640 0
-4639 4623 0
-4639 4640 0
4641 -4623 -4638 0
-4641 4623 0
-4641 4638 0
4642 -4622 -4640 -4627 0
-4642 4622 0
-4642 4640 0
-4642 4627 0
-787 4643 4637 4639 4641 4642 0
787 -4643 0
787 -4637 0
787 -4639 0
787 -4641 0
787 -4642 0
4644 -4645 -4638 0
-4644 4645 0
-4644 4638 0
4646 -4647 -4638 0
-4646 4647 0
-4646 4638 0
4648 -4647 -4640 0
-4648 4647 0
-4648 4640 0
4649 -4645 -4640 -4627 0
-4649 4645 0
-4649 4640 0
-4649 4627 0
-790 4650 4644 4646 4648 4649 0
790 -4650 0
790 -4644 0
790 -4646 0
790 -4648 0
790 -4649 0
4651 -4634 -4647 0
-4651 4634 0
-4651 4647 0
4652 -4631 -4645 0
-4652 4631 0
-4652 4645 0
4653 -4631 -4647 0
-4653 4631 0
-4653 4647 0
4654 -4634 -4645 -4627 0
-4654 4634 0
-4654 4645 0
-4654 4627 0
-788 4655 4651 4652 4653 4654 0
788 -4655 0
788 -4651 0
788 -4652 0
788 -4653 0
788 -4654 0
4656 -4634 -4631 0
-4656 4634 0
-4656 4631 0
4657 -4631 -4631 0
-4657 4631 0
-4657 4631 0
4658 -4631 -4634 0
-4658 4631 0
-4658 4634 0
4659 -4634 -4634 -4627 0
-4659 4634 0
-4659 4634 0
-4659 4627 0
-4660 4661 4656 4657 4658 4659 0
4660 -4661 0
4660 -4656 0
4660 -4657 0
4660 -4658 0
4660 -4659 0
4662 -3590 -3590 0
-4662 3590 0
-4662 3590 0
-4663 3597 4662 0
4663 -3597 0
4663 -4662 0
4664 -3590 -3602 0
-4664 3590 0
-4664 3602 0
-574 3604 4664 0
574 -3604 0
574 -4664 0
4665 -3590 -3608 0
-4665 3590 0
-4665 3608 0
-572 3611 4665 0
572 -3611 0
572 -4665 0
4666 -3613 -3608 0
-4666 3613 0
-4666 3608 0
-575 3618 4666 0
575 -3618 0
575 -4666 0
4667 -3602 -3613 0
-4667 3602 0
-4667 3613 0
-573 3623 4667 0
573 -3623 0
573 -4667 0
4668 -3602 -3602 0
-4668 3602 0
-4668 3602 0
-4669 3629 4668 0
4669 -3629 0
4669 -4668 0
4670 -2575 -2575 0
-4670 2575 0
-4670 2575 0
-4671 2582 4670 0
4671 -2582 0
4671 -4670 0
4672 -2575 -2587 0
-4672 2575 0
-4672 2587 0
-979 2589 4672 0
979 -2589 0
979 -4672 0
4673 -2575 -2593 0
-4673 2575 0
-4673 2593 0
-977 2596 4673 0
977 -2596 0
977 -4673 0
4674 -2598 -2593 0
-4674 2598 0
-4674 2593 0
-980 2603 4674 0
980 -2603 0
980 -4674 0
4675 -2587 -2598 0
-4675 2587 0
-4675 2598 0
-978 2608 4675 0
978 -2608 0
978 -4675 0
4676 -2587 -2587 0
-4676 2587 0
-4676 2587 0
-4677 2614 4676 0
4677 -2614 0
4677 -4676 0
4678 -1462 -1462 0
-4678 1462 0
-4678 1462 0
-4679 1469 4678 0
4679 -1469 0
4679 -4678 0
4680 -1462 -1474 0
-4680 1462 0
-4680 1474 0
-299 1476 4680 0
299 -1476 0
299 -4680 0
4681 -1462 -1480 0
-4681 1462 0
-4681 1480 0
-297 1483 4681 0
297 -1483 0
297 -4681 0
4682 -1485 -1480 0
-4682 1485 0
-4682 1480 0
-300 1490 4682 0
300 -1490 0
300 -4682 0
4683 -1474 -1485 0
-4683 1474 0
-4683 1485 0
-298 1495 4683 0
298 -1495 0
298 -4683 0
4684 -1474 -1474 0
-4684 1474 0
-4684 1474 0
-4685 1501 4684 0
4685 -1501 0
4685 -4684 0
4686 -4337 -4337 0
-4686 4337 0
-4686 4337 0
-4687 4317 4686 0
4687 -4317 0
4687 -4686 0
4688 -4337 -4345 0
-4688 4337 0
-4688 4345 0
-1159 4321 4688 0
1159 -4321 0
1159 -4688 0
4689 -4337 -4340 0
-4689 4337 0
-4689 4340 0
-1157 4328 4689 0
1157 -4328 0
1157 -4689 0
4690 -4335 -4340 0
-4690 4335 0
-4690 4340 0
-1160 4330 4690 0
1160 -4330 0
1160 -4690 0
4691 -4345 -4335 0
-4691 4345 0
-4691 4335 0
-1158 4324 4691 0
1158 -4324 0
1158 -4691 0
4692 -4345 -4345 0
-4692 4345 0
-4692 4345 0
-4693 4351 4692 0
4693 -4351 0
4693 -4692 0
4694 -2998 -4695 0
-4694 2998 0
-4694 4695 0
4696 -4695 -4695 0
-4696 4695 0
-4696 4695 0
4697 -4695 -2998 0
-4697 4695 0
-4697 2998 0
4698 -2998 -2998 -4699 0
-4698 2998 0
-4698 2998 0
-4698 4699 0
-4700 3000 4694 4696 4697 4698 0
4700 -3000 0
4700 -4694 0
4700 -4696 0
4700 -4697 0
4700 -4698 0
4701 -2998 -4702 0
-4701 2998 0
-4701 4702 0
4703 -4695 -4702 0
-4703 4695 0
-4703 4702 0
4704 -4695 -3002 0
-4704 4695 0
-4704 3002 0
4705 -2998 -3002 -4699 0
-4705 2998 0
-4705 3002 0
-4705 4699 0
-324 3003 4701 4703 4704 4705 0
324 -3003 0
324 -4701 0
324 -4703 0
324 -4704 0
324 -4705 0
4706 -2998 -4707 0
-4706 2998 0
-4706 4707 0
4708 -4695 -3005 0
-4708 4695 0
-4708 3005 0
4709 -4695 -4707 0
-4709 4695 0
-4709 4707 0
4710 -2998 -3005 -4699 0
-4710 2998 0
-4710 3005 0
-4710 4699 0
-322 3006 4706 4708 4709 4710 0
322 -3006 0
322 -4706 0
322 -4708 0
322 -4709 0
322 -4710 0
4711 -3008 -4707 0
-4711 3008 0
-4711 4707 0
4712 -4713 -4707 0
-4712 4713 0
-4712 4707 0
4714 -4713 -3005 0
-4714 4713 0
-4714 3005 0
4715 -3008 -3005 -4699 0
-4715 3008 0
-4715 3005 0
-4715 4699 0
-325 3009 4711 4712 4714 4715 0
325 -3009 0
325 -4711 0
325 -4712 0
325 -4714 0
325 -4715 0
4716 -3002 -4713 0
-4716 3002 0
-4716 4713 0
4717 -4702 -3008 0
-4717 4702 0
-4717 3008 0
4718 -4702 -4713 0
-4718 4702 0
-4718 4713 0
4719 -3002 -3008 -4699 0
-4719 3002 0
-4719 3008 0
-4719 4699 0
-323 3011 4716 4717 4718 4719 0
323 -3011 0
323 -4716 0
323 -4717 0
323 -4718 0
323 -4719 0
4720 -3002 -4702 0
-4720 3002 0
-4720 4702 0
4721 -4702 -4702 0
-4721 4702 0
-4721 4702 0
4722 -4702 -3002 0
-4722 4702 0
-4722 3002 0
4723 -3002 -3002 -4699 0
-4723 3002 0
-4723 3002 0
-4723 4699 0
-4724 3014 4720 4721 4722 4723 0
4724 -3014 0
4724 -4720 0
4724 -4721 0
4724 -4722 0
4724 -4723 0
4725 -1674 -1674 0
-4725 1674 0
-4725 1674 0
-4726 1681 4725 0
4726 -1681 0
4726 -4725 0
4727 -1674 -1686 0
-4727 1674 0
-4727 1686 0
-1149 1688 4727 0
1149 -1688 0
1149 -4727 0
4728 -1674 -1692 0
-4728 1674 0
-4728 1692 0
-1147 1695 4728 0
1147 -1695 0
1147 -4728 0
4729 -1697 -1692 0
-4729 1697 0
-4729 1692 0
-1150 1702 4729 0
1150 -1702 0
1150 -4729 0
4730 -1686 -1697 0
-4730 1686 0
-4730 1697 0
-1148 1707 4730 0
1148 -1707 0
1148 -4730 0
4731 -1686 -1686 0
-4731 1686 0
-4731 1686 0
-4732 1713 4731 0
4732 -1713 0
4732 -4731 0
4733 -4312 -4312 0
-4733 4312 0
-4733 4312 0
-4734 4319 4733 0
4734 -4319 0
4734 -4733 0
4735 -4312 -4324 0
-4735 4312 0
-4735 4324 0
-1139 4326 4735 0
1139 -4326 0
1139 -4735 0
4736 -4312 -4330 0
-4736 4312 0
-4736 4330 0
-1137 4333 4736 0
1137 -4333 0
1137 -4736 0
4737 -4335 -4330 0
-4737 4335 0
-4737 4330 0
-1140 4340 4737 0
1140 -4340 0
1140 -4737 0
4738 -4324 -4335 0
-4738 4324 0
-4738 4335 0
-1138 4345 4738 0
1138 -4345 0
1138 -4738 0
4739 -4324 -4324 0
-4739 4324 0
-4739 4324 0
-4740 4351 4739 0
4740 -4351 0
4740 -4739 0
4741 -3731 -3731 0
-4741 3731 0
-4741 3731 0
-4742 3738 4741 0
4742 -3738 0
4742 -4741 0
4743 -3731 -3743 0
-4743 3731 0
-4743 3743 0
-679 3745 4743 0
679 -3745 0
679 -4743 0
4744 -3731 -3749 0
-4744 3731 0
-4744 3749 0
-677 3752 4744 0
677 -3752 0
677 -4744 0
4745 -3754 -3749 0
-4745 3754 0
-4745 3749 0
-680 3759 4745 0
680 -3759 0
680 -4745 0
4746 -3743 -3754 0
-4746 3743 0
-4746 3754 0
-678 3764 4746 0
678 -3764 0
678 -4746 0
4747 -3743 -3743 0
-4747 3743 0
-4747 3743 0
-4748 3770 4747 0
4748 -3770 0
4748 -4747 0
4749 -2734 -2734 0
-4749 2734 0
-4749 2734 0
-4750 2741 4749 0
4750 -2741 0
4750 -4749 0
4751 -2734 -2746 0
-4751 2734 0
-4751 2746 0
-919 2748 4751 0
919 -2748 0
919 -4751 0
4752 -2734 -2752 0
-4752 2734 0
-4752 2752 0
-917 2755 4752 0
917 -2755 0
917 -4752 0
4753 -2757 -2752 0
-4753 2757 0
-4753 2752 0
-920 2762 4753 0
920 -2762 0
920 -4753 0
4754 -2746 -2757 0
-4754 2746 0
-4754 2757 0
-918 2767 4754 0
918 -2767 0
918 -4754 0
4755 -2746 -2746 0
-4755 2746 0
-4755 2746 0
-4756 2773 4755 0
4756 -2773 0
4756 -4755 0
4757 -2775 -3830 0
-4757 2775 0
-4757 3830 0
3831 -3830 -3830 0
-3831 3830 0
-3831 3830 0
4758 -3830 -2775 0
-4758 3830 0
-4758 2775 0
4759 -2775 -2775 -3835 0
-4759 2775 0
-4759 2775 0
-4759 3835 0
-4760 2777 4757 3831 4758 4759 0
4760 -2777 0
4760 -4757 0
4760 -3831 0
4760 -4758 0
4760 -4759 0
4761 -2775 -3840 0
-4761 2775 0
-4761 3840 0
4762 -3830 -3840 0
-4762 3830 0
-4762 3840 0
4763 -3830 -2779 0
-4763 3830 0
-4763 2779 0
4764 -2775 -2779 -3835 0
-4764 2775 0
-4764 2779 0
-4764 3835 0
-984 2780 4761 4762 4763 4764 0
984 -2780 0
984 -4761 0
984 -4762 0
984 -4763 0
984 -4764 0
4765 -2775 -3845 0
-4765 2775 0
-4765 3845 0
4766 -3830 -2782 0
-4766 3830 0
-4766 2782 0
4767 -3830 -3845 0
-4767 3830 0
-4767 3845 0
4768 -2775 -2782 -3835 0
-4768 2775 0
-4768 2782 0
-4768 3835 0
-982 2783 4765 4766 4767 4768 0
982 -2783 0
982 -4765 0
982 -4766 0
982 -4767 0
982 -4768 0
4769 -2785 -3845 0
-4769 2785 0
-4769 3845 0
4770 -3829 -3845 0
-4770 3829 0
-4770 3845 0
4771 -3829 -2782 0
-4771 3829 0
-4771 2782 0
4772 -2785 -2782 -3835 0
-4772 2785 0
-4772 2782 0
-4772 3835 0
-985 2786 4769 4770 4771 4772 0
985 -2786 0
985 -4769 0
985 -4770 0
985 -4771 0
985 -4772 0
4773 -2779 -3829 0
-4773 2779 0
-4773 3829 0
4774 -3840 -2785 0
-4774 3840 0
-4774 2785 0
4775 -3840 -3829 0
-4775 3840 0
-4775 3829 0
4776 -2779 -2785 -3835 0
-4776 2779 0
-4776 2785 0
-4776 3835 0
-983 2788 4773 4774 4775 4776 0
983 -2788 0
983 -4773 0
983 -4774 0
983 -4775 0
983 -4776 0
4777 -2779 -3840 0
-4777 2779 0
-4777 3840 0
4778 -3840 -3840 0
-4778 3840 0
-4778 3840 0
4779 -3840 -2779 0
-4779 3840 0
-4779 2779 0
4780 -2779 -2779 -3835 0
-4780 2779 0
-4780 2779 0
-4780 3835 0
-4781 2791 4777 4778 4779 4780 0
4781 -2791 0
4781 -4777 0
4781 -4778 0
4781 -4779 0
4781 -4780 0
4782 -2134 -4004 0
-4782 2134 0
-4782 4004 0
4783 -4004 -4004 0
-4783 4004 0
-4783 4004 0
4784 -4004 -2134 0
-4784 4004 0
-4784 2134 0
4785 -2134 -2134 -4011 0
-4785 2134 0
-4785 2134 0
-4785 4011 0
-4786 2136 4782 4783 4784 4785 0
4786 -2136 0
4786 -4782 0
4786 -4783 0
4786 -4784 0
4786 -4785 0
4787 -2134 -4392 0
-4787 2134 0
-4787 4392 0
4788 -4004 -4392 0
-4788 4004 0
-4788 4392 0
4789 -4004 -2138 0
-4789 4004 0
-4789 2138 0
4790 -2134 -2138 -4011 0
-4790 2134 0
-4790 2138 0
-4790 4011 0
-429 2139 4787 4788 4789 4790 0
429 -2139 0
429 -4787 0
429 -4788 0
429 -4789 0
429 -4790 0
4791 -2134 -4003 0
-4791 2134 0
-4791 4003 0
4792 -4004 -2141 0
-4792 4004 0
-4792 2141 0
4793 -4004 -4003 0
-4793 4004 0
-4793 4003 0
4794 -2134 -2141 -4011 0
-4794 2134 0
-4794 2141 0
-4794 4011 0
-427 2142 4791 4792 4793 4794 0
427 -2142 0
427 -4791 0
427 -4792 0
427 -4793 0
427 -4794 0
4795 -2144 -4003 0
-4795 2144 0
-4795 4003 0
4796 -4008 -4003 0
-4796 4008 0
-4796 4003 0
4797 -4008 -2141 0
-4797 4008 0
-4797 2141 0
4798 -2144 -2141 -4011 0
-4798 2144 0
-4798 2141 0
-4798 4011 0
-430 2145 4795 4796 4797 4798 0
430 -2145 0
430 -4795 0
430 -4796 0
430 -4797 0
430 -4798 0
4799 -2138 -4008 0
-4799 2138 0
-4799 4008 0
4800 -4392 -2144 0
-4800 4392 0
-4800 2144 0
4801 -4392 -4008 0
-4801 4392 0
-4801 4008 0
4802 -2138 -2144 -4011 0
-4802 2138 0
-4802 2144 0
-4802 4011 0
-428 2147 4799 4800 4801 4802 0
428 -2147 0
428 -4799 0
428 -4800 0
428 -4801 0
428 -4802 0
4803 -2138 -4392 0
-4803 2138 0
-4803 4392 0
4409 -4392 -4392 0
-4409 4392 0
-4409 4392 0
4804 -4392 -2138 0
-4804 4392 0
-4804 2138 0
4805 -2138 -2138 -4011 0
-4805 2138 0
-4805 2138 0
-4805 4011 0
-4806 2150 4803 4409 4804 4805 0
4806 -2150 0
4806 -4803 0
4806 -4409 0
4806 -4804 0
4806 -4805 0
4807 -4008 -4008 0
-4807 4008 0
-4807 4008 0
-4808 4011 4807 0
4808 -4011 0
4808 -4807 0
4809 -4008 -2147 0
-4809 4008 0
-4809 2147 0
-934 4392 4809 0
934 -4392 0
934 -4809 0
4810 -4008 -2145 0
-4810 4008 0
-4810 2145 0
-932 4003 4810 0
932 -4003 0
932 -4810 0
4811 -2144 -2145 0
-4811 2144 0
-4811 2145 0
-935 2141 4811 0
935 -2141 0
935 -4811 0
4812 -2147 -2144 0
-4812 2147 0
-4812 2144 0
-933 2138 4812 0
933 -2138 0
933 -4812 0
4813 -2147 -2147 0
-4813 2147 0
-4813 2147 0
-4814 2150 4813 0
4814 -2150 0
4814 -4813 0
4815 -4200 -4816 0
-4815 4200 0
-4815 4816 0
4817 -4816 -4816 0
-4817 4816 0
-4817 4816 0
4818 -4816 -4200 0
-4818 4816 0
-4818 4200 0
4819 -4200 -4200 -4820 0
-4819 4200 0
-4819 4200 0
-4819 4820 0
-4821 4202 4815 4817 4818 4819 0
4821 -4202 0
4821 -4815 0
4821 -4817 0
4821 -4818 0
4821 -4819 0
4822 -4200 -4823 0
-4822 4200 0
-4822 4823 0
4824 -4816 -4823 0
-4824 4816 0
-4824 4823 0
4825 -4816 -4204 0
-4825 4816 0
-4825 4204 0
4826 -4200 -4204 -4820 0
-4826 4200 0
-4826 4204 0
-4826 4820 0
-609 4205 4822 4824 4825 4826 0
609 -4205 0
609 -4822 0
609 -4824 0
609 -4825 0
609 -4826 0
4827 -4200 -4828 0
-4827 4200 0
-4827 4828 0
4829 -4816 -4207 0
-4829 4816 0
-4829 4207 0
4830 -4816 -4828 0
-4830 4816 0
-4830 4828 0
4831 -4200 -4207 -4820 0
-4831 4200 0
-4831 4207 0
-4831 4820 0
-607 4208 4827 4829 4830 4831 0
607 -4208 0
607 -4827 0
607 -4829 0
607 -4830 0
607 -4831 0
4832 -4210 -4828 0
-4832 4210 0
-4832 4828 0
4833 -4834 -4828 0
-4833 4834 0
-4833 4828 0
4835 -4834 -4207 0
-4835 4834 0
-4835 4207 0
4836 -4210 -4207 -4820 0
-4836 4210 0
-4836 4207 0
-4836 4820 0
-610 4211 4832 4833 4835 4836 0
610 -4211 0
610 -4832 0
610 -4833 0
610 -4835 0
610 -4836 0
4837 -4204 -4834 0
-4837 4204 0
-4837 4834 0
4838 -4823 -4210 0
-4838 4823 0
-4838 4210 0
4839 -4823 -4834 0
-4839 4823 0
-4839 4834 0
4840 -4204 -4210 -4820 0
-4840 4204 0
-4840 4210 0
-4840 4820 0
-608 4213 4837 4838 4839 4840 0
608 -4213 0
608 -4837 0
608 -4838 0
608 -4839 0
608 -4840 0
4841 -4204 -4823 0
-4841 4204 0
-4841 4823 0
4842 -4823 -4823 0
-4842 4823 0
-4842 4823 0
4843 -4823 -4204 0
-4843 4823 0
-4843 4204 0
4844 -4204 -4204 -4820 0
-4844 4204 0
-4844 4204 0
-4844 4820 0
-4845 4216 4841 4842 4843 4844 0
4845 -4216 0
4845 -4841 0
4845 -4842 0
4845 -4843 0
4845 -4844 0
4846 -2152 -2152 0
-4846 2152 0
-4846 2152 0
-4847 2159 4846 0
4847 -2159 0
4847 -4846 0
4848 -2152 -2164 0
-4848 2152 0
-4848 2164 0
-1174 2166 4848 0
1174 -2166 0
1174 -4848 0
4849 -2152 -2170 0
-4849 2152 0
-4849 2170 0
-1172 2173 4849 0
1172 -2173 0
1172 -4849 0
4850 -2175 -2170 0
-4850 2175 0
-4850 2170 0
-1175 2180 4850 0
1175 -2180 0
1175 -4850 0
4851 -2164 -2175 0
-4851 2164 0
-4851 2175 0
-1173 2185 4851 0
1173 -2185 0
1173 -4851 0
4852 -2164 -2164 0
-4852 2164 0
-4852 2164 0
-4853 2191 4852 0
4853 -2191 0
4853 -4852 0
4854 -4577 -4855 0
-4854 4577 0
-4854 4855 0
4856 -4855 -4855 0
-4856 4855 0
-4856 4855 0
4857 -4855 -4577 0
-4857 4855 0
-4857 4577 0
4858 -4577 -4577 -4859 0
-4858 4577 0
-4858 4577 0
-4858 4859 0
-4860 4579 4854 4856 4857 4858 0
4860 -4579 0
4860 -4854 0
4860 -4856 0
4860 -4857 0
4860 -4858 0
4861 -4577 -4862 0
-4861 4577 0
-4861 4862 0
4863 -4855 -4862 0
-4863 4855 0
-4863 4862 0
4864 -4855 -4581 0
-4864 4855 0
-4864 4581 0
4865 -4577 -4581 -4859 0
-4865 4577 0
-4865 4581 0
-4865 4859 0
-699 4582 4861 4863 4864 4865 0
699 -4582 0
699 -4861 0
699 -4863 0
699 -4864 0
699 -4865 0
4866 -4577 -4867 0
-4866 4577 0
-4866 4867 0
4868 -4855 -4584 0
-4868 4855 0
-4868 4584 0
4869 -4855 -4867 0
-4869 4855 0
-4869 4867 0
4870 -4577 -4584 -4859 0
-4870 4577 0
-4870 4584 0
-4870 4859 0
-697 4585 4866 4868 4869 4870 0
697 -4585 0
697 -4866 0
697 -4868 0
697 -4869 0
697 -4870 0
4871 -4587 -4867 0
-4871 4587 0
-4871 4867 0
4872 -4873 -4867 0
-4872 4873 0
-4872 4867 0
4874 -4873 -4584 0
-4874 4873 0
-4874 4584 0
4875 -4587 -4584 -4859 0
-4875 4587 0
-4875 4584 0
-4875 4859 0
-700 4588 4871 4872 4874 4875 0
700 -4588 0
700 -4871 0
700 -4872 0
700 -4874 0
700 -4875 0
4876 -4581 -4873 0
-4876 4581 0
-4876 4873 0
4877 -4862 -4587 0
-4877 4862 0
-4877 4587 0
4878 -4862 -4873 0
-4878 4862 0
-4878 4873 0
4879 -4581 -4587 -4859 0
-4879 4581 0
-4879 4587 0
-4879 4859 0
-698 4590 4876 4877 4878 4879 0
698 -4590 0
698 -4876 0
698 -4877 0
698 -4878 0
698 -4879 0
4880 -4581 -4862 0
-4880 4581 0
-4880 4862 0
4881 -4862 -4862 0
-4881 4862 0
-4881 4862 0
4882 -4862 -4581 0
-4882 4862 0
-4882 4581 0
4883 -4581 -4581 -4859 0
-4883 4581 0
-4883 4581 0
-4883 4859 0
-4884 4593 4880 4881 4882 4883 0
4884 -4593 0
4884 -4880 0
4884 -4881 0
4884 -4882 0
4884 -4883 0
4885 -4886 -4886 0
-4885 4886 0
-4885 4886 0
-4887 4888 4885 0
4887 -4888 0
4887 -4885 0
4889 -4886 -4890 0
-4889 4886 0
-4889 4890 0
-654 4891 4889 0
654 -4891 0
654 -4889 0
4892 -4886 -4893 0
-4892 4886 0
-4892 4893 0
-652 4894 4892 0
652 -4894 0
652 -4892 0
4895 -4896 -4893 0
-4895 4896 0
-4895 4893 0
-655 4897 4895 0
655 -4897 0
655 -4895 0
4898 -4890 -4896 0
-4898 4890 0
-4898 4896 0
-653 4899 4898 0
653 -4899 0
653 -4898 0
4900 -4890 -4890 0
-4900 4890 0
-4900 4890 0
-4901 4902 4900 0
4901 -4902 0
4901 -4900 0
4903 -4337 -4313 0
-4903 4337 0
-4903 4313 0
4314 -4313 -4313 0
-4314 4313 0
-4314 4313 0
4904 -4313 -4337 0
-4904 4313 0
-4904 4337 0
4905 -4337 -4337 -4319 0
-4905 4337 0
-4905 4337 0
-4905 4319 0
-4906 4317 4903 4314 4904 4905 0
4906 -4317 0
4906 -4903 0
4906 -4314 0
4906 -4904 0
4906 -4905 0
4907 -4337 -4326 0
-4907 4337 0
-4907 4326 0
4908 -4313 -4326 0
-4908 4313 0
-4908 4326 0
4909 -4313 -4345 0
-4909 4313 0
-4909 4345 0
4910 -4337 -4345 -4319 0
-4910 4337 0
-4910 4345 0
-4910 4319 0
-964 4321 4907 4908 4909 4910 0
964 -4321 0
964 -4907 0
964 -4908 0
964 -4909 0
964 -4910 0
4911 -4337 -4333 0
-4911 4337 0
-4911 4333 0
4912 -4313 -4340 0
-4912 4313 0
-4912 4340 0
4913 -4313 -4333 0
-4913 4313 0
-4913 4333 0
4914 -4337 -4340 -4319 0
-4914 4337 0
-4914 4340 0
-4914 4319 0
-962 4328 4911 4912 4913 4914 0
962 -4328 0
962 -4911 0
962 -4912 0
962 -4913 0
962 -4914 0
4915 -4335 -4333 0
-4915 4335 0
-4915 4333 0
4916 -4312 -4333 0
-4916 4312 0
-4916 4333 0
4917 -4312 -4340 0
-4917 4312 0
-4917 4340 0
4918 -4335 -4340 -4319 0
-4918 4335 0
-4918 4340 0
-4918 4319 0
-965 4330 4915 4916 4917 4918 0
965 -4330 0
965 -4915 0
965 -4916 0
965 -4917 0
965 -4918 0
4919 -4345 -4312 0
-4919 4345 0
-4919 4312 0
4920 -4326 -4335 0
-4920 4326 0
-4920 4335 0
4921 -4326 -4312 0
-4921 4326 0
-4921 4312 0
4922 -4345 -4335 -4319 0
-4922 4345 0
-4922 4335 0
-4922 4319 0
-963 4324 4919 4920 4921 4922 0
963 -4324 0
963 -4919 0
963 -4920 0
963 -4921 0
963 -4922 0
4923 -4345 -4326 0
-4923 4345 0
-4923 4326 0
4924 -4326 -4326 0
-4924 4326 0
-4924 4326 0
4925 -4326 -4345 0
-4925 4326 0
-4925 4345 0
4926 -4345 -4345 -4319 0
-4926 4345 0
-4926 4345 0
-4926 4319 0
-4927 4351 4923 4924 4925 4926 0
4927 -4351 0
4927 -4923 0
4927 -4924 0
4927 -4925 0
4927 -4926 0
4928 -2964 -2940 0
-4928 2964 0
-4928 2940 0
2941 -2940 -2940 0
-2941 2940 0
-2941 2940 0
4929 -2940 -2964 0
-4929 2940 0
-4929 2964 0
4930 -2964 -2964 -2946 0
-4930 2964 0
-4930 2964 0
-4930 2946 0
-4931 2944 4928 2941 4929 4930 0
4931 -2944 0
4931 -4928 0
4931 -2941 0
4931 -4929 0
4931 -4930 0
4932 -2964 -2953 0
-4932 2964 0
-4932 2953 0
4933 -2940 -2953 0
-4933 2940 0
-4933 2953 0
4934 -2940 -2972 0
-4934 2940 0
-4934 2972 0
4935 -2964 -2972 -2946 0
-4935 2964 0
-4935 2972 0
-4935 2946 0
-204 2948 4932 4933 4934 4935 0
204 -2948 0
204 -4932 0
204 -4933 0
204 -4934 0
204 -4935 0
4936 -2964 -2960 0
-4936 2964 0
-4936 2960 0
4937 -2940 -2967 0
-4937 2940 0
-4937 2967 0
4938 -2940 -2960 0
-4938 2940 0
-4938 2960 0
4939 -2964 -2967 -2946 0
-4939 2964 0
-4939 2967 0
-4939 2946 0
-202 2955 4936 4937 4938 4939 0
202 -2955 0
202 -4936 0
202 -4937 0
202 -4938 0
202 -4939 0
4940 -2962 -2960 0
-4940 2962 0
-4940 2960 0
4941 -2939 -2960 0
-4941 2939 0
-4941 2960 0
4942 -2939 -2967 0
-4942 2939 0
-4942 2967 0
4943 -2962 -2967 -2946 0
-4943 2962 0
-4943 2967 0
-4943 2946 0
-205 2957 4940 4941 4942 4943 0
205 -2957 0
205 -4940 0
205 -4941 0
205 -4942 0
205 -4943 0
4944 -2972 -2939 0
-4944 2972 0
-4944 2939 0
4945 -2953 -2962 0
-4945 2953 0
-4945 2962 0
4946 -2953 -2939 0
-4946 2953 0
-4946 2939 0
4947 -2972 -2962 -2946 0
-4947 2972 0
-4947 2962 0
-4947 2946 0
-203 2951 4944 4945 4946 4947 0
203 -2951 0
203 -4944 0
203 -4945 0
203 -4946 0
203 -4947 0
4948 -2972 -2953 0
-4948 2972 0
-4948 2953 0
4949 -2953 -2953 0
-4949 2953 0
-4949 2953 0
4950 -2953 -2972 0
-4950 2953 0
-4950 2972 0
4951 -2972 -2972 -2946 0
-4951 2972 0
-4951 2972 0
-4951 2946 0
-4952 2978 4948 4949 4950 4951 0
4952 -2978 0
4952 -4948 0
4952 -4949 0
4952 -4950 0
4952 -4951 0
4953 -2438 -2414 0
-4953 2438 0
-4953 2414 0
2415 -2414 -2414 0
-2415 2414 0
-2415 2414 0
4954 -2414 -2438 0
-4954 2414 0
-4954 2438 0
4955 -2438 -2438 -2420 0
-4955 2438 0
-4955 2438 0
-4955 2420 0
-4956 2418 4953 2415 4954 4955 0
4956 -2418 0
4956 -4953 0
4956 -2415 0
4956 -4954 0
4956 -4955 0
4957 -2438 -2427 0
-4957 2438 0
-4957 2427 0
4958 -2414 -2427 0
-4958 2414 0
-4958 2427 0
4959 -2414 -2446 0
-4959 2414 0
-4959 2446 0
4960 -2438 -2446 -2420 0
-4960 2438 0
-4960 2446 0
-4960 2420 0
-114 2422 4957 4958 4959 4960 0
114 -2422 0
114 -4957 0
114 -4958 0
114 -4959 0
114 -4960 0
4961 -2438 -2434 0
-4961 2438 0
-4961 2434 0
4962 -2414 -2441 0
-4962 2414 0
-4962 2441 0
4963 -2414 -2434 0
-4963 2414 0
-4963 2434 0
4964 -2438 -2441 -2420 0
-4964 2438 0
-4964 2441 0
-4964 2420 0
-112 2429 4961 4962 4963 4964 0
112 -2429 0
112 -4961 0
112 -4962 0
112 -4963 0
112 -4964 0
4965 -2436 -2434 0
-4965 2436 0
-4965 2434 0
4966 -2413 -2434 0
-4966 2413 0
-4966 2434 0
4967 -2413 -2441 0
-4967 2413 0
-4967 2441 0
4968 -2436 -2441 -2420 0
-4968 2436 0
-4968 2441 0
-4968 2420 0
-115 2431 4965 4966 4967 4968 0
115 -2431 0
115 -4965 0
115 -4966 0
115 -4967 0
115 -4968 0
4969 -2446 -2413 0
-4969 2446 0
-4969 2413 0
4970 -2427 -2436 0
-4970 2427 0
-4970 2436 0
4971 -2427 -2413 0
-4971 2427 0
-4971 2413 0
4972 -2446 -2436 -2420 0
-4972 2446 0
-4972 2436 0
-4972 2420 0
-113 2425 4969 4970 4971 4972 0
113 -2425 0
113 -4969 0
113 -4970 0
113 -4971 0
113 -4972 0
4973 -2446 -2427 0
-4973 2446 0
-4973 2427 0
4974 -2427 -2427 0
-4974 2427 0
-4974 2427 0
4975 -2427 -2446 0
-4975 2427 0
-4975 2446 0
4976 -2446 -2446 -2420 0
-4976 2446 0
-4976 2446 0
-4976 2420 0
-4977 2452 4973 4974 4975 4976 0
4977 -2452 0
4977 -4973 0
4977 -4974 0
4977 -4975 0
4977 -4976 0
4978 -1277 -4979 0
-4978 1277 0
-4978 4979 0
4980 -4979 -4979 0
-4980 4979 0
-4980 4979 0
4981 -4979 -1277 0
-4981 4979 0
-4981 1277 0
4982 -1277 -1277 -4983 0
-4982 1277 0
-4982 1277 0
-4982 4983 0
-4984 1279 4978 4980 4981 4982 0
4984 -1279 0
4984 -4978 0
4984 -4980 0
4984 -4981 0
4984 -4982 0
4985 -1277 -4986 0
-4985 1277 0
-4985 4986 0
4987 -4979 -4986 0
-4987 4979 0
-4987 4986 0
4988 -4979 -1281 0
-4988 4979 0
-4988 1281 0
4989 -1277 -1281 -4983 0
-4989 1277 0
-4989 1281 0
-4989 4983 0
-164 1282 4985 4987 4988 4989 0
164 -1282 0
164 -4985 0
164 -4987 0
164 -4988 0
164 -4989 0
4990 -1277 -4991 0
-4990 1277 0
-4990 4991 0
4992 -4979 -1284 0
-4992 4979 0
-4992 1284 0
4993 -4979 -4991 0
-4993 4979 0
-4993 4991 0
4994 -1277 -1284 -4983 0
-4994 1277 0
-4994 1284 0
-4994 4983 0
-162 1285 4990 4992 4993 4994 0
162 -1285 0
162 -4990 0
162 -4992 0
162 -4993 0
162 -4994 0
4995 -1287 -4991 0
-4995 1287 0
-4995 4991 0
4996 -4997 -4991 0
-4996 4997 0
-4996 4991 0
4998 -4997 -1284 0
-4998 4997 0
-4998 1284 0
4999 -1287 -1284 -4983 0
-4999 1287 0
-4999 1284 0
-4999 4983 0
-165 1288 4995 4996 4998 4999 0
165 -1288 0
165 -4995 0
165 -4996 0
165 -4998 0
165 -4999 0
5000 -1281 -4997 0
-5000 1281 0
-5000 4997 0
5001 -4986 -1287 0
-5001 4986 0
-5001 1287 0
5002 -4986 -4997 0
-5002 4986 0
-5002 4997 0
5003 -1281 -1287 -4983 0
-5003 1281 0
-5003 1287 0
-5003 4983 0
-163 1290 5000 5001 5002 5003 0
163 -1290 0
163 -5000 0
163 -5001 0
163 -5002 0
163 -5003 0
5004 -1281 -4986 0
-5004 1281 0
-5004 4986 0
5005 -4986 -4986 0
-5005 4986 0
-5005 4986 0
5006 -4986 -1281 0
-5006 4986 0
-5006 1281 0
5007 -1281 -1281 -4983 0
-5007 1281 0
-5007 1281 0
-5007 4983 0
-5008 1293 5004 5005 5006 5007 0
5008 -1293 0
5008 -5004 0
5008 -5005 0
5008 -5006 0
5008 -5007 0
5009 -2600 -2576 0
-5009 2600 0
-5009 2576 0
2577 -2576 -2576 0
-2577 2576 0
-2577 2576 0
5010 -2576 -2600 0
-5010 2576 0
-5010 2600 0
5011 -2600 -2600 -2582 0
-5011 2600 0
-5011 2600 0
-5011 2582 0
-5012 2580 5009 2577 5010 5011 0
5012 -2580 0
5012 -5009 0
5012 -2577 0
5012 -5010 0
5012 -5011 0
5013 -2600 -2589 0
-5013 2600 0
-5013 2589 0
5014 -2576 -2589 0
-5014 2576 0
-5014 2589 0
5015 -2576 -2608 0
-5015 2576 0
-5015 2608 0
5016 -2600 -2608 -2582 0
-5016 2600 0
-5016 2608 0
-5016 2582 0
-494 2584 5013 5014 5015 5016 0
494 -2584 0
494 -5013 0
494 -5014 0
494 -5015 0
494 -5016 0
5017 -2600 -2596 0
-5017 2600 0
-5017 2596 0
5018 -2576 -2603 0
-5018 2576 0
-5018 2603 0
5019 -2576 -2596 0
-5019 2576 0
-5019 2596 0
5020 -2600 -2603 -2582 0
-5020 2600 0
-5020 2603 0
-5020 2582 0
-492 2591 5017 5018 5019 5020 0
492 -2591 0
492 -5017 0
492 -5018 0
492 -5019 0
492 -5020 0
5021 -2598 -2596 0
-5021 2598 0
-5021 2596 0
5022 -2575 -2596 0
-5022 2575 0
-5022 2596 0
5023 -2575 -2603 0
-5023 2575 0
-5023 2603 0
5024 -2598 -2603 -2582 0
-5024 2598 0
-5024 2603 0
-5024 2582 0
-495 2593 5021 5022 5023 5024 0
495 -2593 0
495 -5021 0
495 -5022 0
495 -5023 0
495 -5024 0
5025 -2608 -2575 0
-5025 2608 0
-5025 2575 0
5026 -2589 -2598 0
-5026 2589 0
-5026 2598 0
5027 -2589 -2575 0
-5027 2589 0
-5027 2575 0
5028 -2608 -2598 -2582 0
-5028 2608 0
-5028 2598 0
-5028 2582 0
-493 2587 5025 5026 5027 5028 0
493 -2587 0
493 -5025 0
493 -5026 0
493 -5027 0
493 -5028 0
5029 -2608 -2589 0
-5029 2608 0
-5029 2589 0
5030 -2589 -2589 0
-5030 2589 0
-5030 2589 0
5031 -2589 -2608 0
-5031 2589 0
-5031 2608 0
5032 -2608 -2608 -2582 0
-5032 2608 0
-5032 2608 0
-5032 2582 0
-5033 2614 5029 5030 5031 5032 0
5033 -2614 0
5033 -5029 0
5033 -5030 0
5033 -5031 0
5033 -5032 0
5034 -1436 -5035 0
-5034 1436 0
-5034 5035 0
5036 -5035 -5035 0
-5036 5035 0
-5036 5035 0
5037 -5035 -1436 0
-5037 5035 0
-5037 1436 0
5038 -1436 -1436 -5039 0
-5038 1436 0
-5038 1436 0
-5038 5039 0
-5040 1438 5034 5036 5037 5038 0
5040 -1438 0
5040 -5034 0
5040 -5036 0
5040 -5037 0
5040 -5038 0
5041 -1436 -5042 0
-5041 1436 0
-5041 5042 0
5043 -5035 -5042 0
-5043 5035 0
-5043 5042 0
5044 -5035 -1440 0
-5044 5035 0
-5044 1440 0
5045 -1436 -1440 -5039 0
-5045 1436 0
-5045 1440 0
-5045 5039 0
-64 1441 5041 5043 5044 5045 0
64 -1441 0
64 -5041 0
64 -5043 0
64 -5044 0
64 -5045 0
5046 -1436 -5047 0
-5046 1436 0
-5046 5047 0
5048 -5035 -1443 0
-5048 5035 0
-5048 1443 0
5049 -5035 -5047 0
-5049 5035 0
-5049 5047 0
5050 -1436 -1443 -5039 0
-5050 1436 0
-5050 1443 0
-5050 5039 0
-62 1444 5046 5048 5049 5050 0
62 -1444 0
62 -5046 0
62 -5048 0
62 -5049 0
62 -5050 0
5051 -1446 -5047 0
-5051 1446 0
-5051 5047 0
5052 -5053 -5047 0
-5052 5053 0
-5052 5047 0
5054 -5053 -1443 0
-5054 5053 0
-5054 1443 0
5055 -1446 -1443 -5039 0
-5055 1446 0
-5055 1443 0
-5055 5039 0
-65 1447 5051 5052 5054 5055 0
65 -1447 0
65 -5051 0
65 -5052 0
65 -5054 0
65 -5055 0
5056 -1440 -5053 0
-5056 1440 0
-5056 5053 0
5057 -5042 -1446 0
-5057 5042 0
-5057 1446 0
5058 -5042 -5053 0
-5058 5042 0
-5058 5053 0
5059 -1440 -1446 -5039 0
-5059 1440 0
-5059 1446 0
-5059 5039 0
-63 1449 5056 5057 5058 5059 0
63 -1449 0
63 -5056 0
63 -5057 0
63 -5058 0
63 -5059 0
5060 -1440 -5042 0
-5060 1440 0
-5060 5042 0
5061 -5042 -5042 0
-5061 5042 0
-5061 5042 0
5062 -5042 -1440 0
-5062 5042 0
-5062 1440 0
5063 -1440 -1440 -5039 0
-5063 1440 0
-5063 1440 0
-5063 5039 0
-5064 1452 5060 5061 5062 5063 0
5064 -1452 0
5064 -5060 0
5064 -5061 0
5064 -5062 0
5064 -5063 0
5065 -3221 -3202 0
-5065 3221 0
-5065 3202 0
5066 -3202 -3202 0
-5066 3202 0
-5066 3202 0
5067 -3202 -3221 0
-5067 3202 0
-5067 3221 0
5068 -3221 -3221 -3195 0
-5068 3221 0
-5068 3221 0
-5068 3195 0
-5069 3227 5065 5066 5067 5068 0
5069 -3227 0
5069 -5065 0
5069 -5066 0
5069 -5067 0
5069 -5068 0
5070 -3221 -3189 0
-5070 3221 0
-5070 3189 0
5071 -3202 -3189 0
-5071 3202 0
-5071 3189 0
5072 -3202 -3213 0
-5072 3202 0
-5072 3213 0
5073 -3221 -3213 -3195 0
-5073 3221 0
-5073 3213 0
-5073 3195 0
-29 3197 5070 5071 5072 5073 0
29 -3197 0
29 -5070 0
29 -5071 0
29 -5072 0
29 -5073 0
5074 -3221 -3188 0
-5074 3221 0
-5074 3188 0
5075 -3202 -3211 0
-5075 3202 0
-5075 3211 0
5076 -3202 -3188 0
-5076 3202 0
-5076 3188 0
5077 -3221 -3211 -3195 0
-5077 3221 0
-5077 3211 0
-5077 3195 0
-27 3200 5074 5075 5076 5077 0
27 -3200 0
27 -5074 0
27 -5075 0
27 -5076 0
27 -5077 0
5078 -3216 -3188 0
-5078 3216 0
-5078 3188 0
5079 -3209 -3188 0
-5079 3209 0
-5079 3188 0
5080 -3209 -3211 0
-5080 3209 0
-5080 3211 0
5081 -3216 -3211 -3195 0
-5081 3216 0
-5081 3211 0
-5081 3195 0
-30 3206 5078 5079 5080 5081 0
30 -3206 0
30 -5078 0
30 -5079 0
30 -5080 0
30 -5081 0
5082 -3213 -3209 0
-5082 3213 0
-5082 3209 0
5083 -3189 -3216 0
-5083 3189 0
-5083 3216 0
5084 -3189 -3209 0
-5084 3189 0
-5084 3209 0
5085 -3213 -3216 -3195 0
-5085 3213 0
-5085 3216 0
-5085 3195 0
-28 3204 5082 5083 5084 5085 0
28 -3204 0
28 -5082 0
28 -5083 0
28 -5084 0
28 -5085 0
5086 -3213 -3189 0
-5086 3213 0
-5086 3189 0
3190 -3189 -3189 0
-3190 3189 0
-3190 3189 0
5087 -3189 -3213 0
-5087 3189 0
-5087 3213 0
5088 -3213 -3213 -3195 0
-5088 3213 0
-5088 3213 0
-5088 3195 0
-5089 3193 5086 3190 5087 5088 0
5089 -3193 0
5089 -5086 0
5089 -3190 0
5089 -5087 0
5089 -5088 0
5090 -2523 -2523 0
-5090 2523 0
-5090 2523 0
-5091 2526 5090 0
5091 -2526 0
5091 -5090 0
5092 -2523 -1905 0
-5092 2523 0
-5092 1905 0
-939 3556 5092 0
939 -3556 0
939 -5092 0
5093 -2523 -1903 0
-5093 2523 0
-5093 1903 0
-937 2518 5093 0
937 -2518 0
937 -5093 0
5094 -1902 -1903 0
-5094 1902 0
-5094 1903 0
-940 1899 5094 0
940 -1899 0
940 -5094 0
5095 -1905 -1902 0
-5095 1905 0
-5095 1902 0
-938 1896 5095 0
938 -1896 0
938 -5095 0
5096 -1905 -1905 0
-5096 1905 0
-5096 1905 0
-5097 1908 5096 0
5097 -1908 0
5097 -5096 0
5098 -4886 -5099 0
-5098 4886 0
-5098 5099 0
5100 -5099 -5099 0
-5100 5099 0
-5100 5099 0
5101 -5099 -4886 0
-5101 5099 0
-5101 4886 0
5102 -4886 -4886 -5103 0
-5102 4886 0
-5102 4886 0
-5102 5103 0
-5104 4888 5098 5100 5101 5102 0
5104 -4888 0
5104 -5098 0
5104 -5100 0
5104 -5101 0
5104 -5102 0
5105 -4886 -5106 0
-5105 4886 0
-5105 5106 0
5107 -5099 -5106 0
-5107 5099 0
-5107 5106 0
5108 -5099 -4890 0
-5108 5099 0
-5108 4890 0
5109 -4886 -4890 -5103 0
-5109 4886 0
-5109 4890 0
-5109 5103 0
-269 4891 5105 5107 5108 5109 0
269 -4891 0
269 -5105 0
269 -5107 0
269 -5108 0
269 -5109 0
5110 -4886 -5111 0
-5110 4886 0
-5110 5111 0
5112 -5099 -4893 0
-5112 5099 0
-5112 4893 0
5113 -5099 -5111 0
-5113 5099 0
-5113 5111 0
5114 -4886 -4893 -5103 0
-5114 4886 0
-5114 4893 0
-5114 5103 0
-267 4894 5110 5112 5113 5114 0
267 -4894 0
267 -5110 0
267 -5112 0
267 -5113 0
267 -5114 0
5115 -4896 -5111 0
-5115 4896 0
-5115 5111 0
5116 -5117 -5111 0
-5116 5117 0
-5116 5111 0
5118 -5117 -4893 0
-5118 5117 0
-5118 4893 0
5119 -4896 -4893 -5103 0
-5119 4896 0
-5119 4893 0
-5119 5103 0
-270 4897 5115 5116 5118 5119 0
270 -4897 0
270 -5115 0
270 -5116 0
270 -5118 0
270 -5119 0
5120 -4890 -5117 0
-5120 4890 0
-5120 5117 0
5121 -5106 -4896 0
-5121 5106 0
-5121 4896 0
5122 -5106 -5117 0
-5122 5106 0
-5122 5117 0
5123 -4890 -4896 -5103 0
-5123 4890 0
-5123 4896 0
-5123 5103 0
-268 4899 5120 5121 5122 5123 0
268 -4899 0
268 -5120 0
268 -5121 0
268 -5122 0
268 -5123 0
5124 -4890 -5106 0
-5124 4890 0
-5124 5106 0
5125 -5106 -5106 0
-5125 5106 0
-5125 5106 0
5126 -5106 -4890 0
-5126 5106 0
-5126 4890 0
5127 -4890 -4890 -5103 0
-5127 4890 0
-5127 4890 0
-5127 5103 0
-5128 4902 5124 5125 5126 5127 0
5128 -4902 0
5128 -5124 0
5128 -5125 0
5128 -5126 0
5128 -5127 0
5129 -3221 -3221 0
-5129 3221 0
-5129 3221 0
-5130 3227 5129 0
5130 -3227 0
5130 -5129 0
5131 -3221 -3213 0
-5131 3221 0
-5131 3213 0
-179 3197 5131 0
179 -3197 0
179 -5131 0
5132 -3221 -3211 0
-5132 3221 0
-5132 3211 0
-177 3200 5132 0
177 -3200 0
177 -5132 0
5133 -3216 -3211 0
-5133 3216 0
-5133 3211 0
-180 3206 5133 0
180 -3206 0
180 -5133 0
5134 -3213 -3216 0
-5134 3213 0
-5134 3216 0
-178 3204 5134 0
178 -3204 0
178 -5134 0
5135 -3213 -3213 0
-5135 3213 0
-5135 3213 0
-5136 3193 5135 0
5136 -3193 0
5136 -5135 0
5137 -3050 -5138 0
-5137 3050 0
-5137 5138 0
5139 -5138 -5138 0
-5139 5138 0
-5139 5138 0
5140 -5138 -3050 0
-5140 5138 0
-5140 3050 0
5141 -3050 -3050 -3580 0
-5141 3050 0
-5141 3050 0
-5141 3580 0
-5142 3052 5137 5139 5140 5141 0
5142 -3052 0
5142 -5137 0
5142 -5139 0
5142 -5140 0
5142 -5141 0
5143 -3050 -3582 0
-5143 3050 0
-5143 3582 0
5144 -5138 -3582 0
-5144 5138 0
-5144 3582 0
5145 -5138 -3054 0
-5145 5138 0
-5145 3054 0
5146 -3050 -3054 -3580 0
-5146 3050 0
-5146 3054 0
-5146 3580 0
-629 3055 5143 5144 5145 5146 0
629 -3055 0
629 -5143 0
629 -5144 0
629 -5145 0
629 -5146 0
5147 -3050 -3584 0
-5147 3050 0
-5147 3584 0
5148 -5138 -3057 0
-5148 5138 0
-5148 3057 0
5149 -5138 -3584 0
-5149 5138 0
-5149 3584 0
5150 -3050 -3057 -3580 0
-5150 3050 0
-5150 3057 0
-5150 3580 0
-627 3058 5147 5148 5149 5150 0
627 -3058 0
627 -5147 0
627 -5148 0
627 -5149 0
627 -5150 0
5151 -3060 -3584 0
-5151 3060 0
-5151 3584 0
5152 -3578 -3584 0
-5152 3578 0
-5152 3584 0
5153 -3578 -3057 0
-5153 3578 0
-5153 3057 0
5154 -3060 -3057 -3580 0
-5154 3060 0
-5154 3057 0
-5154 3580 0
-630 3061 5151 5152 5153 5154 0
630 -3061 0
630 -5151 0
630 -5152 0
630 -5153 0
630 -5154 0
5155 -3054 -3578 0
-5155 3054 0
-5155 3578 0
5156 -3582 -3060 0
-5156 3582 0
-5156 3060 0
5157 -3582 -3578 0
-5157 3582 0
-5157 3578 0
5158 -3054 -3060 -3580 0
-5158 3054 0
-5158 3060 0
-5158 3580 0
-628 3063 5155 5156 5157 5158 0
628 -3063 0
628 -5155 0
628 -5156 0
628 -5157 0
628 -5158 0
5159 -3054 -3582 0
-5159 3054 0
-5159 3582 0
5160 -3582 -3582 0
-5160 3582 0
-5160 3582 0
5161 -3582 -3054 0
-5161 3582 0
-5161 3054 0
5162 -3054 -3054 -3580 0
-5162 3054 0
-5162 3054 0
-5162 3580 0
-5163 3066 5159 5160 5161 5162 0
5163 -3066 0
5163 -5159 0
5163 -5160 0
5163 -5161 0
5163 -5162 0
5164 -3188 -3188 0
-5164 3188 0
-5164 3188 0
-5165 3195 5164 0
5165 -3195 0
5165 -5164 0
5166 -3188 -3200 0
-5166 3188 0
-5166 3200 0
-79 3202 5166 0
79 -3202 0
79 -5166 0
5167 -3188 -3206 0
-5167 3188 0
-5167 3206 0
-77 3209 5167 0
77 -3209 0
77 -5167 0
5168 -3211 -3206 0
-5168 3211 0
-5168 3206 0
-80 3216 5168 0
80 -3216 0
80 -5168 0
5169 -3200 -3211 0
-5169 3200 0
-5169 3211 0
-78 3221 5169 0
78 -3221 0
78 -5169 0
5170 -3200 -3200 0
-5170 3200 0
-5170 3200 0
-5171 3227 5170 0
5171 -3227 0
5171 -5170 0
5172 -2052 -2044 0
-5172 2052 0
-5172 2044 0
4552 -2044 -2044 0
-4552 2044 0
-4552 2044 0
5173 -2044 -2052 0
-5173 2044 0
-5173 2052 0
5174 -2052 -2052 -2041 0
-5174 2052 0
-5174 2052 0
-5174 2041 0
-5175 2055 5172 4552 5173 5174 0
5175 -2055 0
5175 -5172 0
5175 -4552 0
5175 -5173 0
5175 -5174 0
5176 -2052 -2882 0
-5176 2052 0
-5176 2882 0
5177 -2044 -2882 0
-5177 2044 0
-5177 2882 0
5178 -2044 -2900 0
-5178 2044 0
-5178 2900 0
5179 -2052 -2900 -2041 0
-5179 2052 0
-5179 2900 0
-5179 2041 0
-539 2889 5176 5177 5178 5179 0
539 -2889 0
539 -5176 0
539 -5177 0
539 -5178 0
539 -5179 0
5180 -2052 -2039 0
-5180 2052 0
-5180 2039 0
5181 -2044 -2049 0
-5181 2044 0
-5181 2049 0
5182 -2044 -2039 0
-5182 2044 0
-5182 2039 0
5183 -2052 -2049 -2041 0
-5183 2052 0
-5183 2049 0
-5183 2041 0
-537 2043 5180 5181 5182 5183 0
537 -2043 0
537 -5180 0
537 -5181 0
537 -5182 0
537 -5183 0
5184 -2050 -2039 0
-5184 2050 0
-5184 2039 0
5185 -2047 -2039 0
-5185 2047 0
-5185 2039 0
5186 -2047 -2049 0
-5186 2047 0
-5186 2049 0
5187 -2050 -2049 -2041 0
-5187 2050 0
-5187 2049 0
-5187 2041 0
-540 2046 5184 5185 5186 5187 0
540 -2046 0
540 -5184 0
540 -5185 0
540 -5186 0
540 -5187 0
5188 -2900 -2047 0
-5188 2900 0
-5188 2047 0
5189 -2882 -2050 0
-5189 2882 0
-5189 2050 0
5190 -2882 -2047 0
-5190 2882 0
-5190 2047 0
5191 -2900 -2050 -2041 0
-5191 2900 0
-5191 2050 0
-5191 2041 0
-538 2894 5188 5189 5190 5191 0
538 -2894 0
538 -5188 0
538 -5189 0
538 -5190 0
538 -5191 0
5192 -2900 -2882 0
-5192 2900 0
-5192 2882 0
2883 -2882 -2882 0
-2883 2882 0
-2883 2882 0
5193 -2882 -2900 0
-5193 2882 0
-5193 2900 0
5194 -2900 -2900 -2041 0
-5194 2900 0
-5194 2900 0
-5194 2041 0
-5195 2886 5192 2883 5193 5194 0
5195 -2886 0
5195 -5192 0
5195 -2883 0
5195 -5193 0
5195 -5194 0
5196 -2698 -5197 0
-5196 2698 0
-5196 5197 0
5198 -5197 -5197 0
-5198 5197 0
-5198 5197 0
5199 -5197 -2698 0
-5199 5197 0
-5199 2698 0
5200 -2698 -2698 -5201 0
-5200 2698 0
-5200 2698 0
-5200 5201 0
-5202 2700 5196 5198 5199 5200 0
5202 -2700 0
5202 -5196 0
5202 -5198 0
5202 -5199 0
5202 -5200 0
5203 -2698 -5204 0
-5203 2698 0
-5203 5204 0
5205 -5197 -5204 0
-5205 5197 0
-5205 5204 0
5206 -5197 -2702 0
-5206 5197 0
-5206 2702 0
5207 -2698 -2702 -5201 0
-5207 2698 0
-5207 2702 0
-5207 5201 0
-809 2703 5203 5205 5206 5207 0
809 -2703 0
809 -5203 0
809 -5205 0
809 -5206 0
809 -5207 0
5208 -2698 -5209 0
-5208 2698 0
-5208 5209 0
5210 -5197 -2705 0
-5210 5197 0
-5210 2705 0
5211 -5197 -5209 0
-5211 5197 0
-5211 5209 0
5212 -2698 -2705 -5201 0
-5212 2698 0
-5212 2705 0
-5212 5201 0
-807 2706 5208 5210 5211 5212 0
807 -2706 0
807 -5208 0
807 -5210 0
807 -5211 0
807 -5212 0
5213 -2708 -5209 0
-5213 2708 0
-5213 5209 0
5214 -5215 -5209 0
-5214 5215 0
-5214 5209 0
5216 -5215 -2705 0
-5216 5215 0
-5216 2705 0
5217 -2708 -2705 -5201 0
-5217 2708 0
-5217 2705 0
-5217 5201 0
-810 2709 5213 5214 5216 5217 0
810 -2709 0
810 -5213 0
810 -5214 0
810 -5216 0
810 -5217 0
5218 -2702 -5215 0
-5218 2702 0
-5218 5215 0
5219 -5204 -2708 0
-5219 5204 0
-5219 2708 0
5220 -5204 -5215 0
-5220 5204 0
-5220 5215 0
5221 -2702 -2708 -5201 0
-5221 2702 0
-5221 2708 0
-5221 5201 0
-808 2711 5218 5219 5220 5221 0
808 -2711 0
808 -5218 0
808 -5219 0
808 -5220 0
808 -5221 0
5222 -2702 -5204 0
-5222 2702 0
-5222 5204 0
5223 -5204 -5204 0
-5223 5204 0
-5223 5204 0
5224 -5204 -2702 0
-5224 5204 0
-5224 2702 0
5225 -2702 -2702 -5201 0
-5225 2702 0
-5225 2702 0
-5225 5201 0
-5226 2714 5222 5223 5224 5225 0
5226 -2714 0
5226 -5222 0
5226 -5223 0
5226 -5224 0
5226 -5225 0
5227 -1536 -1517 0
-5227 1536 0
-5227 1517 0
2344 -1517 -1517 0
-2344 1517 0
-2344 1517 0
5228 -1517 -1536 0
-5228 1517 0
-5228 1536 0
5229 -1536 -1536 -1510 0
-5229 1536 0
-5229 1536 0
-5229 1510 0
-5230 1542 5227 2344 5228 5229 0
5230 -1542 0
5230 -5227 0
5230 -2344 0
5230 -5228 0
5230 -5229 0
5231 -1536 -1504 0
-5231 1536 0
-5231 1504 0
5232 -1517 -1504 0
-5232 1517 0
-5232 1504 0
5233 -1517 -1528 0
-5233 1517 0
-5233 1528 0
5234 -1536 -1528 -1510 0
-5234 1536 0
-5234 1528 0
-5234 1510 0
-184 1512 5231 5232 5233 5234 0
184 -1512 0
184 -5231 0
184 -5232 0
184 -5233 0
184 -5234 0
5235 -1536 -1503 0
-5235 1536 0
-5235 1503 0
5236 -1517 -1526 0
-5236 1517 0
-5236 1526 0
5237 -1517 -1503 0
-5237 1517 0
-5237 1503 0
5238 -1536 -1526 -1510 0
-5238 1536 0
-5238 1526 0
-5238 1510 0
-182 1515 5235 5236 5237 5238 0
182 -1515 0
182 -5235 0
182 -5236 0
182 -5237 0
182 -5238 0
5239 -1531 -1503 0
-5239 1531 0
-5239 1503 0
5240 -1524 -1503 0
-5240 1524 0
-5240 1503 0
5241 -1524 -1526 0
-5241 1524 0
-5241 1526 0
5242 -1531 -1526 -1510 0
-5242 1531 0
-5242 1526 0
-5242 1510 0
-185 1521 5239 5240 5241 5242 0
185 -1521 0
185 -5239 0
185 -5240 0
185 -5241 0
185 -5242 0
5243 -1528 -1524 0
-5243 1528 0
-5243 1524 0
5244 -1504 -1531 0
-5244 1504 0
-5244 1531 0
5245 -1504 -1524 0
-5245 1504 0
-5245 1524 0
5246 -1528 -1531 -1510 0
-5246 1528 0
-5246 1531 0
-5246 1510 0
-183 1519 5243 5244 5245 5246 0
183 -1519 0
183 -5243 0
183 -5244 0
183 -5245 0
183 -5246 0
5247 -1528 -1504 0
-5247 1528 0
-5247 1504 0
1505 -1504 -1504 0
-1505 1504 0
-1505 1504 0
5248 -1504 -1528 0
-5248 1504 0
-5248 1528 0
5249 -1528 -1528 -1510 0
-5249 1528 0
-5249 1528 0
-5249 1510 0
-5250 1508 5247 1505 5248 5249 0
5250 -1508 0
5250 -5247 0
5250 -1505 0
5250 -5248 0
5250 -5249 0
5251 -3940 -3940 0
-5251 3940 0
-5251 3940 0
-5252 3947 5251 0
5252 -3947 0
5252 -5251 0
5253 -3940 -3952 0
-5253 3940 0
-5253 3952 0
-714 3954 5253 0
714 -3954 0
714 -5253 0
5254 -3940 -3958 0
-5254 3940 0
-5254 3958 0
-712 3961 5254 0
712 -3961 0
712 -5254 0
5255 -3963 -3958 0
-5255 3963 0
-5255 3958 0
-715 3968 5255 0
715 -3968 0
715 -5255 0
5256 -3952 -3963 0
-5256 3952 0
-5256 3963 0
-713 3973 5256 0
713 -3973 0
713 -5256 0
5257 -3952 -3952 0
-5257 3952 0
-5257 3952 0
-5258 3979 5257 0
5258 -3979 0
5258 -5257 0
5259 -4353 -5260 0
-5259 4353 0
-5259 5260 0
5261 -5260 -5260 0
-5261 5260 0
-5261 5260 0
5262 -5260 -4353 0
-5262 5260 0
-5262 4353 0
5263 -4353 -4353 -5264 0
-5263 4353 0
-5263 4353 0
-5263 5264 0
-5265 4355 5259 5261 5262 5263 0
5265 -4355 0
5265 -5259 0
5265 -5261 0
5265 -5262 0
5265 -5263 0
5266 -4353 -5267 0
-5266 4353 0
-5266 5267 0
5268 -5260 -5267 0
-5268 5260 0
-5268 5267 0
5269 -5260 -4357 0
-5269 5260 0
-5269 4357 0
5270 -4353 -4357 -5264 0
-5270 4353 0
-5270 4357 0
-5270 5264 0
-669 4358 5266 5268 5269 5270 0
669 -4358 0
669 -5266 0
669 -5268 0
669 -5269 0
669 -5270 0
5271 -4353 -5272 0
-5271 4353 0
-5271 5272 0
5273 -5260 -4360 0
-5273 5260 0
-5273 4360 0
5274 -5260 -5272 0
-5274 5260 0
-5274 5272 0
5275 -4353 -4360 -5264 0
-5275 4353 0
-5275 4360 0
-5275 5264 0
-667 4361 5271 5273 5274 5275 0
667 -4361 0
667 -5271 0
667 -5273 0
667 -5274 0
667 -5275 0
5276 -4363 -5272 0
-5276 4363 0
-5276 5272 0
5277 -5278 -5272 0
-5277 5278 0
-5277 5272 0
5279 -5278 -4360 0
-5279 5278 0
-5279 4360 0
5280 -4363 -4360 -5264 0
-5280 4363 0
-5280 4360 0
-5280 5264 0
-670 4364 5276 5277 5279 5280 0
670 -4364 0
670 -5276 0
670 -5277 0
670 -5279 0
670 -5280 0
5281 -4357 -5278 0
-5281 4357 0
-5281 5278 0
5282 -5267 -4363 0
-5282 5267 0
-5282 4363 0
5283 -5267 -5278 0
-5283 5267 0
-5283 5278 0
5284 -4357 -4363 -5264 0
-5284 4357 0
-5284 4363 0
-5284 5264 0
-668 4366 5281 5282 5283 5284 0
668 -4366 0
668 -5281 0
668 -5282 0
668 -5283 0
668 -5284 0
5285 -4357 -5267 0
-5285 4357 0
-5285 5267 0
5286 -5267 -5267 0
-5286 5267 0
-5286 5267 0
5287 -5267 -4357 0
-5287 5267 0
-5287 4357 0
5288 -4357 -4357 -5264 0
-5288 4357 0
-5288 4357 0
-5288 5264 0
-5289 4369 5285 5286 5287 5288 0
5289 -4369 0
5289 -5285 0
5289 -5286 0
5289 -5287 0
5289 -5288 0
5290 -4622 -4622 0
-5290 4622 0
-5290 4622 0
-5291 4629 5290 0
5291 -4629 0
5291 -5290 0
5292 -4622 -4634 0
-5292 4622 0
-5292 4634 0
-1094 4636 5292 0
1094 -4636 0
1094 -5292 0
5293 -4622 -4640 0
-5293 4622 0
-5293 4640 0
-1092 4643 5293 0
1092 -4643 0
1092 -5293 0
5294 -4645 -4640 0
-5294 4645 0
-5294 4640 0
-1095 4650 5294 0
1095 -4650 0
1095 -5294 0
5295 -4634 -4645 0
-5295 4634 0
-5295 4645 0
-1093 4655 5295 0
1093 -4655 0
1093 -5295 0
5296 -4634 -4634 0
-5296 4634 0
-5296 4634 0
-5297 4661 5296 0
5297 -4661 0
5297 -5296 0
5298 -2980 -5299 0
-5298 2980 0
-5298 5299 0
5300 -5299 -5299 0
-5300 5299 0
-5300 5299 0
5301 -5299 -2980 0
-5301 5299 0
-5301 2980 0
5302 -2980 -2980 -5303 0
-5302 2980 0
-5302 2980 0
-5302 5303 0
-5304 2982 5298 5300 5301 5302 0
5304 -2982 0
5304 -5298 0
5304 -5300 0
5304 -5301 0
5304 -5302 0
5305 -2980 -5306 0
-5305 2980 0
-5305 5306 0
5307 -5299 -5306 0
-5307 5299 0
-5307 5306 0
5308 -5299 -2984 0
-5308 5299 0
-5308 2984 0
5309 -2980 -2984 -5303 0
-5309 2980 0
-5309 2984 0
-5309 5303 0
-1084 2985 5305 5307 5308 5309 0
1084 -2985 0
1084 -5305 0
1084 -5307 0
1084 -5308 0
1084 -5309 0
5310 -2980 -5311 0
-5310 2980 0
-5310 5311 0
5312 -5299 -2987 0
-5312 5299 0
-5312 2987 0
5313 -5299 -5311 0
-5313 5299 0
-5313 5311 0
5314 -2980 -2987 -5303 0
-5314 2980 0
-5314 2987 0
-5314 5303 0
-1082 2988 5310 5312 5313 5314 0
1082 -2988 0
1082 -5310 0
1082 -5312 0
1082 -5313 0
1082 -5314 0
5315 -2990 -5311 0
-5315 2990 0
-5315 5311 0
5316 -5317 -5311 0
-5316 5317 0
-5316 5311 0
5318 -5317 -2987 0
-5318 5317 0
-5318 2987 0
5319 -2990 -2987 -5303 0
-5319 2990 0
-5319 2987 0
-5319 5303 0
-1085 2991 5315 5316 5318 5319 0
1085 -2991 0
1085 -5315 0
1085 -5316 0
1085 -5318 0
1085 -5319 0
5320 -2984 -5317 0
-5320 2984 0
-5320 5317 0
5321 -5306 -2990 0
-5321 5306 0
-5321 2990 0
5322 -5306 -5317 0
-5322 5306 0
-5322 5317 0
5323 -2984 -2990 -5303 0
-5323 2984 0
-5323 2990 0
-5323 5303 0
-1083 2993 5320 5321 5322 5323 0
1083 -2993 0
1083 -5320 0
1083 -5321 0
1083 -5322 0
1083 -5323 0
5324 -2984 -5306 0
-5324 2984 0
-5324 5306 0
5325 -5306 -5306 0
-5325 5306 0
-5325 5306 0
5326 -5306 -2984 0
-5326 5306 0
-5326 2984 0
5327 -2984 -2984 -5303 0
-5327 2984 0
-5327 2984 0
-5327 5303 0
-5328 2996 5324 5325 5326 5327 0
5328 -2996 0
5328 -5324 0
5328 -5325 0
5328 -5326 0
5328 -5327 0
5329 -1733 -1733 0
-5329 1733 0
-5329 1733 0
-5330 1740 5329 0
5330 -1740 0
5330 -5329 0
5331 -1733 -1745 0
-5331 1733 0
-5331 1745 0
-649 1747 5331 0
649 -1747 0
649 -5331 0
5332 -1733 -1751 0
-5332 1733 0
-5332 1751 0
-647 1754 5332 0
647 -1754 0
647 -5332 0
5333 -1756 -1751 0
-5333 1756 0
-5333 1751 0
-650 1761 5333 0
650 -1761 0
650 -5333 0
5334 -1745 -1756 0
-5334 1745 0
-5334 1756 0
-648 1766 5334 0
648 -1766 0
648 -5334 0
5335 -1745 -1745 0
-5335 1745 0
-5335 1745 0
-5336 1772 5335 0
5336 -1772 0
5336 -5335 0
5337 -4997 -4979 0
-5337 4997 0
-5337 4979 0
4980 -4979 -4979 0
-4980 4979 0
-4980 4979 0
5338 -4979 -4997 0
-5338 4979 0
-5338 4997 0
5339 -4997 -4997 -1279 0
-5339 4997 0
-5339 4997 0
-5339 1279 0
-5340 4983 5337 4980 5338 5339 0
5340 -4983 0
5340 -5337 0
5340 -4980 0
5340 -5338 0
5340 -5339 0
5341 -4997 -1282 0
-5341 4997 0
-5341 1282 0
5342 -4979 -1282 0
-5342 4979 0
-5342 1282 0
5343 -4979 -1290 0
-5343 4979 0
-5343 1290 0
5344 -4997 -1290 -1279 0
-5344 4997 0
-5344 1290 0
-5344 1279 0
-244 4986 5341 5342 5343 5344 0
244 -4986 0
244 -5341 0
244 -5342 0
244 -5343 0
244 -5344 0
5345 -4997 -1285 0
-5345 4997 0
-5345 1285 0
5346 -4979 -1288 0
-5346 4979 0
-5346 1288 0
5347 -4979 -1285 0
-5347 4979 0
-5347 1285 0
5348 -4997 -1288 -1279 0
-5348 4997 0
-5348 1288 0
-5348 1279 0
-242 4991 5345 5346 5347 5348 0
242 -4991 0
242 -5345 0
242 -5346 0
242 -5347 0
242 -5348 0
5349 -1287 -1285 0
-5349 1287 0
-5349 1285 0
5350 -1277 -1285 0
-5350 1277 0
-5350 1285 0
5351 -1277 -1288 0
-5351 1277 0
-5351 1288 0
5352 -1287 -1288 -1279 0
-5352 1287 0
-5352 1288 0
-5352 1279 0
-245 1284 5349 5350 5351 5352 0
245 -1284 0
245 -5349 0
245 -5350 0
245 -5351 0
245 -5352 0
5353 -1290 -1277 0
-5353 1290 0
-5353 1277 0
5354 -1282 -1287 0
-5354 1282 0
-5354 1287 0
5355 -1282 -1277 0
-5355 1282 0
-5355 1277 0
5356 -1290 -1287 -1279 0
-5356 1290 0
-5356 1287 0
-5356 1279 0
-243 1281 5353 5354 5355 5356 0
243 -1281 0
243 -5353 0
243 -5354 0
243 -5355 0
243 -5356 0
5357 -1290 -1282 0
-5357 1290 0
-5357 1282 0
5358 -1282 -1282 0
-5358 1282 0
-5358 1282 0
5359 -1282 -1290 0
-5359 1282 0
-5359 1290 0
5360 -1290 -1290 -1279 0
-5360 1290 0
-5360 1290 0
-5360 1279 0
-5361 1293 5357 5358 5359 5360 0
5361 -1293 0
5361 -5357 0
5361 -5358 0
5361 -5359 0
5361 -5360 0
5362 -5363 -5363 0
-5362 5363 0
-5362 5363 0
-5364 5365 5362 0
5364 -5365 0
5364 -5362 0
5366 -5363 -5367 0
-5366 5363 0
-5366 5367 0
-1184 5368 5366 0
1184 -5368 0
1184 -5366 0
5369 -5363 -5370 0
-5369 5363 0
-5369 5370 0
-1182 5371 5369 0
1182 -5371 0
1182 -5369 0
5372 -5373 -5370 0
-5372 5373 0
-5372 5370 0
-1185 5374 5372 0
1185 -5374 0
1185 -5372 0
5375 -5367 -5373 0
-5375 5367 0
-5375 5373 0
-1183 5376 5375 0
1183 -5376 0
1183 -5375 0
5377 -5367 -5367 0
-5377 5367 0
-5377 5367 0
-5378 5379 5377 0
5378 -5379 0
5378 -5377 0
5380 -2834 -5381 0
-5380 2834 0
-5380 5381 0
5382 -5381 -5381 0
-5382 5381 0
-5382 5381 0
5383 -5381 -2834 0
-5383 5381 0
-5383 2834 0
5384 -2834 -2834 -5385 0
-5384 2834 0
-5384 2834 0
-5384 5385 0
-5386 2836 5380 5382 5383 5384 0
5386 -2836 0
5386 -5380 0
5386 -5382 0
5386 -5383 0
5386 -5384 0
5387 -2834 -5388 0
-5387 2834 0
-5387 5388 0
5389 -5381 -5388 0
-5389 5381 0
-5389 5388 0
5390 -5381 -2838 0
-5390 5381 0
-5390 2838 0
5391 -2834 -2838 -5385 0
-5391 2834 0
-5391 2838 0
-5391 5385 0
-294 2839 5387 5389 5390 5391 0
294 -2839 0
294 -5387 0
294 -5389 0
294 -5390 0
294 -5391 0
5392 -2834 -5393 0
-5392 2834 0
-5392 5393 0
5394 -5381 -2841 0
-5394 5381 0
-5394 2841 0
5395 -5381 -5393 0
-5395 5381 0
-5395 5393 0
5396 -2834 -2841 -5385 0
-5396 2834 0
-5396 2841 0
-5396 5385 0
-292 2842 5392 5394 5395 5396 0
292 -2842 0
292 -5392 0
292 -5394 0
292 -5395 0
292 -5396 0
5397 -2844 -5393 0
-5397 2844 0
-5397 5393 0
5398 -5399 -5393 0
-5398 5399 0
-5398 5393 0
5400 -5399 -2841 0
-5400 5399 0
-5400 2841 0
5401 -2844 -2841 -5385 0
-5401 2844 0
-5401 2841 0
-5401 5385 0
-295 2845 5397 5398 5400 5401 0
295 -2845 0
295 -5397 0
295 -5398 0
295 -5400 0
295 -5401 0
5402 -2838 -5399 0
-5402 2838 0
-5402 5399 0
5403 -5388 -2844 0
-5403 5388 0
-5403 2844 0
5404 -5388 -5399 0
-5404 5388 0
-5404 5399 0
5405 -2838 -2844 -5385 0
-5405 2838 0
-5405 2844 0
-5405 5385 0
-293 2847 5402 5403 5404 5405 0
293 -2847 0
293 -5402 0
293 -5403 0
293 -5404 0
293 -5405 0
5406 -2838 -5388 0
-5406 2838 0
-5406 5388 0
5407 -5388 -5388 0
-5407 5388 0
-5407 5388 0
5408 -5388 -2838 0
-5408 5388 0
-5408 2838 0
5409 -2838 -2838 -5385 0
-5409 2838 0
-5409 2838 0
-5409 5385 0
-5410 2850 5406 5407 5408 5409 0
5410 -2850 0
5410 -5406 0
5410 -5407 0
5410 -5408 0
5410 -5409 0
5411 -5412 -5412 0
-5411 5412 0
-5411 5412 0
-5413 5414 5411 0
5413 -5414 0
5413 -5411 0
5415 -5412 -2255 0
-5415 5412 0
-5415 2255 0
-869 5416 5415 0
869 -5416 0
869 -5415 0
5417 -5412 -2253 0
-5417 5412 0
-5417 2253 0
-867 5418 5417 0
867 -5418 0
867 -5417 0
5419 -2252 -2253 0
-5419 2252 0
-5419 2253 0
-870 2249 5419 0
870 -2249 0
870 -5419 0
5420 -2255 -2252 0
-5420 2255 0
-5420 2252 0
-868 2246 5420 0
868 -2246 0
868 -5420 0
5421 -2255 -2255 0
-5421 2255 0
-5421 2255 0
-5422 2258 5421 0
5422 -2258 0
5422 -5421 0
5423 -2413 -2413 0
-5423 2413 0
-5423 2413 0
-5424 2420 5423 0
5424 -2420 0
5424 -5423 0
5425 -2413 -2425 0
-5425 2413 0
-5425 2425 0
-544 2427 5425 0
544 -2427 0
544 -5425 0
5426 -2413 -2431 0
-5426 2413 0
-5426 2431 0
-542 2434 5426 0
542 -2434 0
542 -5426 0
5427 -2436 -2431 0
-5427 2436 0
-5427 2431 0
-545 2441 5427 0
545 -2441 0
545 -5427 0
5428 -2425 -2436 0
-5428 2425 0
-5428 2436 0
-543 2446 5428 0
543 -2446 0
543 -5428 0
5429 -2425 -2425 0
-5429 2425 0
-5429 2425 0
-5430 2452 5429 0
5430 -2452 0
5430 -5429 0
5431 -5412 -5432 0
-5431 5412 0
-5431 5432 0
5433 -5432 -5432 0
-5433 5432 0
-5433 5432 0
5434 -5432 -5412 0
-5434 5432 0
-5434 5412 0
5435 -5412 -5412 -2244 0
-5435 5412 0
-5435 5412 0
-5435 2244 0
-5436 5414 5431 5433 5434 5435 0
5436 -5414 0
5436 -5431 0
5436 -5433 0
5436 -5434 0
5436 -5435 0
5437 -5412 -2247 0
-5437 5412 0
-5437 2247 0
5438 -5432 -2247 0
-5438 5432 0
-5438 2247 0
5439 -5432 -2255 0
-5439 5432 0
-5439 2255 0
5440 -5412 -2255 -2244 0
-5440 5412 0
-5440 2255 0
-5440 2244 0
-449 5416 5437 5438 5439 5440 0
449 -5416 0
449 -5437 0
449 -5438 0
449 -5439 0
449 -5440 0
5441 -5412 -2250 0
-5441 5412 0
-5441 2250 0
5442 -5432 -2253 0
-5442 5432 0
-5442 2253 0
5443 -5432 -2250 0
-5443 5432 0
-5443 2250 0
5444 -5412 -2253 -2244 0
-5444 5412 0
-5444 2253 0
-5444 2244 0
-447 5418 5441 5442 5443 5444 0
447 -5418 0
447 -5441 0
447 -5442 0
447 -5443 0
447 -5444 0
5445 -2252 -2250 0
-5445 2252 0
-5445 2250 0
5446 -2242 -2250 0
-5446 2242 0
-5446 2250 0
5447 -2242 -2253 0
-5447 2242 0
-5447 2253 0
5448 -2252 -2253 -2244 0
-5448 2252 0
-5448 2253 0
-5448 2244 0
-450 2249 5445 5446 5447 5448 0
450 -2249 0
450 -5445 0
450 -5446 0
450 -5447 0
450 -5448 0
5449 -2255 -2242 0
-5449 2255 0
-5449 2242 0
5450 -2247 -2252 0
-5450 2247 0
-5450 2252 0
5451 -2247 -2242 0
-5451 2247 0
-5451 2242 0
5452 -2255 -2252 -2244 0
-5452 2255 0
-5452 2252 0
-5452 2244 0
-448 2246 5449 5450 5451 5452 0
448 -2246 0
448 -5449 0
448 -5450 0
448 -5451 0
448 -5452 0
5453 -2255 -2247 0
-5453 2255 0
-5453 2247 0
5454 -2247 -2247 0
-5454 2247 0
-5454 2247 0
5455 -2247 -2255 0
-5455 2247 0
-5455 2255 0
5456 -2255 -2255 -2244 0
-5456 2255 0
-5456 2255 0
-5456 2244 0
-5457 2258 5453 5454 5455 5456 0
5457 -2258 0
5457 -5453 0
5457 -5454 0
5457 -5455 0
5457 -5456 0
5458 -2052 -2052 0
-5458 2052 0
-5458 2052 0
-5459 2055 5458 0
5459 -2055 0
5459 -5458 0
5460 -2052 -2900 0
-5460 2052 0
-5460 2900 0
-929 2889 5460 0
929 -2889 0
929 -5460 0
5461 -2052 -2049 0
-5461 2052 0
-5461 2049 0
-927 2043 5461 0
927 -2043 0
927 -5461 0
5462 -2050 -2049 0
-5462 2050 0
-5462 2049 0
-930 2046 5462 0
930 -2046 0
930 -5462 0
5463 -2900 -2050 0
-5463 2900 0
-5463 2050 0
-928 2894 5463 0
928 -2894 0
928 -5463 0
5464 -2900 -2900 0
-5464 2900 0
-5464 2900 0
-5465 2886 5464 0
5465 -2886 0
5465 -5464 0
5466 -5467 -5467 0
-5466 5467 0
-5466 5467 0
-5468 5469 5466 0
5468 -5469 0
5468 -5466 0
5470 -5467 -5471 0
-5470 5467 0
-5470 5471 0
-804 5472 5470 0
804 -5472 0
804 -5470 0
5473 -5467 -5474 0
-5473 5467 0
-5473 5474 0
-802 5475 5473 0
802 -5475 0
802 -5473 0
5476 -5477 -5474 0
-5476 5477 0
-5476 5474 0
-805 5478 5476 0
805 -5478 0
805 -5476 0
5479 -5471 -5477 0
-5479 5471 0
-5479 5477 0
-803 5480 5479 0
803 -5480 0
803 -5479 0
5481 -5471 -5471 0
-5481 5471 0
-5481 5471 0
-5482 5483 5481 0
5482 -5483 0
5482 -5481 0
5484 -3461 -5485 0
-5484 3461 0
-5484 5485 0
5486 -5485 -5485 0
-5486 5485 0
-5486 5485 0
5487 -5485 -3461 0
-5487 5485 0
-5487 3461 0
5488 -3461 -3461 -5489 0
-5488 3461 0
-5488 3461 0
-5488 5489 0
-5490 3463 5484 5486 5487 5488 0
5490 -3463 0
5490 -5484 0
5490 -5486 0
5490 -5487 0
5490 -5488 0
5491 -3461 -5492 0
-5491 3461 0
-5491 5492 0
5493 -5485 -5492 0
-5493 5485 0
-5493 5492 0
5494 -5485 -3465 0
-5494 5485 0
-5494 3465 0
5495 -3461 -3465 -5489 0
-5495 3461 0
-5495 3465 0
-5495 5489 0
-304 3466 5491 5493 5494 5495 0
304 -3466 0
304 -5491 0
304 -5493 0
304 -5494 0
304 -5495 0
5496 -3461 -5497 0
-5496 3461 0
-5496 5497 0
5498 -5485 -3468 0
-5498 5485 0
-5498 3468 0
5499 -5485 -5497 0
-5499 5485 0
-5499 5497 0
5500 -3461 -3468 -5489 0
-5500 3461 0
-5500 3468 0
-5500 5489 0
-302 3469 5496 5498 5499 5500 0
302 -3469 0
302 -5496 0
302 -5498 0
302 -5499 0
302 -5500 0
5501 -3471 -5497 0
-5501 3471 0
-5501 5497 0
5502 -5503 -5497 0
-5502 5503 0
-5502 5497 0
5504 -5503 -3468 0
-5504 5503 0
-5504 3468 0
5505 -3471 -3468 -5489 0
-5505 3471 0
-5505 3468 0
-5505 5489 0
-305 3472 5501 5502 5504 5505 0
305 -3472 0
305 -5501 0
305 -5502 0
305 -5504 0
305 -5505 0
5506 -3465 -5503 0
-5506 3465 0
-5506 5503 0
5507 -5492 -3471 0
-5507 5492 0
-5507 3471 0
5508 -5492 -5503 0
-5508 5492 0
-5508 5503 0
5509 -3465 -3471 -5489 0
-5509 3465 0
-5509 3471 0
-5509 5489 0
-303 3474 5506 5507 5508 5509 0
303 -3474 0
303 -5506 0
303 -5507 0
303 -5508 0
303 -5509 0
5510 -3465 -5492 0
-5510 3465 0
-5510 5492 0
5511 -5492 -5492 0
-5511 5492 0
-5511 5492 0
5512 -5492 -3465 0
-5512 5492 0
-5512 3465 0
5513 -3465 -3465 -5489 0
-5513 3465 0
-5513 3465 0
-5513 5489 0
-5514 3477 5510 5511 5512 5513 0
5514 -3477 0
5514 -5510 0
5514 -5511 0
5514 -5512 0
5514 -5513 0
5515 -2000 -2000 0
-5515 2000 0
-5515 2000 0
-5516 2006 5515 0
5516 -2006 0
5516 -5515 0
5517 -2000 -1639 0
-5517 2000 0
-5517 1639 0
-484 2011 5517 0
484 -2011 0
484 -5517 0
5518 -2000 -1637 0
-5518 2000 0
-5518 1637 0
-482 2016 5518 0
482 -2016 0
482 -5518 0
5519 -1636 -1637 0
-5519 1636 0
-5519 1637 0
-485 1633 5519 0
485 -1633 0
485 -5519 0
5520 -1639 -1636 0
-5520 1639 0
-5520 1636 0
-483 1630 5520 0
483 -1630 0
483 -5520 0
5521 -1639 -1639 0
-5521 1639 0
-5521 1639 0
-5522 1642 5521 0
5522 -1642 0
5522 -5521 0
5523 -2562 -2544 0
-5523 2562 0
-5523 2544 0
2545 -2544 -2544 0
-2545 2544 0
-2545 2544 0
5524 -2544 -2562 0
-5524 2544 0
-5524 2562 0
5525 -2562 -2562 -1858 0
-5525 2562 0
-5525 2562 0
-5525 1858 0
-5526 2548 5523 2545 5524 5525 0
5526 -2548 0
5526 -5523 0
5526 -2545 0
5526 -5524 0
5526 -5525 0
5527 -2562 -1861 0
-5527 2562 0
-5527 1861 0
5528 -2544 -1861 0
-5528 2544 0
-5528 1861 0
5529 -2544 -1869 0
-5529 2544 0
-5529 1869 0
5530 -2562 -1869 -1858 0
-5530 2562 0
-5530 1869 0
-5530 1858 0
-109 2551 5527 5528 5529 5530 0
109 -2551 0
109 -5527 0
109 -5528 0
109 -5529 0
109 -5530 0
5531 -2562 -1864 0
-5531 2562 0
-5531 1864 0
5532 -2544 -1867 0
-5532 2544 0
-5532 1867 0
5533 -2544 -1864 0
-5533 2544 0
-5533 1864 0
5534 -2562 -1867 -1858 0
-5534 2562 0
-5534 1867 0
-5534 1858 0
-107 2556 5531 5532 5533 5534 0
107 -2556 0
107 -5531 0
107 -5532 0
107 -5533 0
107 -5534 0
5535 -1866 -1864 0
-5535 1866 0
-5535 1864 0
5536 -1856 -1864 0
-5536 1856 0
-5536 1864 0
5537 -1856 -1867 0
-5537 1856 0
-5537 1867 0
5538 -1866 -1867 -1858 0
-5538 1866 0
-5538 1867 0
-5538 1858 0
-110 1863 5535 5536 5537 5538 0
110 -1863 0
110 -5535 0
110 -5536 0
110 -5537 0
110 -5538 0
5539 -1869 -1856 0
-5539 1869 0
-5539 1856 0
5540 -1861 -1866 0
-5540 1861 0
-5540 1866 0
5541 -1861 -1856 0
-5541 1861 0
-5541 1856 0
5542 -1869 -1866 -1858 0
-5542 1869 0
-5542 1866 0
-5542 1858 0
-108 1860 5539 5540 5541 5542 0
108 -1860 0
108 -5539 0
108 -5540 0
108 -5541 0
108 -5542 0
5543 -1869 -1861 0
-5543 1869 0
-5543 1861 0
5544 -1861 -1861 0
-5544 1861 0
-5544 1861 0
5545 -1861 -1869 0
-5545 1861 0
-5545 1869 0
5546 -1869 -1869 -1858 0
-5546 1869 0
-5546 1869 0
-5546 1858 0
-5547 1872 5543 5544 5545 5546 0
5547 -1872 0
5547 -5543 0
5547 -5544 0
5547 -5545 0
5547 -5546 0
5548 -3772 -5549 0
-5548 3772 0
-5548 5549 0
5550 -5549 -5549 0
-5550 5549 0
-5550 5549 0
5551 -5549 -3772 0
-5551 5549 0
-5551 3772 0
5552 -3772 -3772 -5553 0
-5552 3772 0
-5552 3772 0
-5552 5553 0
-5554 3774 5548 5550 5551 5552 0
5554 -3774 0
5554 -5548 0
5554 -5550 0
5554 -5551 0
5554 -5552 0
5555 -3772 -5556 0
-5555 3772 0
-5555 5556 0
5557 -5549 -5556 0
-5557 5549 0
-5557 5556 0
5558 -5549 -3776 0
-5558 5549 0
-5558 3776 0
5559 -3772 -3776 -5553 0
-5559 3772 0
-5559 3776 0
-5559 5553 0
-289 3777 5555 5557 5558 5559 0
289 -3777 0
289 -5555 0
289 -5557 0
289 -5558 0
289 -5559 0
5560 -3772 -5561 0
-5560 3772 0
-5560 5561 0
5562 -5549 -3779 0
-5562 5549 0
-5562 3779 0
5563 -5549 -5561 0
-5563 5549 0
-5563 5561 0
5564 -3772 -3779 -5553 0
-5564 3772 0
-5564 3779 0
-5564 5553 0
-287 3780 5560 5562 5563 5564 0
287 -3780 0
287 -5560 0
287 -5562 0
287 -5563 0
287 -5564 0
5565 -3782 -5561 0
-5565 3782 0
-5565 5561 0
5566 -5567 -5561 0
-5566 5567 0
-5566 5561 0
5568 -5567 -3779 0
-5568 5567 0
-5568 3779 0
5569 -3782 -3779 -5553 0
-5569 3782 0
-5569 3779 0
-5569 5553 0
-290 3783 5565 5566 5568 5569 0
290 -3783 0
290 -5565 0
290 -5566 0
290 -5568 0
290 -5569 0
5570 -3776 -5567 0
-5570 3776 0
-5570 5567 0
5571 -5556 -3782 0
-5571 5556 0
-5571 3782 0
5572 -5556 -5567 0
-5572 5556 0
-5572 5567 0
5573 -3776 -3782 -5553 0
-5573 3776 0
-5573 3782 0
-5573 5553 0
-288 3785 5570 5571 5572 5573 0
288 -3785 0
288 -5570 0
288 -5571 0
288 -5572 0
288 -5573 0
5574 -3776 -5556 0
-5574 3776 0
-5574 5556 0
5575 -5556 -5556 0
-5575 5556 0
-5575 5556 0
5576 -5556 -3776 0
-5576 5556 0
-5576 3776 0
5577 -3776 -3776 -5553 0
-5577 3776 0
-5577 3776 0
-5577 5553 0
-5578 3788 5574 5575 5576 5577 0
5578 -3788 0
5578 -5574 0
5578 -5575 0
5578 -5576 0
5578 -5577 0
5579 -3209 -3202 0
-5579 3209 0
-5579 3202 0
5066 -3202 -3202 0
-5066 3202 0
-5066 3202 0
5580 -3202 -3209 0
-5580 3202 0
-5580 3209 0
5581 -3209 -3209 -3227 0
-5581 3209 0
-5581 3209 0
-5581 3227 0
-5582 3195 5579 5066 5580 5581 0
5582 -3195 0
5582 -5579 0
5582 -5066 0
5582 -5580 0
5582 -5581 0
5583 -3209 -3197 0
-5583 3209 0
-5583 3197 0
5584 -3202 -3197 0
-5584 3202 0
-5584 3197 0
5585 -3202 -3204 0
-5585 3202 0
-5585 3204 0
5586 -3209 -3204 -3227 0
-5586 3209 0
-5586 3204 0
-5586 3227 0
-9 3189 5583 5584 5585 5586 0
9 -3189 0
9 -5583 0
9 -5584 0
9 -5585 0
9 -5586 0
5587 -3209 -3200 0
-5587 3209 0
-5587 3200 0
5588 -3202 -3206 0
-5588 3202 0
-5588 3206 0
5589 -3202 -3200 0
-5589 3202 0
-5589 3200 0
5590 -3209 -3206 -3227 0
-5590 3209 0
-5590 3206 0
-5590 3227 0
-7 3188 5587 5588 5589 5590 0
7 -3188 0
7 -5587 0
7 -5588 0
7 -5589 0
7 -5590 0
5591 -3216 -3200 0
-5591 3216 0
-5591 3200 0
5592 -3221 -3200 0
-5592 3221 0
-5592 3200 0
5593 -3221 -3206 0
-5593 3221 0
-5593 3206 0
5594 -3216 -3206 -3227 0
-5594 3216 0
-5594 3206 0
-5594 3227 0
-10 3211 5591 5592 5593 5594 0
10 -3211 0
10 -5591 0
10 -5592 0
10 -5593 0
10 -5594 0
5595 -3204 -3221 0
-5595 3204 0
-5595 3221 0
5596 -3197 -3216 0
-5596 3197 0
-5596 3216 0
5597 -3197 -3221 0
-5597 3197 0
-5597 3221 0
5598 -3204 -3216 -3227 0
-5598 3204 0
-5598 3216 0
-5598 3227 0
-8 3213 5595 5596 5597 5598 0
8 -3213 0
8 -5595 0
8 -5596 0
8 -5597 0
8 -5598 0
5599 -3204 -3197 0
-5599 3204 0
-5599 3197 0
3223 -3197 -3197 0
-3223 3197 0
-3223 3197 0
5600 -3197 -3204 0
-5600 3197 0
-5600 3204 0
5601 -3204 -3204 -3227 0
-5601 3204 0
-5601 3204 0
-5601 3227 0
-5602 3193 5599 3223 5600 5601 0
5602 -3193 0
5602 -5599 0
5602 -3223 0
5602 -5600 0
5602 -5601 0
5603 -1644 -3375 0
-5603 1644 0
-5603 3375 0
3376 -3375 -3375 0
-3376 3375 0
-3376 3375 0
5604 -3375 -1644 0
-5604 3375 0
-5604 1644 0
5605 -1644 -1644 -1261 0
-5605 1644 0
-5605 1644 0
-5605 1261 0
-5606 1646 5603 3376 5604 5605 0
5606 -1646 0
5606 -5603 0
5606 -3376 0
5606 -5604 0
5606 -5605 0
5607 -1644 -1264 0
-5607 1644 0
-5607 1264 0
5608 -3375 -1264 0
-5608 3375 0
-5608 1264 0
5609 -3375 -1272 0
-5609 3375 0
-5609 1272 0
5610 -1644 -1272 -1261 0
-5610 1644 0
-5610 1272 0
-5610 1261 0
-169 1648 5607 5608 5609 5610 0
169 -1648 0
169 -5607 0
169 -5608 0
169 -5609 0
169 -5610 0
5611 -1644 -1267 0
-5611 1644 0
-5611 1267 0
5612 -3375 -1270 0
-5612 3375 0
-5612 1270 0
5613 -3375 -1267 0
-5613 3375 0
-5613 1267 0
5614 -1644 -1270 -1261 0
-5614 1644 0
-5614 1270 0
-5614 1261 0
-167 1650 5611 5612 5613 5614 0
167 -1650 0
167 -5611 0
167 -5612 0
167 -5613 0
167 -5614 0
5615 -1269 -1267 0
-5615 1269 0
-5615 1267 0
5616 -1259 -1267 0
-5616 1259 0
-5616 1267 0
5617 -1259 -1270 0
-5617 1259 0
-5617 1270 0
5618 -1269 -1270 -1261 0
-5618 1269 0
-5618 1270 0
-5618 1261 0
-170 1266 5615 5616 5617 5618 0
170 -1266 0
170 -5615 0
170 -5616 0
170 -5617 0
170 -5618 0
5619 -1272 -1259 0
-5619 1272 0
-5619 1259 0
5620 -1264 -1269 0
-5620 1264 0
-5620 1269 0
5621 -1264 -1259 0
-5621 1264 0
-5621 1259 0
5622 -1272 -1269 -1261 0
-5622 1272 0
-5622 1269 0
-5622 1261 0
-168 1263 5619 5620 5621 5622 0
168 -1263 0
168 -5619 0
168 -5620 0
168 -5621 0
168 -5622 0
5623 -1272 -1264 0
-5623 1272 0
-5623 1264 0
5624 -1264 -1264 0
-5624 1264 0
-5624 1264 0
5625 -1264 -1272 0
-5625 1264 0
-5625 1272 0
5626 -1272 -1272 -1261 0
-5626 1272 0
-5626 1272 0
-5626 1261 0
-5627 1275 5623 5624 5625 5626 0
5627 -1275 0
5627 -5623 0
5627 -5624 0
5627 -5625 0
5627 -5626 0
5628 -2939 -2939 0
-5628 2939 0
-5628 2939 0
-5629 2946 5628 0
5629 -2946 0
5629 -5628 0
5630 -2939 -2951 0
-5630 2939 0
-5630 2951 0
-439 2953 5630 0
439 -2953 0
439 -5630 0
5631 -2939 -2957 0
-5631 2939 0
-5631 2957 0
-437 2960 5631 0
437 -2960 0
437 -5631 0
5632 -2962 -2957 0
-5632 2962 0
-5632 2957 0
-440 2967 5632 0
440 -2967 0
440 -5632 0
5633 -2951 -2962 0
-5633 2951 0
-5633 2962 0
-438 2972 5633 0
438 -2972 0
438 -5633 0
5634 -2951 -2951 0
-5634 2951 0
-5634 2951 0
-5635 2978 5634 0
5635 -2978 0
5635 -5634 0
5636 -2242 -5432 0
-5636 2242 0
-5636 5432 0
5433 -5432 -5432 0
-5433 5432 0
-5433 5432 0
5637 -5432 -2242 0
-5637 5432 0
-5637 2242 0
5638 -2242 -2242 -5414 0
-5638 2242 0
-5638 2242 0
-5638 5414 0
-5639 2244 5636 5433 5637 5638 0
5639 -2244 0
5639 -5636 0
5639 -5433 0
5639 -5637 0
5639 -5638 0
5640 -2242 -5416 0
-5640 2242 0
-5640 5416 0
5641 -5432 -5416 0
-5641 5432 0
-5641 5416 0
5642 -5432 -2246 0
-5642 5432 0
-5642 2246 0
5643 -2242 -2246 -5414 0
-5643 2242 0
-5643 2246 0
-5643 5414 0
-569 2247 5640 5641 5642 5643 0
569 -2247 0
569 -5640 0
569 -5641 0
569 -5642 0
569 -5643 0
5644 -2242 -5418 0
-5644 2242 0
-5644 5418 0
5645 -5432 -2249 0
-5645 5432 0
-5645 2249 0
5646 -5432 -5418 0
-5646 5432 0
-5646 5418 0
5647 -2242 -2249 -5414 0
-5647 2242 0
-5647 2249 0
-5647 5414 0
-567 2250 5644 5645 5646 5647 0
567 -2250 0
567 -5644 0
567 -5645 0
567 -5646 0
567 -5647 0
5648 -2252 -5418 0
-5648 2252 0
-5648 5418 0
5649 -5412 -5418 0
-5649 5412 0
-5649 5418 0
5650 -5412 -2249 0
-5650 5412 0
-5650 2249 0
5651 -2252 -2249 -5414 0
-5651 2252 0
-5651 2249 0
-5651 5414 0
-570 2253 5648 5649 5650 5651 0
570 -2253 0
570 -5648 0
570 -5649 0
570 -5650 0
570 -5651 0
5652 -2246 -5412 0
-5652 2246 0
-5652 5412 0
5653 -5416 -2252 0
-5653 5416 0
-5653 2252 0
5654 -5416 -5412 0
-5654 5416 0
-5654 5412 0
5655 -2246 -2252 -5414 0
-5655 2246 0
-5655 2252 0
-5655 5414 0
-568 2255 5652 5653 5654 5655 0
568 -2255 0
568 -5652 0
568 -5653 0
568 -5654 0
568 -5655 0
5656 -2246 -5416 0
-5656 2246 0
-5656 5416 0
5657 -5416 -5416 0
-5657 5416 0
-5657 5416 0
5658 -5416 -2246 0
-5658 5416 0
-5658 2246 0
5659 -2246 -2246 -5414 0
-5659 2246 0
-5659 2246 0
-5659 5414 0
-5660 2258 5656 5657 5658 5659 0
5660 -2258 0
5660 -5656 0
5660 -5657 0
5660 -5658 0
5660 -5659 0
5661 -1295 -1295 0
-5661 1295 0
-5661 1295 0
-5662 1302 5661 0
5662 -1302 0
5662 -5661 0
5663 -1295 -1307 0
-5663 1295 0
-5663 1307 0
-889 1309 5663 0
889 -1309 0
889 -5663 0
5664 -1295 -1313 0
-5664 1295 0
-5664 1313 0
-887 1316 5664 0
887 -1316 0
887 -5664 0
5665 -1318 -1313 0
-5665 1318 0
-5665 1313 0
-890 1323 5665 0
890 -1323 0
890 -5665 0
5666 -1307 -1318 0
-5666 1307 0
-5666 1318 0
-888 1328 5666 0
888 -1328 0
888 -5666 0
5667 -1307 -1307 0
-5667 1307 0
-5667 1307 0
-5668 1334 5667 0
5668 -1334 0
5668 -5667 0
5669 -3016 -5670 0
-5669 3016 0
-5669 5670 0
5671 -5670 -5670 0
-5671 5670 0
-5671 5670 0
5672 -5670 -3016 0
-5672 5670 0
-5672 3016 0
5673 -3016 -3016 -5674 0
-5673 3016 0
-5673 3016 0
-5673 5674 0
-5675 3018 5669 5671 5672 5673 0
5675 -3018 0
5675 -5669 0
5675 -5671 0
5675 -5672 0
5675 -5673 0
5676 -3016 -5677 0
-5676 3016 0
-5676 5677 0
5678 -5670 -5677 0
-5678 5670 0
-5678 5677 0
5679 -5670 -3020 0
-5679 5670 0
-5679 3020 0
5680 -3016 -3020 -5674 0
-5680 3016 0
-5680 3020 0
-5680 5674 0
-329 3021 5676 5678 5679 5680 0
329 -3021 0
329 -5676 0
329 -5678 0
329 -5679 0
329 -5680 0
5681 -3016 -5682 0
-5681 3016 0
-5681 5682 0
5683 -5670 -3023 0
-5683 5670 0
-5683 3023 0
5684 -5670 -5682 0
-5684 5670 0
-5684 5682 0
5685 -3016 -3023 -5674 0
-5685 3016 0
-5685 3023 0
-5685 5674 0
-327 3024 5681 5683 5684 5685 0
327 -3024 0
327 -5681 0
327 -5683 0
327 -5684 0
327 -5685 0
5686 -3026 -5682 0
-5686 3026 0
-5686 5682 0
5687 -5688 -5682 0
-5687 5688 0
-5687 5682 0
5689 -5688 -3023 0
-5689 5688 0
-5689 3023 0
5690 -3026 -3023 -5674 0
-5690 3026 0
-5690 3023 0
-5690 5674 0
-330 3027 5686 5687 5689 5690 0
330 -3027 0
330 -5686 0
330 -5687 0
330 -5689 0
330 -5690 0
5691 -3020 -5688 0
-5691 3020 0
-5691 5688 0
5692 -5677 -3026 0
-5692 5677 0
-5692 3026 0
5693 -5677 -5688 0
-5693 5677 0
-5693 5688 0
5694 -3020 -3026 -5674 0
-5694 3020 0
-5694 3026 0
-5694 5674 0
-328 3029 5691 5692 5693 5694 0
328 -3029 0
328 -5691 0
328 -5692 0
328 -5693 0
328 -5694 0
5695 -3020 -5677 0
-5695 3020 0
-5695 5677 0
5696 -5677 -5677 0
-5696 5677 0
-5696 5677 0
5697 -5677 -3020 0
-5697 5677 0
-5697 3020 0
5698 -3020 -3020 -5674 0
-5698 3020 0
-5698 3020 0
-5698 5674 0
-5699 3032 5695 5696 5697 5698 0
5699 -3032 0
5699 -5695 0
5699 -5696 0
5699 -5697 0
5699 -5698 0
5700 -2964 -2964 0
-5700 2964 0
-5700 2964 0
-5701 2944 5700 0
5701 -2944 0
5701 -5700 0
5702 -2964 -2972 0
-5702 2964 0
-5702 2972 0
-559 2948 5702 0
559 -2948 0
559 -5702 0
5703 -2964 -2967 0
-5703 2964 0
-5703 2967 0
-557 2955 5703 0
557 -2955 0
557 -5703 0
5704 -2962 -2967 0
-5704 2962 0
-5704 2967 0
-560 2957 5704 0
560 -2957 0
560 -5704 0
5705 -2972 -2962 0
-5705 2972 0
-5705 2962 0
-558 2951 5705 0
558 -2951 0
558 -5705 0
5706 -2972 -2972 0
-5706 2972 0
-5706 2972 0
-5707 2978 5706 0
5707 -2978 0
5707 -5706 0
5708 -2429 -2422 0
-5708 2429 0
-5708 2422 0
2448 -2422 -2422 0
-2448 2422 0
-2448 2422 0
5709 -2422 -2429 0
-5709 2422 0
-5709 2429 0
5710 -2429 -2429 -2452 0
-5710 2429 0
-5710 2429 0
-5710 2452 0
-5711 2418 5708 2448 5709 5710 0
5711 -2418 0
5711 -5708 0
5711 -2448 0
5711 -5709 0
5711 -5710 0
5712 -2429 -2427 0
-5712 2429 0
-5712 2427 0
5713 -2422 -2427 0
-5713 2422 0
-5713 2427 0
5714 -2422 -2434 0
-5714 2422 0
-5714 2434 0
5715 -2429 -2434 -2452 0
-5715 2429 0
-5715 2434 0
-5715 2452 0
-94 2414 5712 5713 5714 5715 0
94 -2414 0
94 -5712 0
94 -5713 0
94 -5714 0
94 -5715 0
5716 -2429 -2446 0
-5716 2429 0
-5716 2446 0
5717 -2422 -2441 0
-5717 2422 0
-5717 2441 0
5718 -2422 -2446 0
-5718 2422 0
-5718 2446 0
5719 -2429 -2441 -2452 0
-5719 2429 0
-5719 2441 0
-5719 2452 0
-92 2438 5716 5717 5718 5719 0
92 -2438 0
92 -5716 0
92 -5717 0
92 -5718 0
92 -5719 0
5720 -2431 -2446 0
-5720 2431 0
-5720 2446 0
5721 -2425 -2446 0
-5721 2425 0
-5721 2446 0
5722 -2425 -2441 0
-5722 2425 0
-5722 2441 0
5723 -2431 -2441 -2452 0
-5723 2431 0
-5723 2441 0
-5723 2452 0
-95 2436 5720 5721 5722 5723 0
95 -2436 0
95 -5720 0
95 -5721 0
95 -5722 0
95 -5723 0
5724 -2434 -2425 0
-5724 2434 0
-5724 2425 0
5725 -2427 -2431 0
-5725 2427 0
-5725 2431 0
5726 -2427 -2425 0
-5726 2427 0
-5726 2425 0
5727 -2434 -2431 -2452 0
-5727 2434 0
-5727 2431 0
-5727 2452 0
-93 2413 5724 5725 5726 5727 0
93 -2413 0
93 -5724 0
93 -5725 0
93 -5726 0
93 -5727 0
5728 -2434 -2427 0
-5728 2434 0
-5728 2427 0
4974 -2427 -2427 0
-4974 2427 0
-4974 2427 0
5729 -2427 -2434 0
-5729 2427 0
-5729 2434 0
5730 -2434 -2434 -2452 0
-5730 2434 0
-5730 2434 0
-5730 2452 0
-5731 2420 5728 4974 5729 5730 0
5731 -2420 0
5731 -5728 0
5731 -4974 0
5731 -5729 0
5731 -5730 0
5732 -1723 -1720 0
-5732 1723 0
-5732 1720 0
3639 -1720 -1720 0
-3639 1720 0
-3639 1720 0
5733 -1720 -1723 0
-5733 1720 0
-5733 1723 0
5734 -1723 -1723 -1731 0
-5734 1723 0
-5734 1723 0
-5734 1731 0
-5735 1717 5732 3639 5733 5734 0
5735 -1717 0
5735 -5732 0
5735 -3639 0
5735 -5733 0
5735 -5734 0
5736 -1723 -3306 0
-5736 1723 0
-5736 3306 0
5737 -1720 -3306 0
-5737 1720 0
-5737 3306 0
5738 -1720 -2854 0
-5738 1720 0
-5738 2854 0
5739 -1723 -2854 -1731 0
-5739 1723 0
-5739 2854 0
-5739 1731 0
-864 2855 5736 5737 5738 5739 0
864 -2855 0
864 -5736 0
864 -5737 0
864 -5738 0
864 -5739 0
5740 -1723 -1719 0
-5740 1723 0
-5740 1719 0
5741 -1720 -1722 0
-5741 1720 0
-5741 1722 0
5742 -1720 -1719 0
-5742 1720 0
-5742 1719 0
5743 -1723 -1722 -1731 0
-5743 1723 0
-5743 1722 0
-5743 1731 0
-862 1715 5740 5741 5742 5743 0
862 -1715 0
862 -5740 0
862 -5741 0
862 -5742 0
862 -5743 0
5744 -1726 -1719 0
-5744 1726 0
-5744 1719 0
5745 -1728 -1719 0
-5745 1728 0
-5745 1719 0
5746 -1728 -1722 0
-5746 1728 0
-5746 1722 0
5747 -1726 -1722 -1731 0
-5747 1726 0
-5747 1722 0
-5747 1731 0
-865 1725 5744 5745 5746 5747 0
865 -1725 0
865 -5744 0
865 -5745 0
865 -5746 0
865 -5747 0
5748 -2854 -1728 0
-5748 2854 0
-5748 1728 0
5749 -3306 -1726 0
-5749 3306 0
-5749 1726 0
5750 -3306 -1728 0
-5750 3306 0
-5750 1728 0
5751 -2854 -1726 -1731 0
-5751 2854 0
-5751 1726 0
-5751 1731 0
-863 2859 5748 5749 5750 5751 0
863 -2859 0
863 -5748 0
863 -5749 0
863 -5750 0
863 -5751 0
5752 -2854 -3306 0
-5752 2854 0
-5752 3306 0
3323 -3306 -3306 0
-3323 3306 0
-3323 3306 0
5753 -3306 -2854 0
-5753 3306 0
-5753 2854 0
5754 -2854 -2854 -1731 0
-5754 2854 0
-5754 2854 0
-5754 1731 0
-5755 2862 5752 3323 5753 5754 0
5755 -2862 0
5755 -5752 0
5755 -3323 0
5755 -5753 0
5755 -5754 0
5756 -5467 -5757 0
-5756 5467 0
-5756 5757 0
5758 -5757 -5757 0
-5758 5757 0
-5758 5757 0
5759 -5757 -5467 0
-5759 5757 0
-5759 5467 0
5760 -5467 -5467 -5761 0
-5760 5467 0
-5760 5467 0
-5760 5761 0
-5762 5469 5756 5758 5759 5760 0
5762 -5469 0
5762 -5756 0
5762 -5758 0
5762 -5759 0
5762 -5760 0
5763 -5467 -5764 0
-5763 5467 0
-5763 5764 0
5765 -5757 -5764 0
-5765 5757 0
-5765 5764 0
5766 -5757 -5471 0
-5766 5757 0
-5766 5471 0
5767 -5467 -5471 -5761 0
-5767 5467 0
-5767 5471 0
-5767 5761 0
-369 5472 5763 5765 5766 5767 0
369 -5472 0
369 -5763 0
369 -5765 0
369 -5766 0
369 -5767 0
5768 -5467 -5769 0
-5768 5467 0
-5768 5769 0
5770 -5757 -5474 0
-5770 5757 0
-5770 5474 0
5771 -5757 -5769 0
-5771 5757 0
-5771 5769 0
5772 -5467 -5474 -5761 0
-5772 5467 0
-5772 5474 0
-5772 5761 0
-367 5475 5768 5770 5771 5772 0
367 -5475 0
367 -5768 0
367 -5770 0
367 -5771 0
367 -5772 0
5773 -5477 -5769 0
-5773 5477 0
-5773 5769 0
5774 -5775 -5769 0
-5774 5775 0
-5774 5769 0
5776 -5775 -5474 0
-5776 5775 0
-5776 5474 0
5777 -5477 -5474 -5761 0
-5777 5477 0
-5777 5474 0
-5777 5761 0
-370 5478 5773 5774 5776 5777 0
370 -5478 0
370 -5773 0
370 -5774 0
370 -5776 0
370 -5777 0
5778 -5471 -5775 0
-5778 5471 0
-5778 5775 0
5779 -5764 -5477 0
-5779 5764 0
-5779 5477 0
5780 -5764 -5775 0
-5780 5764 0
-5780 5775 0
5781 -5471 -5477 -5761 0
-5781 5471 0
-5781 5477 0
-5781 5761 0
-368 5480 5778 5779 5780 5781 0
368 -5480 0
368 -5778 0
368 -5779 0
368 -5780 0
368 -5781 0
5782 -5471 -5764 0
-5782 5471 0
-5782 5764 0
5783 -5764 -5764 0
-5783 5764 0
-5783 5764 0
5784 -5764 -5471 0
-5784 5764 0
-5784 5471 0
5785 -5471 -5471 -5761 0
-5785 5471 0
-5785 5471 0
-5785 5761 0
-5786 5483 5782 5783 5784 5785 0
5786 -5483 0
5786 -5782 0
5786 -5783 0
5786 -5784 0
5786 -5785 0
5787 -1918 -1918 0
-5787 1918 0
-5787 1918 0
-5788 1925 5787 0
5788 -1925 0
5788 -5787 0
5789 -1918 -1930 0
-5789 1918 0
-5789 1930 0
-159 1932 5789 0
159 -1932 0
159 -5789 0
5790 -1918 -1936 0
-5790 1918 0
-5790 1936 0
-157 1939 5790 0
157 -1939 0
157 -5790 0
5791 -1941 -1936 0
-5791 1941 0
-5791 1936 0
-160 1946 5791 0
160 -1946 0
160 -5791 0
5792 -1930 -1941 0
-5792 1930 0
-5792 1941 0
-158 1951 5792 0
158 -1951 0
158 -5792 0
5793 -1930 -1930 0
-5793 1930 0
-5793 1930 0
-5794 1957 5793 0
5794 -1957 0
5794 -5793 0
5795 -1959 -1959 0
-5795 1959 0
-5795 1959 0
-5796 1966 5795 0
5796 -1966 0
5796 -5795 0
5797 -1959 -1971 0
-5797 1959 0
-5797 1971 0
-879 1973 5797 0
879 -1973 0
879 -5797 0
5798 -1959 -1977 0
-5798 1959 0
-5798 1977 0
-877 1980 5798 0
877 -1980 0
877 -5798 0
5799 -1982 -1977 0
-5799 1982 0
-5799 1977 0
-880 1987 5799 0
880 -1987 0
880 -5799 0
5800 -1971 -1982 0
-5800 1971 0
-5800 1982 0
-878 1992 5800 0
878 -1992 0
878 -5800 0
5801 -1971 -1971 0
-5801 1971 0
-5801 1971 0
-5802 1998 5801 0
5802 -1998 0
5802 -5801 0
5803 -3578 -5138 0
-5803 3578 0
-5803 5138 0
5139 -5138 -5138 0
-5139 5138 0
-5139 5138 0
5804 -5138 -3578 0
-5804 5138 0
-5804 3578 0
5805 -3578 -3578 -3052 0
-5805 3578 0
-5805 3578 0
-5805 3052 0
-5806 3580 5803 5139 5804 5805 0
5806 -3580 0
5806 -5803 0
5806 -5139 0
5806 -5804 0
5806 -5805 0
5807 -3578 -3055 0
-5807 3578 0
-5807 3055 0
5808 -5138 -3055 0
-5808 5138 0
-5808 3055 0
5809 -5138 -3063 0
-5809 5138 0
-5809 3063 0
5810 -3578 -3063 -3052 0
-5810 3578 0
-5810 3063 0
-5810 3052 0
-509 3582 5807 5808 5809 5810 0
509 -3582 0
509 -5807 0
509 -5808 0
509 -5809 0
509 -5810 0
5811 -3578 -3058 0
-5811 3578 0
-5811 3058 0
5812 -5138 -3061 0
-5812 5138 0
-5812 3061 0
5813 -5138 -3058 0
-5813 5138 0
-5813 3058 0
5814 -3578 -3061 -3052 0
-5814 3578 0
-5814 3061 0
-5814 3052 0
-507 3584 5811 5812 5813 5814 0
507 -3584 0
507 -5811 0
507 -5812 0
507 -5813 0
507 -5814 0
5815 -3060 -3058 0
-5815 3060 0
-5815 3058 0
5816 -3050 -3058 0
-5816 3050 0
-5816 3058 0
5817 -3050 -3061 0
-5817 3050 0
-5817 3061 0
5818 -3060 -3061 -3052 0
-5818 3060 0
-5818 3061 0
-5818 3052 0
-510 3057 5815 5816 5817 5818 0
510 -3057 0
510 -5815 0
510 -5816 0
510 -5817 0
510 -5818 0
5819 -3063 -3050 0
-5819 3063 0
-5819 3050 0
5820 -3055 -3060 0
-5820 3055 0
-5820 3060 0
5821 -3055 -3050 0
-5821 3055 0
-5821 3050 0
5822 -3063 -3060 -3052 0
-5822 3063 0
-5822 3060 0
-5822 3052 0
-508 3054 5819 5820 5821 5822 0
508 -3054 0
508 -5819 0
508 -5820 0
508 -5821 0
508 -5822 0
5823 -3063 -3055 0
-5823 3063 0
-5823 3055 0
5824 -3055 -3055 0
-5824 3055 0
-5824 3055 0
5825 -3055 -3063 0
-5825 3055 0
-5825 3063 0
5826 -3063 -3063 -3052 0
-5826 3063 0
-5826 3063 0
-5826 3052 0
-5827 3066 5823 5824 5825 5826 0
5827 -3066 0
5827 -5823 0
5827 -5824 0
5827 -5825 0
5827 -5826 0
5828 -1241 -5829 0
-5828 1241 0
-5828 5829 0
5830 -5829 -5829 0
-5830 5829 0
-5830 5829 0
5831 -5829 -1241 0
-5831 5829 0
-5831 1241 0
5832 -1241 -1241 -5833 0
-5832 1241 0
-5832 1241 0
-5832 5833 0
-5834 1243 5828 5830 5831 5832 0
5834 -1243 0
5834 -5828 0
5834 -5830 0
5834 -5831 0
5834 -5832 0
5835 -1241 -5836 0
-5835 1241 0
-5835 5836 0
5837 -5829 -5836 0
-5837 5829 0
-5837 5836 0
5838 -5829 -1245 0
-5838 5829 0
-5838 1245 0
5839 -1241 -1245 -5833 0
-5839 1241 0
-5839 1245 0
-5839 5833 0
-224 1246 5835 5837 5838 5839 0
224 -1246 0
224 -5835 0
224 -5837 0
224 -5838 0
224 -5839 0
5840 -1241 -5841 0
-5840 1241 0
-5840 5841 0
5842 -5829 -1248 0
-5842 5829 0
-5842 1248 0
5843 -5829 -5841 0
-5843 5829 0
-5843 5841 0
5844 -1241 -1248 -5833 0
-5844 1241 0
-5844 1248 0
-5844 5833 0
-222 1249 5840 5842 5843 5844 0
222 -1249 0
222 -5840 0
222 -5842 0
222 -5843 0
222 -5844 0
5845 -1251 -5841 0
-5845 1251 0
-5845 5841 0
5846 -5847 -5841 0
-5846 5847 0
-5846 5841 0
5848 -5847 -1248 0
-5848 5847 0
-5848 1248 0
5849 -1251 -1248 -5833 0
-5849 1251 0
-5849 1248 0
-5849 5833 0
-225 1252 5845 5846 5848 5849 0
225 -1252 0
225 -5845 0
225 -5846 0
225 -5848 0
225 -5849 0
5850 -1245 -5847 0
-5850 1245 0
-5850 5847 0
5851 -5836 -1251 0
-5851 5836 0
-5851 1251 0
5852 -5836 -5847 0
-5852 5836 0
-5852 5847 0
5853 -1245 -1251 -5833 0
-5853 1245 0
-5853 1251 0
-5853 5833 0
-223 1254 5850 5851 5852 5853 0
223 -1254 0
223 -5850 0
223 -5851 0
223 -5852 0
223 -5853 0
5854 -1245 -5836 0
-5854 1245 0
-5854 5836 0
5855 -5836 -5836 0
-5855 5836 0
-5855 5836 0
5856 -5836 -1245 0
-5856 5836 0
-5856 1245 0
5857 -1245 -1245 -5833 0
-5857 1245 0
-5857 1245 0
-5857 5833 0
-5858 1257 5854 5855 5856 5857 0
5858 -1257 0
5858 -5854 0
5858 -5855 0
5858 -5856 0
5858 -5857 0
5859 -5860 -5861 0
-5859 5860 0
-5859 5861 0
5862 -5861 -5861 0
-5862 5861 0
-5862 5861 0
5863 -5861 -5860 0
-5863 5861 0
-5863 5860 0
5864 -5860 -5860 -5865 0
-5864 5860 0
-5864 5860 0
-5864 5865 0
-5866 5867 5859 5862 5863 5864 0
5866 -5867 0
5866 -5859 0
5866 -5862 0
5866 -5863 0
5866 -5864 0
5868 -5860 -5869 0
-5868 5860 0
-5868 5869 0
5870 -5861 -5869 0
-5870 5861 0
-5870 5869 0
5871 -5861 -5872 0
-5871 5861 0
-5871 5872 0
5873 -5860 -5872 -5865 0
-5873 5860 0
-5873 5872 0
-5873 5865 0
-764 5874 5868 5870 5871 5873 0
764 -5874 0
764 -5868 0
764 -5870 0
764 -5871 0
764 -5873 0
5875 -5860 -5876 0
-5875 5860 0
-5875 5876 0
5877 -5861 -5878 0
-5877 5861 0
-5877 5878 0
5879 -5861 -5876 0
-5879 5861 0
-5879 5876 0
5880 -5860 -5878 -5865 0
-5880 5860 0
-5880 5878 0
-5880 5865 0
-762 5881 5875 5877 5879 5880 0
762 -5881 0
762 -5875 0
762 -5877 0
762 -5879 0
762 -5880 0
5882 -5883 -5876 0
-5882 5883 0
-5882 5876 0
5884 -5885 -5876 0
-5884 5885 0
-5884 5876 0
5886 -5885 -5878 0
-5886 5885 0
-5886 5878 0
5887 -5883 -5878 -5865 0
-5887 5883 0
-5887 5878 0
-5887 5865 0
-765 5888 5882 5884 5886 5887 0
765 -5888 0
765 -5882 0
765 -5884 0
765 -5886 0
765 -5887 0
5889 -5872 -5885 0
-5889 5872 0
-5889 5885 0
5890 -5869 -5883 0
-5890 5869 0
-5890 5883 0
5891 -5869 -5885 0
-5891 5869 0
-5891 5885 0
5892 -5872 -5883 -5865 0
-5892 5872 0
-5892 5883 0
-5892 5865 0
-763 5893 5889 5890 5891 5892 0
763 -5893 0
763 -5889 0
763 -5890 0
763 -5891 0
763 -5892 0
5894 -5872 -5869 0
-5894 5872 0
-5894 5869 0
5895 -5869 -5869 0
-5895 5869 0
-5895 5869 0
5896 -5869 -5872 0
-5896 5869 0
-5896 5872 0
5897 -5872 -5872 -5865 0
-5897 5872 0
-5897 5872 0
-5897 5865 0
-5898 5899 5894 5895 5896 5897 0
5898 -5899 0
5898 -5894 0
5898 -5895 0
5898 -5896 0
5898 -5897 0
5900 -5901 -5902 0
-5900 5901 0
-5900 5902 0
5903 -5902 -5902 0
-5903 5902 0
-5903 5902 0
5904 -5902 -5901 0
-5904 5902 0
-5904 5901 0
5905 -5901 -5901 -5906 0
-5905 5901 0
-5905 5901 0
-5905 5906 0
-5907 5908 5900 5903 5904 5905 0
5907 -5908 0
5907 -5900 0
5907 -5903 0
5907 -5904 0
5907 -5905 0
5909 -5901 -5910 0
-5909 5901 0
-5909 5910 0
5911 -5902 -5910 0
-5911 5902 0
-5911 5910 0
5912 -5902 -5913 0
-5912 5902 0
-5912 5913 0
5914 -5901 -5913 -5906 0
-5914 5901 0
-5914 5913 0
-5914 5906 0
-69 5915 5909 5911 5912 5914 0
69 -5915 0
69 -5909 0
69 -5911 0
69 -5912 0
69 -5914 0
5916 -5901 -5917 0
-5916 5901 0
-5916 5917 0
5918 -5902 -5919 0
-5918 5902 0
-5918 5919 0
5920 -5902 -5917 0
-5920 5902 0
-5920 5917 0
5921 -5901 -5919 -5906 0
-5921 5901 0
-5921 5919 0
-5921 5906 0
-67 5922 5916 5918 5920 5921 0
67 -5922 0
67 -5916 0
67 -5918 0
67 -5920 0
67 -5921 0
5923 -5924 -5917 0
-5923 5924 0
-5923 5917 0
5925 -5926 -5917 0
-5925 5926 0
-5925 5917 0
5927 -5926 -5919 0
-5927 5926 0
-5927 5919 0
5928 -5924 -5919 -5906 0
-5928 5924 0
-5928 5919 0
-5928 5906 0
-70 5929 5923 5925 5927 5928 0
70 -5929 0
70 -5923 0
70 -5925 0
70 -5927 0
70 -5928 0
5930 -5913 -5926 0
-5930 5913 0
-5930 5926 0
5931 -5910 -5924 0
-5931 5910 0
-5931 5924 0
5932 -5910 -5926 0
-5932 5910 0
-5932 5926 0
5933 -5913 -5924 -5906 0
-5933 5913 0
-5933 5924 0
-5933 5906 0
-68 5934 5930 5931 5932 5933 0
68 -5934 0
68 -5930 0
68 -5931 0
68 -5932 0
68 -5933 0
5935 -5913 -5910 0
-5935 5913 0
-5935 5910 0
5936 -5910 -5910 0
-5936 5910 0
-5936 5910 0
5937 -5910 -5913 0
-5937 5910 0
-5937 5913 0
5938 -5913 -5913 -5906 0
-5938 5913 0
-5938 5913 0
-5938 5906 0
-5939 5940 5935 5936 5937 5938 0
5939 -5940 0
5939 -5935 0
5939 -5936 0
5939 -5937 0
5939 -5938 0
5941 -4495 -4495 0
-5941 4495 0
-5941 4495 0
-5942 4502 5941 0
5942 -4502 0
5942 -5941 0
5943 -4495 -4507 0
-5943 4495 0
-5943 4507 0
-1009 4509 5943 0
1009 -4509 0
1009 -5943 0
5944 -4495 -4513 0
-5944 4495 0
-5944 4513 0
-1007 4516 5944 0
1007 -4516 0
1007 -5944 0
5945 -4518 -4513 0
-5945 4518 0
-5945 4513 0
-1010 4523 5945 0
1010 -4523 0
1010 -5945 0
5946 -4507 -4518 0
-5946 4507 0
-5946 4518 0
-1008 4528 5946 0
1008 -4528 0
1008 -5946 0
5947 -4507 -4507 0
-5947 4507 0
-5947 4507 0
-5948 4534 5947 0
5948 -4534 0
5948 -5947 0
5949 -4834 -4816 0
-5949 4834 0
-5949 4816 0
4817 -4816 -4816 0
-4817 4816 0
-4817 4816 0
5950 -4816 -4834 0
-5950 4816 0
-5950 4834 0
5951 -4834 -4834 -4202 0
-5951 4834 0
-5951 4834 0
-5951 4202 0
-5952 4820 5949 4817 5950 5951 0
5952 -4820 0
5952 -5949 0
5952 -4817 0
5952 -5950 0
5952 -5951 0
5953 -4834 -4205 0
-5953 4834 0
-5953 4205 0
5954 -4816 -4205 0
-5954 4816 0
-5954 4205 0
5955 -4816 -4213 0
-5955 4816 0
-5955 4213 0
5956 -4834 -4213 -4202 0
-5956 4834 0
-5956 4213 0
-5956 4202 0
-489 4823 5953 5954 5955 5956 0
489 -4823 0
489 -5953 0
489 -5954 0
489 -5955 0
489 -5956 0
5957 -4834 -4208 0
-5957 4834 0
-5957 4208 0
5958 -4816 -4211 0
-5958 4816 0
-5958 4211 0
5959 -4816 -4208 0
-5959 4816 0
-5959 4208 0
5960 -4834 -4211 -4202 0
-5960 4834 0
-5960 4211 0
-5960 4202 0
-487 4828 5957 5958 5959 5960 0
487 -4828 0
487 -5957 0
487 -5958 0
487 -5959 0
487 -5960 0
5961 -4210 -4208 0
-5961 4210 0
-5961 4208 0
5962 -4200 -4208 0
-5962 4200 0
-5962 4208 0
5963 -4200 -4211 0
-5963 4200 0
-5963 4211 0
5964 -4210 -4211 -4202 0
-5964 4210 0
-5964 4211 0
-5964 4202 0
-490 4207 5961 5962 5963 5964 0
490 -4207 0
490 -5961 0
490 -5962 0
490 -5963 0
490 -5964 0
5965 -4213 -4200 0
-5965 4213 0
-5965 4200 0
5966 -4205 -4210 0
-5966 4205 0
-5966 4210 0
5967 -4205 -4200 0
-5967 4205 0
-5967 4200 0
5968 -4213 -4210 -4202 0
-5968 4213 0
-5968 4210 0
-5968 4202 0
-488 4204 5965 5966 5967 5968 0
488 -4204 0
488 -5965 0
488 -5966 0
488 -5967 0
488 -5968 0
5969 -4213 -4205 0
-5969 4213 0
-5969 4205 0
5970 -4205 -4205 0
-5970 4205 0
-5970 4205 0
5971 -4205 -4213 0
-5971 4205 0
-5971 4213 0
5972 -4213 -4213 -4202 0
-5972 4213 0
-5972 4213 0
-5972 4202 0
-5973 4216 5969 5970 5971 5972 0
5973 -4216 0
5973 -5969 0
5973 -5970 0
5973 -5971 0
5973 -5972 0
5974 -3209 -3209 0
-5974 3209 0
-5974 3209 0
-5975 3195 5974 0
5975 -3195 0
5975 -5974 0
5976 -3209 -3204 0
-5976 3209 0
-5976 3204 0
-99 3189 5976 0
99 -3189 0
99 -5976 0
5977 -3209 -3206 0
-5977 3209 0
-5977 3206 0
-97 3188 5977 0
97 -3188 0
97 -5977 0
5978 -3216 -3206 0
-5978 3216 0
-5978 3206 0
-100 3211 5978 0
100 -3211 0
100 -5978 0
5979 -3204 -3216 0
-5979 3204 0
-5979 3216 0
-98 3213 5979 0
98 -3213 0
98 -5979 0
5980 -3204 -3204 0
-5980 3204 0
-5980 3204 0
-5981 3193 5980 0
5981 -3193 0
5981 -5980 0
5982 -1585 -1585 0
-5982 1585 0
-5982 1585 0
-5983 1592 5982 0
5983 -1592 0
5983 -5982 0
5984 -1585 -1597 0
-5984 1585 0
-5984 1597 0
-1039 1599 5984 0
1039 -1599 0
1039 -5984 0
5985 -1585 -1603 0
-5985 1585 0
-5985 1603 0
-1037 1606 5985 0
1037 -1606 0
1037 -5985 0
5986 -1608 -1603 0
-5986 1608 0
-5986 1603 0
-1040 1613 5986 0
1040 -1613 0
1040 -5986 0
5987 -1597 -1608 0
-5987 1597 0
-5987 1608 0
-1038 1618 5987 0
1038 -1618 0
1038 -5987 0
5988 -1597 -1597 0
-5988 1597 0
-5988 1597 0
-5989 1624 5988 0
5989 -1624 0
5989 -5988 0
5990 -3229 -3229 0
-5990 3229 0
-5990 3229 0
-5991 3236 5990 0
5991 -3236 0
5991 -5990 0
5992 -3229 -3241 0
-5992 3229 0
-5992 3241 0
-1089 3243 5992 0
1089 -3243 0
1089 -5992 0
5993 -3229 -3247 0
-5993 3229 0
-5993 3247 0
-1087 3250 5993 0
1087 -3250 0
1087 -5993 0
5994 -3252 -3247 0
-5994 3252 0
-5994 3247 0
-1090 3257 5994 0
1090 -3257 0
1090 -5994 0
5995 -3241 -3252 0
-5995 3241 0
-5995 3252 0
-1088 3262 5995 0
1088 -3262 0
1088 -5995 0
5996 -3241 -3241 0
-5996 3241 0
-5996 3241 0
-5997 3268 5996 0
5997 -3268 0
5997 -5996 0
5998 -3816 -3798 0
-5998 3816 0
-5998 3798 0
3799 -3798 -3798 0
-3799 3798 0
-3799 3798 0
5999 -3798 -3816 0
-5999 3798 0
-5999 3816 0
6000 -3816 -3816 -2866 0
-6000 3816 0
-6000 3816 0
-6000 2866 0
-6001 3802 5998 3799 5999 6000 0
6001 -3802 0
6001 -5998 0
6001 -3799 0
6001 -5999 0
6001 -6000 0
6002 -3816 -2869 0
-6002 3816 0
-6002 2869 0
6003 -3798 -2869 0
-6003 3798 0
-6003 2869 0
6004 -3798 -2877 0
-6004 3798 0
-6004 2877 0
6005 -3816 -2877 -2866 0
-6005 3816 0
-6005 2877 0
-6005 2866 0
-174 3805 6002 6003 6004 6005 0
174 -3805 0
174 -6002 0
174 -6003 0
174 -6004 0
174 -6005 0
6006 -3816 -2872 0
-6006 3816 0
-6006 2872 0
6007 -3798 -2875 0
-6007 3798 0
-6007 2875 0
6008 -3798 -2872 0
-6008 3798 0
-6008 2872 0
6009 -3816 -2875 -2866 0
-6009 3816 0
-6009 2875 0
-6009 2866 0
-172 3810 6006 6007 6008 6009 0
172 -3810 0
172 -6006 0
172 -6007 0
172 -6008 0
172 -6009 0
6010 -2874 -2872 0
-6010 2874 0
-6010 2872 0
6011 -2864 -2872 0
-6011 2864 0
-6011 2872 0
6012 -2864 -2875 0
-6012 2864 0
-6012 2875 0
6013 -2874 -2875 -2866 0
-6013 2874 0
-6013 2875 0
-6013 2866 0
-175 2871 6010 6011 6012 6013 0
175 -2871 0
175 -6010 0
175 -6011 0
175 -6012 0
175 -6013 0
6014 -2877 -2864 0
-6014 2877 0
-6014 2864 0
6015 -2869 -2874 0
-6015 2869 0
-6015 2874 0
6016 -2869 -2864 0
-6016 2869 0
-6016 2864 0
6017 -2877 -2874 -2866 0
-6017 2877 0
-6017 2874 0
-6017 2866 0
-173 2868 6014 6015 6016 6017 0
173 -2868 0
173 -6014 0
173 -6015 0
173 -6016 0
173 -6017 0
6018 -2877 -2869 0
-6018 2877 0
-6018 2869 0
6019 -2869 -2869 0
-6019 2869 0
-6019 2869 0
6020 -2869 -2877 0
-6020 2869 0
-6020 2877 0
6021 -2877 -2877 -2866 0
-6021 2877 0
-6021 2877 0
-6021 2866 0
-6022 2880 6018 6019 6020 6021 0
6022 -2880 0
6022 -6018 0
6022 -6019 0
6022 -6020 0
6022 -6021 0
6023 -2556 -2551 0
-6023 2556 0
-6023 2551 0
2570 -2551 -2551 0
-2570 2551 0
-2570 2551 0
6024 -2551 -2556 0
-6024 2551 0
-6024 2556 0
6025 -2556 -2556 -1872 0
-6025 2556 0
-6025 2556 0
-6025 1872 0
-6026 2548 6023 2570 6024 6025 0
6026 -2548 0
6026 -6023 0
6026 -2570 0
6026 -6024 0
6026 -6025 0
6027 -2556 -1861 0
-6027 2556 0
-6027 1861 0
6028 -2551 -1861 0
-6028 2551 0
-6028 1861 0
6029 -2551 -1864 0
-6029 2551 0
-6029 1864 0
6030 -2556 -1864 -1872 0
-6030 2556 0
-6030 1864 0
-6030 1872 0
-89 2544 6027 6028 6029 6030 0
89 -2544 0
89 -6027 0
89 -6028 0
89 -6029 0
89 -6030 0
6031 -2556 -1869 0
-6031 2556 0
-6031 1869 0
6032 -2551 -1867 0
-6032 2551 0
-6032 1867 0
6033 -2551 -1869 0
-6033 2551 0
-6033 1869 0
6034 -2556 -1867 -1872 0
-6034 2556 0
-6034 1867 0
-6034 1872 0
-87 2562 6031 6032 6033 6034 0
87 -2562 0
87 -6031 0
87 -6032 0
87 -6033 0
87 -6034 0
6035 -1863 -1869 0
-6035 1863 0
-6035 1869 0
6036 -1860 -1869 0
-6036 1860 0
-6036 1869 0
6037 -1860 -1867 0
-6037 1860 0
-6037 1867 0
6038 -1863 -1867 -1872 0
-6038 1863 0
-6038 1867 0
-6038 1872 0
-90 1866 6035 6036 6037 6038 0
90 -1866 0
90 -6035 0
90 -6036 0
90 -6037 0
90 -6038 0
6039 -1864 -1860 0
-6039 1864 0
-6039 1860 0
6040 -1861 -1863 0
-6040 1861 0
-6040 1863 0
6041 -1861 -1860 0
-6041 1861 0
-6041 1860 0
6042 -1864 -1863 -1872 0
-6042 1864 0
-6042 1863 0
-6042 1872 0
-88 1856 6039 6040 6041 6042 0
88 -1856 0
88 -6039 0
88 -6040 0
88 -6041 0
88 -6042 0
6043 -1864 -1861 0
-6043 1864 0
-6043 1861 0
5544 -1861 -1861 0
-5544 1861 0
-5544 1861 0
6044 -1861 -1864 0
-6044 1861 0
-6044 1864 0
6045 -1864 -1864 -1872 0
-6045 1864 0
-6045 1864 0
-6045 1872 0
-6046 1858 6043 5544 6044 6045 0
6046 -1858 0
6046 -6043 0
6046 -5544 0
6046 -6044 0
6046 -6045 0
6047 -5363 -6048 0
-6047 5363 0
-6047 6048 0
6049 -6048 -6048 0
-6049 6048 0
-6049 6048 0
6050 -6048 -5363 0
-6050 6048 0
-6050 5363 0
6051 -5363 -5363 -6052 0
-6051 5363 0
-6051 5363 0
-6051 6052 0
-6053 5365 6047 6049 6050 6051 0
6053 -5365 0
6053 -6047 0
6053 -6049 0
6053 -6050 0
6053 -6051 0
6054 -5363 -6055 0
-6054 5363 0
-6054 6055 0
6056 -6048 -6055 0
-6056 6048 0
-6056 6055 0
6057 -6048 -5367 0
-6057 6048 0
-6057 5367 0
6058 -5363 -5367 -6052 0
-6058 5363 0
-6058 5367 0
-6058 6052 0
-1064 5368 6054 6056 6057 6058 0
1064 -5368 0
1064 -6054 0
1064 -6056 0
1064 -6057 0
1064 -6058 0
6059 -5363 -6060 0
-6059 5363 0
-6059 6060 0
6061 -6048 -5370 0
-6061 6048 0
-6061 5370 0
6062 -6048 -6060 0
-6062 6048 0
-6062 6060 0
6063 -5363 -5370 -6052 0
-6063 5363 0
-6063 5370 0
-6063 6052 0
-1062 5371 6059 6061 6062 6063 0
1062 -5371 0
1062 -6059 0
1062 -6061 0
1062 -6062 0
1062 -6063 0
6064 -5373 -6060 0
-6064 5373 0
-6064 6060 0
6065 -6066 -6060 0
-6065 6066 0
-6065 6060 0
6067 -6066 -5370 0
-6067 6066 0
-6067 5370 0
6068 -5373 -5370 -6052 0
-6068 5373 0
-6068 5370 0
-6068 6052 0
-1065 5374 6064 6065 6067 6068 0
1065 -5374 0
1065 -6064 0
1065 -6065 0
1065 -6067 0
1065 -6068 0
6069 -5367 -6066 0
-6069 5367 0
-6069 6066 0
6070 -6055 -5373 0
-6070 6055 0
-6070 5373 0
6071 -6055 -6066 0
-6071 6055 0
-6071 6066 0
6072 -5367 -5373 -6052 0
-6072 5367 0
-6072 5373 0
-6072 6052 0
-1063 5376 6069 6070 6071 6072 0
1063 -5376 0
1063 -6069 0
1063 -6070 0
1063 -6071 0
1063 -6072 0
6073 -5367 -6055 0
-6073 5367 0
-6073 6055 0
6074 -6055 -6055 0
-6074 6055 0
-6074 6055 0
6075 -6055 -5367 0
-6075 6055 0
-6075 5367 0
6076 -5367 -5367 -6052 0
-6076 5367 0
-6076 5367 0
-6076 6052 0
-6077 5379 6073 6074 6075 6076 0
6077 -5379 0
6077 -6073 0
6077 -6074 0
6077 -6075 0
6077 -6076 0
6078 -1320 -1296 0
-6078 1320 0
-6078 1296 0
1297 -1296 -1296 0
-1297 1296 0
-1297 1296 0
6079 -1296 -1320 0
-6079 1296 0
-6079 1320 0
6080 -1320 -1320 -1302 0
-6080 1320 0
-6080 1320 0
-6080 1302 0
-6081 1300 6078 1297 6079 6080 0
6081 -1300 0
6081 -6078 0
6081 -1297 0
6081 -6079 0
6081 -6080 0
6082 -1320 -1309 0
-6082 1320 0
-6082 1309 0
6083 -1296 -1309 0
-6083 1296 0
-6083 1309 0
6084 -1296 -1328 0
-6084 1296 0
-6084 1328 0
6085 -1320 -1328 -1302 0
-6085 1320 0
-6085 1328 0
-6085 1302 0
-599 1304 6082 6083 6084 6085 0
599 -1304 0
599 -6082 0
599 -6083 0
599 -6084 0
599 -6085 0
6086 -1320 -1316 0
-6086 1320 0
-6086 1316 0
6087 -1296 -1323 0
-6087 1296 0
-6087 1323 0
6088 -1296 -1316 0
-6088 1296 0
-6088 1316 0
6089 -1320 -1323 -1302 0
-6089 1320 0
-6089 1323 0
-6089 1302 0
-597 1311 6086 6087 6088 6089 0
597 -1311 0
597 -6086 0
597 -6087 0
597 -6088 0
597 -6089 0
6090 -1318 -1316 0
-6090 1318 0
-6090 1316 0
6091 -1295 -1316 0
-6091 1295 0
-6091 1316 0
6092 -1295 -1323 0
-6092 1295 0
-6092 1323 0
6093 -1318 -1323 -1302 0
-6093 1318 0
-6093 1323 0
-6093 1302 0
-600 1313 6090 6091 6092 6093 0
600 -1313 0
600 -6090 0
600 -6091 0
600 -6092 0
600 -6093 0
6094 -1328 -1295 0
-6094 1328 0
-6094 1295 0
6095 -1309 -1318 0
-6095 1309 0
-6095 1318 0
6096 -1309 -1295 0
-6096 1309 0
-6096 1295 0
6097 -1328 -1318 -1302 0
-6097 1328 0
-6097 1318 0
-6097 1302 0
-598 1307 6094 6095 6096 6097 0
598 -1307 0
598 -6094 0
598 -6095 0
598 -6096 0
598 -6097 0
6098 -1328 -1309 0
-6098 1328 0
-6098 1309 0
6099 -1309 -1309 0
-6099 1309 0
-6099 1309 0
6100 -1309 -1328 0
-6100 1309 0
-6100 1328 0
6101 -1328 -1328 -1302 0
-6101 1328 0
-6101 1328 0
-6101 1302 0
-6102 1334 6098 6099 6100 6101 0
6102 -1334 0
6102 -6098 0
6102 -6099 0
6102 -6100 0
6102 -6101 0
6103 -4151 -6104 0
-6103 4151 0
-6103 6104 0
6105 -6104 -6104 0
-6105 6104 0
-6105 6104 0
6106 -6104 -4151 0
-6106 6104 0
-6106 4151 0
6107 -4151 -4151 -6108 0
-6107 4151 0
-6107 4151 0
-6107 6108 0
-6109 4153 6103 6105 6106 6107 0
6109 -4153 0
6109 -6103 0
6109 -6105 0
6109 -6106 0
6109 -6107 0
6110 -4151 -6111 0
-6110 4151 0
-6110 6111 0
6112 -6104 -6111 0
-6112 6104 0
-6112 6111 0
6113 -6104 -4155 0
-6113 6104 0
-6113 4155 0
6114 -4151 -4155 -6108 0
-6114 4151 0
-6114 4155 0
-6114 6108 0
-734 4156 6110 6112 6113 6114 0
734 -4156 0
734 -6110 0
734 -6112 0
734 -6113 0
734 -6114 0
6115 -4151 -6116 0
-6115 4151 0
-6115 6116 0
6117 -6104 -4158 0
-6117 6104 0
-6117 4158 0
6118 -6104 -6116 0
-6118 6104 0
-6118 6116 0
6119 -4151 -4158 -6108 0
-6119 4151 0
-6119 4158 0
-6119 6108 0
-732 4159 6115 6117 6118 6119 0
732 -4159 0
732 -6115 0
732 -6117 0
732 -6118 0
732 -6119 0
6120 -4161 -6116 0
-6120 4161 0
-6120 6116 0
6121 -6122 -6116 0
-6121 6122 0
-6121 6116 0
6123 -6122 -4158 0
-6123 6122 0
-6123 4158 0
6124 -4161 -4158 -6108 0
-6124 4161 0
-6124 4158 0
-6124 6108 0
-735 4162 6120 6121 6123 6124 0
735 -4162 0
735 -6120 0
735 -6121 0
735 -6123 0
735 -6124 0
6125 -4155 -6122 0
-6125 4155 0
-6125 6122 0
6126 -6111 -4161 0
-6126 6111 0
-6126 4161 0
6127 -6111 -6122 0
-6127 6111 0
-6127 6122 0
6128 -4155 -4161 -6108 0
-6128 4155 0
-6128 4161 0
-6128 6108 0
-733 4164 6125 6126 6127 6128 0
733 -4164 0
733 -6125 0
733 -6126 0
733 -6127 0
733 -6128 0
6129 -4155 -6111 0
-6129 4155 0
-6129 6111 0
6130 -6111 -6111 0
-6130 6111 0
-6130 6111 0
6131 -6111 -4155 0
-6131 6111 0
-6131 4155 0
6132 -4155 -4155 -6108 0
-6132 4155 0
-6132 4155 0
-6132 6108 0
-6133 4167 6129 6130 6131 6132 0
6133 -4167 0
6133 -6129 0
6133 -6130 0
6133 -6131 0
6133 -6132 0
6134 -1943 -1919 0
-6134 1943 0
-6134 1919 0
1920 -1919 -1919 0
-1920 1919 0
-1920 1919 0
6135 -1919 -1943 0
-6135 1919 0
-6135 1943 0
6136 -1943 -1943 -1925 0
-6136 1943 0
-6136 1943 0
-6136 1925 0
-6137 1923 6134 1920 6135 6136 0
6137 -1923 0
6137 -6134 0
6137 -1920 0
6137 -6135 0
6137 -6136 0
6138 -1943 -1932 0
-6138 1943 0
-6138 1932 0
6139 -1919 -1932 0
-6139 1919 0
-6139 1932 0
6140 -1919 -1951 0
-6140 1919 0
-6140 1951 0
6141 -1943 -1951 -1925 0
-6141 1943 0
-6141 1951 0
-6141 1925 0
-44 1927 6138 6139 6140 6141 0
44 -1927 0
44 -6138 0
44 -6139 0
44 -6140 0
44 -6141 0
6142 -1943 -1939 0
-6142 1943 0
-6142 1939 0
6143 -1919 -1946 0
-6143 1919 0
-6143 1946 0
6144 -1919 -1939 0
-6144 1919 0
-6144 1939 0
6145 -1943 -1946 -1925 0
-6145 1943 0
-6145 1946 0
-6145 1925 0
-42 1934 6142 6143 6144 6145 0
42 -1934 0
42 -6142 0
42 -6143 0
42 -6144 0
42 -6145 0
6146 -1941 -1939 0
-6146 1941 0
-6146 1939 0
6147 -1918 -1939 0
-6147 1918 0
-6147 1939 0
6148 -1918 -1946 0
-6148 1918 0
-6148 1946 0
6149 -1941 -1946 -1925 0
-6149 1941 0
-6149 1946 0
-6149 1925 0
-45 1936 6146 6147 6148 6149 0
45 -1936 0
45 -6146 0
45 -6147 0
45 -6148 0
45 -6149 0
6150 -1951 -1918 0
-6150 1951 0
-6150 1918 0
6151 -1932 -1941 0
-6151 1932 0
-6151 1941 0
6152 -1932 -1918 0
-6152 1932 0
-6152 1918 0
6153 -1951 -1941 -1925 0
-6153 1951 0
-6153 1941 0
-6153 1925 0
-43 1930 6150 6151 6152 6153 0
43 -1930 0
43 -6150 0
43 -6151 0
43 -6152 0
43 -6153 0
6154 -1951 -1932 0
-6154 1951 0
-6154 1932 0
6155 -1932 -1932 0
-6155 1932 0
-6155 1932 0
6156 -1932 -1951 0
-6156 1932 0
-6156 1951 0
6157 -1951 -1951 -1925 0
-6157 1951 0
-6157 1951 0
-6157 1925 0
-6158 1957 6154 6155 6156 6157 0
6158 -1957 0
6158 -6154 0
6158 -6155 0
6158 -6156 0
6158 -6157 0
6159 -5901 -5901 0
-6159 5901 0
-6159 5901 0
-6160 5908 6159 0
6160 -5908 0
6160 -6159 0
6161 -5901 -5913 0
-6161 5901 0
-6161 5913 0
-339 5915 6161 0
339 -5915 0
339 -6161 0
6162 -5901 -5919 0
-6162 5901 0
-6162 5919 0
-337 5922 6162 0
337 -5922 0
337 -6162 0
6163 -5924 -5919 0
-6163 5924 0
-6163 5919 0
-340 5929 6163 0
340 -5929 0
340 -6163 0
6164 -5913 -5924 0
-6164 5913 0
-6164 5924 0
-338 5934 6164 0
338 -5934 0
338 -6164 0
6165 -5913 -5913 0
-6165 5913 0
-6165 5913 0
-6166 5940 6165 0
6166 -5940 0
6166 -6165 0
6167 -2818 -2794 0
-6167 2818 0
-6167 2794 0
2795 -2794 -2794 0
-2795 2794 0
-2795 2794 0
6168 -2794 -2818 0
-6168 2794 0
-6168 2818 0
6169 -2818 -2818 -2800 0
-6169 2818 0
-6169 2818 0
-6169 2800 0
-6170 2798 6167 2795 6168 6169 0
6170 -2798 0
6170 -6167 0
6170 -2795 0
6170 -6168 0
6170 -6169 0
6171 -2818 -2807 0
-6171 2818 0
-6171 2807 0
6172 -2794 -2807 0
-6172 2794 0
-6172 2807 0
6173 -2794 -2826 0
-6173 2794 0
-6173 2826 0
6174 -2818 -2826 -2800 0
-6174 2818 0
-6174 2826 0
-6174 2800 0
-209 2802 6171 6172 6173 6174 0
209 -2802 0
209 -6171 0
209 -6172 0
209 -6173 0
209 -6174 0
6175 -2818 -2814 0
-6175 2818 0
-6175 2814 0
6176 -2794 -2821 0
-6176 2794 0
-6176 2821 0
6177 -2794 -2814 0
-6177 2794 0
-6177 2814 0
6178 -2818 -2821 -2800 0
-6178 2818 0
-6178 2821 0
-6178 2800 0
-207 2809 6175 6176 6177 6178 0
207 -2809 0
207 -6175 0
207 -6176 0
207 -6177 0
207 -6178 0
6179 -2816 -2814 0
-6179 2816 0
-6179 2814 0
6180 -2793 -2814 0
-6180 2793 0
-6180 2814 0
6181 -2793 -2821 0
-6181 2793 0
-6181 2821 0
6182 -2816 -2821 -2800 0
-6182 2816 0
-6182 2821 0
-6182 2800 0
-210 2811 6179 6180 6181 6182 0
210 -2811 0
210 -6179 0
210 -6180 0
210 -6181 0
210 -6182 0
6183 -2826 -2793 0
-6183 2826 0
-6183 2793 0
6184 -2807 -2816 0
-6184 2807 0
-6184 2816 0
6185 -2807 -2793 0
-6185 2807 0
-6185 2793 0
6186 -2826 -2816 -2800 0
-6186 2826 0
-6186 2816 0
-6186 2800 0
-208 2805 6183 6184 6185 6186 0
208 -2805 0
208 -6183 0
208 -6184 0
208 -6185 0
208 -6186 0
6187 -2826 -2807 0
-6187 2826 0
-6187 2807 0
6188 -2807 -2807 0
-6188 2807 0
-6188 2807 0
6189 -2807 -2826 0
-6189 2807 0
-6189 2826 0
6190 -2826 -2826 -2800 0
-6190 2826 0
-6190 2826 0
-6190 2800 0
-6191 2832 6187 6188 6189 6190 0
6191 -2832 0
6191 -6187 0
6191 -6188 0
6191 -6189 0
6191 -6190 0
6192 -2657 -2657 0
-6192 2657 0
-6192 2657 0
-6193 2664 6192 0
6193 -2664 0
6193 -6192 0
6194 -2657 -2669 0
-6194 2657 0
-6194 2669 0
-799 2671 6194 0
799 -2671 0
799 -6194 0
6195 -2657 -2675 0
-6195 2657 0
-6195 2675 0
-797 2678 6195 0
797 -2678 0
797 -6195 0
6196 -2680 -2675 0
-6196 2680 0
-6196 2675 0
-800 2685 6196 0
800 -2685 0
800 -6196 0
6197 -2669 -2680 0
-6197 2669 0
-6197 2680 0
-798 2690 6197 0
798 -2690 0
798 -6197 0
6198 -2669 -2669 0
-6198 2669 0
-6198 2669 0
-6199 2696 6198 0
6199 -2696 0
6199 -6198 0
6200 -5847 -5829 0
-6200 5847 0
-6200 5829 0
5830 -5829 -5829 0
-5830 5829 0
-5830 5829 0
6201 -5829 -5847 0
-6201 5829 0
-6201 5847 0
6202 -5847 -5847 -1243 0
-6202 5847 0
-6202 5847 0
-6202 1243 0
-6203 5833 6200 5830 6201 6202 0
6203 -5833 0
6203 -6200 0
6203 -5830 0
6203 -6201 0
6203 -6202 0
6204 -5847 -1246 0
-6204 5847 0
-6204 1246 0
6205 -5829 -1246 0
-6205 5829 0
-6205 1246 0
6206 -5829 -1254 0
-6206 5829 0
-6206 1254 0
6207 -5847 -1254 -1243 0
-6207 5847 0
-6207 1254 0
-6207 1243 0
-144 5836 6204 6205 6206 6207 0
144 -5836 0
144 -6204 0
144 -6205 0
144 -6206 0
144 -6207 0
6208 -5847 -1249 0
-6208 5847 0
-6208 1249 0
6209 -5829 -1252 0
-6209 5829 0
-6209 1252 0
6210 -5829 -1249 0
-6210 5829 0
-6210 1249 0
6211 -5847 -1252 -1243 0
-6211 5847 0
-6211 1252 0
-6211 1243 0
-142 5841 6208 6209 6210 6211 0
142 -5841 0
142 -6208 0
142 -6209 0
142 -6210 0
142 -6211 0
6212 -1251 -1249 0
-6212 1251 0
-6212 1249 0
6213 -1241 -1249 0
-6213 1241 0
-6213 1249 0
6214 -1241 -1252 0
-6214 1241 0
-6214 1252 0
6215 -1251 -1252 -1243 0
-6215 1251 0
-6215 1252 0
-6215 1243 0
-145 1248 6212 6213 6214 6215 0
145 -1248 0
145 -6212 0
145 -6213 0
145 -6214 0
145 -6215 0
6216 -1254 -1241 0
-6216 1254 0
-6216 1241 0
6217 -1246 -1251 0
-6217 1246 0
-6217 1251 0
6218 -1246 -1241 0
-6218 1246 0
-6218 1241 0
6219 -1254 -1251 -1243 0
-6219 1254 0
-6219 1251 0
-6219 1243 0
-143 1245 6216 6217 6218 6219 0
143 -1245 0
143 -6216 0
143 -6217 0
143 -6218 0
143 -6219 0
6220 -1254 -1246 0
-6220 1254 0
-6220 1246 0
6221 -1246 -1246 0
-6221 1246 0
-6221 1246 0
6222 -1246 -1254 0
-6222 1246 0
-6222 1254 0
6223 -1254 -1254 -1243 0
-6223 1254 0
-6223 1254 0
-6223 1243 0
-6224 1257 6220 6221 6222 6223 0
6224 -1257 0
6224 -6220 0
6224 -6221 0
6224 -6222 0
6224 -6223 0
6225 -5847 -5847 0
-6225 5847 0
-6225 5847 0
-6226 5833 6225 0
6226 -5833 0
6226 -6225 0
6227 -5847 -1254 0
-6227 5847 0
-6227 1254 0
-469 5836 6227 0
469 -5836 0
469 -6227 0
6228 -5847 -1252 0
-6228 5847 0
-6228 1252 0
-467 5841 6228 0
467 -5841 0
467 -6228 0
6229 -1251 -1252 0
-6229 1251 0
-6229 1252 0
-470 1248 6229 0
470 -1248 0
470 -6229 0
6230 -1254 -1251 0
-6230 1254 0
-6230 1251 0
-468 1245 6230 0
468 -1245 0
468 -6230 0
6231 -1254 -1254 0
-6231 1254 0
-6231 1254 0
-6232 1257 6231 0
6232 -1257 0
6232 -6231 0
6233 -1874 -2486 0
-6233 1874 0
-6233 2486 0
2487 -2486 -2486 0
-2487 2486 0
-2487 2486 0
6234 -2486 -1874 0
-6234 2486 0
-6234 1874 0
6235 -1874 -1874 -2491 0
-6235 1874 0
-6235 1874 0
-6235 2491 0
-6236 1876 6233 2487 6234 6235 0
6236 -1876 0
6236 -6233 0
6236 -2487 0
6236 -6234 0
6236 -6235 0
6237 -1874 -2496 0
-6237 1874 0
-6237 2496 0
6238 -2486 -2496 0
-6238 2486 0
-6238 2496 0
6239 -2486 -1878 0
-6239 2486 0
-6239 1878 0
6240 -1874 -1878 -2491 0
-6240 1874 0
-6240 1878 0
-6240 2491 0
-34 1879 6237 6238 6239 6240 0
34 -1879 0
34 -6237 0
34 -6238 0
34 -6239 0
34 -6240 0
6241 -1874 -2501 0
-6241 1874 0
-6241 2501 0
6242 -2486 -1881 0
-6242 2486 0
-6242 1881 0
6243 -2486 -2501 0
-6243 2486 0
-6243 2501 0
6244 -1874 -1881 -2491 0
-6244 1874 0
-6244 1881 0
-6244 2491 0
-32 1882 6241 6242 6243 6244 0
32 -1882 0
32 -6241 0
32 -6242 0
32 -6243 0
32 -6244 0
6245 -1884 -2501 0
-6245 1884 0
-6245 2501 0
6246 -2485 -2501 0
-6246 2485 0
-6246 2501 0
6247 -2485 -1881 0
-6247 2485 0
-6247 1881 0
6248 -1884 -1881 -2491 0
-6248 1884 0
-6248 1881 0
-6248 2491 0
-35 1885 6245 6246 6247 6248 0
35 -1885 0
35 -6245 0
35 -6246 0
35 -6247 0
35 -6248 0
6249 -1878 -2485 0
-6249 1878 0
-6249 2485 0
6250 -2496 -1884 0
-6250 2496 0
-6250 1884 0
6251 -2496 -2485 0
-6251 2496 0
-6251 2485 0
6252 -1878 -1884 -2491 0
-6252 1878 0
-6252 1884 0
-6252 2491 0
-33 1887 6249 6250 6251 6252 0
33 -1887 0
33 -6249 0
33 -6250 0
33 -6251 0
33 -6252 0
6253 -1878 -2496 0
-6253 1878 0
-6253 2496 0
6254 -2496 -2496 0
-6254 2496 0
-6254 2496 0
6255 -2496 -1878 0
-6255 2496 0
-6255 1878 0
6256 -1878 -1878 -2491 0
-6256 1878 0
-6256 1878 0
-6256 2491 0
-6257 1890 6253 6254 6255 6256 0
6257 -1890 0
6257 -6253 0
6257 -6254 0
6257 -6255 0
6257 -6256 0
6258 -1815 -1815 0
-6258 1815 0
-6258 1815 0
-6259 1822 6258 0
6259 -1822 0
6259 -6258 0
6260 -1815 -1827 0
-6260 1815 0
-6260 1827 0
-954 1829 6260 0
954 -1829 0
954 -6260 0
6261 -1815 -1833 0
-6261 1815 0
-6261 1833 0
-952 1836 6261 0
952 -1836 0
952 -6261 0
6262 -1838 -1833 0
-6262 1838 0
-6262 1833 0
-955 1843 6262 0
955 -1843 0
955 -6262 0
6263 -1827 -1838 0
-6263 1827 0
-6263 1838 0
-953 1848 6263 0
953 -1848 0
953 -6263 0
6264 -1827 -1827 0
-6264 1827 0
-6264 1827 0
-6265 1854 6264 0
6265 -1854 0
6265 -6264 0
6266 -4008 -4004 0
-6266 4008 0
-6266 4004 0
4783 -4004 -4004 0
-4783 4004 0
-4783 4004 0
6267 -4004 -4008 0
-6267 4004 0
-6267 4008 0
6268 -4008 -4008 -2136 0
-6268 4008 0
-6268 4008 0
-6268 2136 0
-6269 4011 6266 4783 6267 6268 0
6269 -4011 0
6269 -6266 0
6269 -4783 0
6269 -6267 0
6269 -6268 0
6270 -4008 -2139 0
-6270 4008 0
-6270 2139 0
6271 -4004 -2139 0
-6271 4004 0
-6271 2139 0
6272 -4004 -2147 0
-6272 4004 0
-6272 2147 0
6273 -4008 -2147 -2136 0
-6273 4008 0
-6273 2147 0
-6273 2136 0
-549 4392 6270 6271 6272 6273 0
549 -4392 0
549 -6270 0
549 -6271 0
549 -6272 0
549 -6273 0
6274 -4008 -2142 0
-6274 4008 0
-6274 2142 0
6275 -4004 -2145 0
-6275 4004 0
-6275 2145 0
6276 -4004 -2142 0
-6276 4004 0
-6276 2142 0
6277 -4008 -2145 -2136 0
-6277 4008 0
-6277 2145 0
-6277 2136 0
-547 4003 6274 6275 6276 6277 0
547 -4003 0
547 -6274 0
547 -6275 0
547 -6276 0
547 -6277 0
6278 -2144 -2142 0
-6278 2144 0
-6278 2142 0
6279 -2134 -2142 0
-6279 2134 0
-6279 2142 0
6280 -2134 -2145 0
-6280 2134 0
-6280 2145 0
6281 -2144 -2145 -2136 0
-6281 2144 0
-6281 2145 0
-6281 2136 0
-550 2141 6278 6279 6280 6281 0
550 -2141 0
550 -6278 0
550 -6279 0
550 -6280 0
550 -6281 0
6282 -2147 -2134 0
-6282 2147 0
-6282 2134 0
6283 -2139 -2144 0
-6283 2139 0
-6283 2144 0
6284 -2139 -2134 0
-6284 2139 0
-6284 2134 0
6285 -2147 -2144 -2136 0
-6285 2147 0
-6285 2144 0
-6285 2136 0
-548 2138 6282 6283 6284 6285 0
548 -2138 0
548 -6282 0
548 -6283 0
548 -6284 0
548 -6285 0
6286 -2147 -2139 0
-6286 2147 0
-6286 2139 0
4387 -2139 -2139 0
-4387 2139 0
-4387 2139 0
6287 -2139 -2147 0
-6287 2139 0
-6287 2147 0
6288 -2147 -2147 -2136 0
-6288 2147 0
-6288 2147 0
-6288 2136 0
-6289 2150 6286 4387 6287 6288 0
6289 -2150 0
6289 -6286 0
6289 -4387 0
6289 -6287 0
6289 -6288 0
6290 -4997 -4997 0
-6290 4997 0
-6290 4997 0
-6291 4983 6290 0
6291 -4983 0
6291 -6290 0
6292 -4997 -1290 0
-6292 4997 0
-6292 1290 0
-619 4986 6292 0
619 -4986 0
619 -6292 0
6293 -4997 -1288 0
-6293 4997 0
-6293 1288 0
-617 4991 6293 0
617 -4991 0
617 -6293 0
6294 -1287 -1288 0
-6294 1287 0
-6294 1288 0
-620 1284 6294 0
620 -1284 0
620 -6294 0
6295 -1290 -1287 0
-6295 1290 0
-6295 1287 0
-618 1281 6295 0
618 -1281 0
618 -6295 0
6296 -1290 -1290 0
-6296 1290 0
-6296 1290 0
-6297 1293 6296 0
6297 -1293 0
6297 -6296 0
6298 -4038 -4038 0
-6298 4038 0
-6298 4038 0
-6299 4045 6298 0
6299 -4045 0
6299 -6298 0
6300 -4038 -4050 0
-6300 4038 0
-6300 4050 0
-754 4052 6300 0
754 -4052 0
754 -6300 0
6301 -4038 -4056 0
-6301 4038 0
-6301 4056 0
-752 4059 6301 0
752 -4059 0
752 -6301 0
6302 -4061 -4056 0
-6302 4061 0
-6302 4056 0
-755 4066 6302 0
755 -4066 0
755 -6302 0
6303 -4050 -4061 0
-6303 4050 0
-6303 4061 0
-753 4071 6303 0
753 -4071 0
753 -6303 0
6304 -4050 -4050 0
-6304 4050 0
-6304 4050 0
-6305 4077 6304 0
6305 -4077 0
6305 -6304 0
6306 -5860 -5860 0
-6306 5860 0
-6306 5860 0
-6307 5867 6306 0
6307 -5867 0
6307 -6306 0
6308 -5860 -5872 0
-6308 5860 0
-6308 5872 0
-1079 5874 6308 0
1079 -5874 0
1079 -6308 0
6309 -5860 -5878 0
-6309 5860 0
-6309 5878 0
-1077 5881 6309 0
1077 -5881 0
1077 -6309 0
6310 -5883 -5878 0
-6310 5883 0
-6310 5878 0
-1080 5888 6310 0
1080 -5888 0
1080 -6310 0
6311 -5872 -5883 0
-6311 5872 0
-6311 5883 0
-1078 5893 6311 0
1078 -5893 0
1078 -6311 0
6312 -5872 -5872 0
-6312 5872 0
-6312 5872 0
-6313 5899 6312 0
6313 -5899 0
6313 -6312 0
6314 -1503 -1503 0
-6314 1503 0
-6314 1503 0
-6315 1510 6314 0
6315 -1510 0
6315 -6314 0
6316 -1503 -1515 0
-6316 1503 0
-6316 1515 0
-379 1517 6316 0
379 -1517 0
379 -6316 0
6317 -1503 -1521 0
-6317 1503 0
-6317 1521 0
-377 1524 6317 0
377 -1524 0
377 -6317 0
6318 -1526 -1521 0
-6318 1526 0
-6318 1521 0
-380 1531 6318 0
380 -1531 0
380 -6318 0
6319 -1515 -1526 0
-6319 1515 0
-6319 1526 0
-378 1536 6319 0
378 -1536 0
378 -6319 0
6320 -1515 -1515 0
-6320 1515 0
-6320 1515 0
-6321 1542 6320 0
6321 -1542 0
6321 -6320 0
6322 -1699 -1675 0
-6322 1699 0
-6322 1675 0
1676 -1675 -1675 0
-1676 1675 0
-1676 1675 0
6323 -1675 -1699 0
-6323 1675 0
-6323 1699 0
6324 -1699 -1699 -1681 0
-6324 1699 0
-6324 1699 0
-6324 1681 0
-6325 1679 6322 1676 6323 6324 0
6325 -1679 0
6325 -6322 0
6325 -1676 0
6325 -6323 0
6325 -6324 0
6326 -1699 -1688 0
-6326 1699 0
-6326 1688 0
6327 -1675 -1688 0
-6327 1675 0
-6327 1688 0
6328 -1675 -1707 0
-6328 1675 0
-6328 1707 0
6329 -1699 -1707 -1681 0
-6329 1699 0
-6329 1707 0
-6329 1681 0
-1004 1683 6326 6327 6328 6329 0
1004 -1683 0
1004 -6326 0
1004 -6327 0
1004 -6328 0
1004 -6329 0
6330 -1699 -1695 0
-6330 1699 0
-6330 1695 0
6331 -1675 -1702 0
-6331 1675 0
-6331 1702 0
6332 -1675 -1695 0
-6332 1675 0
-6332 1695 0
6333 -1699 -1702 -1681 0
-6333 1699 0
-6333 1702 0
-6333 1681 0
-1002 1690 6330 6331 6332 6333 0
1002 -1690 0
1002 -6330 0
1002 -6331 0
1002 -6332 0
1002 -6333 0
6334 -1697 -1695 0
-6334 1697 0
-6334 1695 0
6335 -1674 -1695 0
-6335 1674 0
-6335 1695 0
6336 -1674 -1702 0
-6336 1674 0
-6336 1702 0
6337 -1697 -1702 -1681 0
-6337 1697 0
-6337 1702 0
-6337 1681 0
-1005 1692 6334 6335 6336 6337 0
1005 -1692 0
1005 -6334 0
1005 -6335 0
1005 -6336 0
1005 -6337 0
6338 -1707 -1674 0
-6338 1707 0
-6338 1674 0
6339 -1688 -1697 0
-6339 1688 0
-6339 1697 0
6340 -1688 -1674 0
-6340 1688 0
-6340 1674 0
6341 -1707 -1697 -1681 0
-6341 1707 0
-6341 1697 0
-6341 1681 0
-1003 1686 6338 6339 6340 6341 0
1003 -1686 0
1003 -6338 0
1003 -6339 0
1003 -6340 0
1003 -6341 0
6342 -1707 -1688 0
-6342 1707 0
-6342 1688 0
6343 -1688 -1688 0
-6343 1688 0
-6343 1688 0
6344 -1688 -1707 0
-6344 1688 0
-6344 1707 0
6345 -1707 -1707 -1681 0
-6345 1707 0
-6345 1707 0
-6345 1681 0
-6346 1713 6342 6343 6344 6345 0
6346 -1713 0
6346 -6342 0
6346 -6343 0
6346 -6344 0
6346 -6345 0
6347 -2523 -2519 0
-6347 2523 0
-6347 2519 0
3551 -2519 -2519 0
-3551 2519 0
-3551 2519 0
6348 -2519 -2523 0
-6348 2519 0
-6348 2523 0
6349 -2523 -2523 -1894 0
-6349 2523 0
-6349 2523 0
-6349 1894 0
-6350 2526 6347 3551 6348 6349 0
6350 -2526 0
6350 -6347 0
6350 -3551 0
6350 -6348 0
6350 -6349 0
6351 -2523 -1897 0
-6351 2523 0
-6351 1897 0
6352 -2519 -1897 0
-6352 2519 0
-6352 1897 0
6353 -2519 -1905 0
-6353 2519 0
-6353 1905 0
6354 -2523 -1905 -1894 0
-6354 2523 0
-6354 1905 0
-6354 1894 0
-554 3556 6351 6352 6353 6354 0
554 -3556 0
554 -6351 0
554 -6352 0
554 -6353 0
554 -6354 0
6355 -2523 -1900 0
-6355 2523 0
-6355 1900 0
6356 -2519 -1903 0
-6356 2519 0
-6356 1903 0
6357 -2519 -1900 0
-6357 2519 0
-6357 1900 0
6358 -2523 -1903 -1894 0
-6358 2523 0
-6358 1903 0
-6358 1894 0
-552 2518 6355 6356 6357 6358 0
552 -2518 0
552 -6355 0
552 -6356 0
552 -6357 0
552 -6358 0
6359 -1902 -1900 0
-6359 1902 0
-6359 1900 0
6360 -1892 -1900 0
-6360 1892 0
-6360 1900 0
6361 -1892 -1903 0
-6361 1892 0
-6361 1903 0
6362 -1902 -1903 -1894 0
-6362 1902 0
-6362 1903 0
-6362 1894 0
-555 1899 6359 6360 6361 6362 0
555 -1899 0
555 -6359 0
555 -6360 0
555 -6361 0
555 -6362 0
6363 -1905 -1892 0
-6363 1905 0
-6363 1892 0
6364 -1897 -1902 0
-6364 1897 0
-6364 1902 0
6365 -1897 -1892 0
-6365 1897 0
-6365 1892 0
6366 -1905 -1902 -1894 0
-6366 1905 0
-6366 1902 0
-6366 1894 0
-553 1896 6363 6364 6365 6366 0
553 -1896 0
553 -6363 0
553 -6364 0
553 -6365 0
553 -6366 0
6367 -1905 -1897 0
-6367 1905 0
-6367 1897 0
4013 -1897 -1897 0
-4013 1897 0
-4013 1897 0
6368 -1897 -1905 0
-6368 1897 0
-6368 1905 0
6369 -1905 -1905 -1894 0
-6369 1905 0
-6369 1905 0
-6369 1894 0
-6370 1908 6367 4013 6368 6369 0
6370 -1908 0
6370 -6367 0
6370 -4013 0
6370 -6368 0
6370 -6369 0
6371 -1984 -1960 0
-6371 1984 0
-6371 1960 0
1961 -1960 -1960 0
-1961 1960 0
-1961 1960 0
6372 -1960 -1984 0
-6372 1960 0
-6372 1984 0
6373 -1984 -1984 -1966 0
-6373 1984 0
-6373 1984 0
-6373 1966 0
-6374 1964 6371 1961 6372 6373 0
6374 -1964 0
6374 -6371 0
6374 -1961 0
6374 -6372 0
6374 -6373 0
6375 -1984 -1973 0
-6375 1984 0
-6375 1973 0
6376 -1960 -1973 0
-6376 1960 0
-6376 1973 0
6377 -1960 -1992 0
-6377 1960 0
-6377 1992 0
6378 -1984 -1992 -1966 0
-6378 1984 0
-6378 1992 0
-6378 1966 0
-584 1968 6375 6376 6377 6378 0
584 -1968 0
584 -6375 0
584 -6376 0
584 -6377 0
584 -6378 0
6379 -1984 -1980 0
-6379 1984 0
-6379 1980 0
6380 -1960 -1987 0
-6380 1960 0
-6380 1987 0
6381 -1960 -1980 0
-6381 1960 0
-6381 1980 0
6382 -1984 -1987 -1966 0
-6382 1984 0
-6382 1987 0
-6382 1966 0
-582 1975 6379 6380 6381 6382 0
582 -1975 0
582 -6379 0
582 -6380 0
582 -6381 0
582 -6382 0
6383 -1982 -1980 0
-6383 1982 0
-6383 1980 0
6384 -1959 -1980 0
-6384 1959 0
-6384 1980 0
6385 -1959 -1987 0
-6385 1959 0
-6385 1987 0
6386 -1982 -1987 -1966 0
-6386 1982 0
-6386 1987 0
-6386 1966 0
-585 1977 6383 6384 6385 6386 0
585 -1977 0
585 -6383 0
585 -6384 0
585 -6385 0
585 -6386 0
6387 -1992 -1959 0
-6387 1992 0
-6387 1959 0
6388 -1973 -1982 0
-6388 1973 0
-6388 1982 0
6389 -1973 -1959 0
-6389 1973 0
-6389 1959 0
6390 -1992 -1982 -1966 0
-6390 1992 0
-6390 1982 0
-6390 1966 0
-583 1971 6387 6388 6389 6390 0
583 -1971 0
583 -6387 0
583 -6388 0
583 -6389 0
583 -6390 0
6391 -1992 -1973 0
-6391 1992 0
-6391 1973 0
6392 -1973 -1973 0
-6392 1973 0
-6392 1973 0
6393 -1973 -1992 0
-6393 1973 0
-6393 1992 0
6394 -1992 -1992 -1966 0
-6394 1992 0
-6394 1992 0
-6394 1966 0
-6395 1998 6391 6392 6393 6394 0
6395 -1998 0
6395 -6391 0
6395 -6392 0
6395 -6393 0
6395 -6394 0
6396 -3989 -4595 0
-6396 3989 0
-6396 4595 0
4596 -4595 -4595 0
-4596 4595 0
-4596 4595 0
6397 -4595 -3989 0
-6397 4595 0
-6397 3989 0
6398 -3989 -3989 -1420 0
-6398 3989 0
-6398 3989 0
-6398 1420 0
-6399 3991 6396 4596 6397 6398 0
6399 -3991 0
6399 -6396 0
6399 -4596 0
6399 -6397 0
6399 -6398 0
6400 -3989 -1423 0
-6400 3989 0
-6400 1423 0
6401 -4595 -1423 0
-6401 4595 0
-6401 1423 0
6402 -4595 -1431 0
-6402 4595 0
-6402 1431 0
6403 -3989 -1431 -1420 0
-6403 3989 0
-6403 1431 0
-6403 1420 0
-19 3993 6400 6401 6402 6403 0
19 -3993 0
19 -6400 0
19 -6401 0
19 -6402 0
19 -6403 0
6404 -3989 -1426 0
-6404 3989 0
-6404 1426 0
6405 -4595 -1429 0
-6405 4595 0
-6405 1429 0
6406 -4595 -1426 0
-6406 4595 0
-6406 1426 0
6407 -3989 -1429 -1420 0
-6407 3989 0
-6407 1429 0
-6407 1420 0
-17 3995 6404 6405 6406 6407 0
17 -3995 0
17 -6404 0
17 -6405 0
17 -6406 0
17 -6407 0
6408 -1428 -1426 0
-6408 1428 0
-6408 1426 0
6409 -1418 -1426 0
-6409 1418 0
-6409 1426 0
6410 -1418 -1429 0
-6410 1418 0
-6410 1429 0
6411 -1428 -1429 -1420 0
-6411 1428 0
-6411 1429 0
-6411 1420 0
-20 1425 6408 6409 6410 6411 0
20 -1425 0
20 -6408 0
20 -6409 0
20 -6410 0
20 -6411 0
6412 -1431 -1418 0
-6412 1431 0
-6412 1418 0
6413 -1423 -1428 0
-6413 1423 0
-6413 1428 0
6414 -1423 -1418 0
-6414 1423 0
-6414 1418 0
6415 -1431 -1428 -1420 0
-6415 1431 0
-6415 1428 0
-6415 1420 0
-18 1422 6412 6413 6414 6415 0
18 -1422 0
18 -6412 0
18 -6413 0
18 -6414 0
18 -6415 0
6416 -1431 -1423 0
-6416 1431 0
-6416 1423 0
6417 -1423 -1423 0
-6417 1423 0
-6417 1423 0
6418 -1423 -1431 0
-6418 1423 0
-6418 1431 0
6419 -1431 -1431 -1420 0
-6419 1431 0
-6419 1431 0
-6419 1420 0
-6420 1434 6416 6417 6418 6419 0
6420 -1434 0
6420 -6416 0
6420 -6417 0
6420 -6418 0
6420 -6419 0
6421 -3715 -3691 0
-6421 3715 0
-6421 3691 0
3692 -3691 -3691 0
-3692 3691 0
-3692 3691 0
6422 -3691 -3715 0
-6422 3691 0
-6422 3715 0
6423 -3715 -3715 -3697 0
-6423 3715 0
-6423 3715 0
-6423 3697 0
-6424 3695 6421 3692 6422 6423 0
6424 -3695 0
6424 -6421 0
6424 -3692 0
6424 -6422 0
6424 -6423 0
6425 -3715 -3704 0
-6425 3715 0
-6425 3704 0
6426 -3691 -3704 0
-6426 3691 0
-6426 3704 0
6427 -3691 -3723 0
-6427 3691 0
-6427 3723 0
6428 -3715 -3723 -3697 0
-6428 3715 0
-6428 3723 0
-6428 3697 0
-639 3699 6425 6426 6427 6428 0
639 -3699 0
639 -6425 0
639 -6426 0
639 -6427 0
639 -6428 0
6429 -3715 -3711 0
-6429 3715 0
-6429 3711 0
6430 -3691 -3718 0
-6430 3691 0
-6430 3718 0
6431 -3691 -3711 0
-6431 3691 0
-6431 3711 0
6432 -3715 -3718 -3697 0
-6432 3715 0
-6432 3718 0
-6432 3697 0
-637 3706 6429 6430 6431 6432 0
637 -3706 0
637 -6429 0
637 -6430 0
637 -6431 0
637 -6432 0
6433 -3713 -3711 0
-6433 3713 0
-6433 3711 0
6434 -3690 -3711 0
-6434 3690 0
-6434 3711 0
6435 -3690 -3718 0
-6435 3690 0
-6435 3718 0
6436 -3713 -3718 -3697 0
-6436 3713 0
-6436 3718 0
-6436 3697 0
-640 3708 6433 6434 6435 6436 0
640 -3708 0
640 -6433 0
640 -6434 0
640 -6435 0
640 -6436 0
6437 -3723 -3690 0
-6437 3723 0
-6437 3690 0
6438 -3704 -3713 0
-6438 3704 0
-6438 3713 0
6439 -3704 -3690 0
-6439 3704 0
-6439 3690 0
6440 -3723 -3713 -3697 0
-6440 3723 0
-6440 3713 0
-6440 3697 0
-638 3702 6437 6438 6439 6440 0
638 -3702 0
638 -6437 0
638 -6438 0
638 -6439 0
638 -6440 0
6441 -3723 -3704 0
-6441 3723 0
-6441 3704 0
6442 -3704 -3704 0
-6442 3704 0
-6442 3704 0
6443 -3704 -3723 0
-6443 3704 0
-6443 3723 0
6444 -3723 -3723 -3697 0
-6444 3723 0
-6444 3723 0
-6444 3697 0
-6445 3729 6441 6442 6443 6444 0
6445 -3729 0
6445 -6441 0
6445 -6442 0
6445 -6443 0
6445 -6444 0
6446 -4834 -4834 0
-6446 4834 0
-6446 4834 0
-6447 4820 6446 0
6447 -4820 0
6447 -6446 0
6448 -4834 -4213 0
-6448 4834 0
-6448 4213 0
-894 4823 6448 0
894 -4823 0
894 -6448 0
6449 -4834 -4211 0
-6449 4834 0
-6449 4211 0
-892 4828 6449 0
892 -4828 0
892 -6449 0
6450 -4210 -4211 0
-6450 4210 0
-6450 4211 0
-895 4207 6450 0
895 -4207 0
895 -6450 0
6451 -4213 -4210 0
-6451 4213 0
-6451 4210 0
-893 4204 6451 0
893 -4204 0
893 -6451 0
6452 -4213 -4213 0
-6452 4213 0
-6452 4213 0
-6453 4216 6452 0
6453 -4216 0
6453 -6452 0
6454 -6455 -6455 0
-6454 6455 0
-6454 6455 0
-1820 6456 6454 0
1820 -6456 0
1820 -6454 0
6457 -6455 -6458 0
-6457 6455 0
-6457 6458 0
-1816 6459 6457 0
1816 -6459 0
1816 -6457 0
6460 -6455 -6461 0
-6460 6455 0
-6460 6461 0
-1840 6462 6460 0
1840 -6462 0
1840 -6460 0
6463 -6464 -6461 0
-6463 6464 0
-6463 6461 0
-1838 6465 6463 0
1838 -6465 0
1838 -6463 0
6466 -6455 -6467 0
-6466 6455 0
-6466 6467 0
-1824 6468 6466 0
1824 -6468 0
1824 -6466 0
6469 -6455 -6470 0
-6469 6455 0
-6469 6470 0
-1831 6471 6469 0
1831 -6471 0
1831 -6469 0
6472 -6464 -6470 0
-6472 6464 0
-6472 6470 0
-1833 6473 6472 0
1833 -6473 0
1833 -6472 0
6474 -6458 -6464 0
-6474 6458 0
-6474 6464 0
-1815 6475 6474 0
1815 -6475 0
1815 -6474 0
6476 -6458 -6458 0
-6476 6458 0
-6476 6458 0
-1822 6477 6476 0
1822 -6477 0
1822 -6476 0
6478 -6458 -6467 0
-6478 6458 0
-6478 6467 0
-1829 6479 6478 0
1829 -6479 0
1829 -6478 0
6480 -6458 -6470 0
-6480 6458 0
-6480 6470 0
-1836 6481 6480 0
1836 -6481 0
1836 -6480 0
6482 -6461 -6470 0
-6482 6461 0
-6482 6470 0
-1843 6483 6482 0
1843 -6483 0
1843 -6482 0
6484 -6467 -6464 0
-6484 6467 0
-6484 6464 0
-1827 6485 6484 0
1827 -6485 0
1827 -6484 0
6486 -6467 -6461 0
-6486 6467 0
-6486 6461 0
-1848 6487 6486 0
1848 -6487 0
1848 -6486 0
6488 -6467 -6467 0
-6488 6467 0
-6488 6467 0
-1854 6489 6488 0
1854 -6489 0
1854 -6488 0
6490 -6491 -6492 0
-6490 6491 0
-6490 6492 0
6493 -6492 -6492 0
-6493 6492 0
-6493 6492 0
6494 -6492 -6491 0
-6494 6492 0
-6494 6491 0
6495 -6491 -6491 -6496 0
-6495 6491 0
-6495 6491 0
-6495 6496 0
-4452 6497 6490 6493 6494 6495 0
4452 -6497 0
4452 -6490 0
4452 -6493 0
4452 -6494 0
4452 -6495 0
6498 -6491 -6499 0
-6498 6491 0
-6498 6499 0
6500 -6492 -6499 0
-6500 6492 0
-6500 6499 0
6501 -6492 -6502 0
-6501 6492 0
-6501 6502 0
6503 -6491 -6502 -6496 0
-6503 6491 0
-6503 6502 0
-6503 6496 0
-4448 6504 6498 6500 6501 6503 0
4448 -6504 0
4448 -6498 0
4448 -6500 0
4448 -6501 0
4448 -6503 0
6505 -6491 -6506 0
-6505 6491 0
-6505 6506 0
6507 -6492 -6508 0
-6507 6492 0
-6507 6508 0
6509 -6492 -6506 0
-6509 6492 0
-6509 6506 0
6510 -6491 -6508 -6496 0
-6510 6491 0
-6510 6508 0
-6510 6496 0
-4466 6511 6505 6507 6509 6510 0
4466 -6511 0
4466 -6505 0
4466 -6507 0
4466 -6509 0
4466 -6510 0
6512 -6513 -6506 0
-6512 6513 0
-6512 6506 0
6514 -6515 -6506 0
-6514 6515 0
-6514 6506 0
6516 -6515 -6508 0
-6516 6515 0
-6516 6508 0
6517 -6513 -6508 -6496 0
-6517 6513 0
-6517 6508 0
-6517 6496 0
-4432 6518 6512 6514 6516 6517 0
4432 -6518 0
4432 -6512 0
4432 -6514 0
4432 -6516 0
4432 -6517 0
6519 -6491 -6520 0
-6519 6491 0
-6519 6520 0
6521 -6492 -6520 0
-6521 6492 0
-6521 6520 0
6522 -6492 -6523 0
-6522 6492 0
-6522 6523 0
6524 -6491 -6523 -6496 0
-6524 6491 0
-6524 6523 0
-6524 6496 0
-4455 6525 6519 6521 6522 6524 0
4455 -6525 0
4455 -6519 0
4455 -6521 0
4455 -6522 0
4455 -6524 0
6526 -6491 -6527 0
-6526 6491 0
-6526 6527 0
6528 -6492 -6529 0
-6528 6492 0
-6528 6529 0
6530 -6492 -6527 0
-6530 6492 0
-6530 6527 0
6531 -6491 -6529 -6496 0
-6531 6491 0
-6531 6529 0
-6531 6496 0
-4460 6532 6526 6528 6530 6531 0
4460 -6532 0
4460 -6526 0
4460 -6528 0
4460 -6530 0
4460 -6531 0
6533 -6513 -6527 0
-6533 6513 0
-6533 6527 0
6534 -6515 -6527 0
-6534 6515 0
-6534 6527 0
6535 -6515 -6529 0
-6535 6515 0
-6535 6529 0
6536 -6513 -6529 -6496 0
-6536 6513 0
-6536 6529 0
-6536 6496 0
-4429 6537 6533 6534 6535 6536 0
4429 -6537 0
4429 -6533 0
4429 -6534 0
4429 -6535 0
4429 -6536 0
6538 -6502 -6515 0
-6538 6502 0
-6538 6515 0
6539 -6499 -6513 0
-6539 6499 0
-6539 6513 0
6540 -6499 -6515 0
-6540 6499 0
-6540 6515 0
6541 -6502 -6513 -6496 0
-6541 6502 0
-6541 6513 0
-6541 6496 0
-4422 6542 6538 6539 6540 6541 0
4422 -6542 0
4422 -6538 0
4422 -6539 0
4422 -6540 0
4422 -6541 0
6543 -6502 -6499 0
-6543 6502 0
-6543 6499 0
6544 -6499 -6499 0
-6544 6499 0
-6544 6499 0
6545 -6499 -6502 0
-6545 6499 0
-6545 6502 0
6546 -6502 -6502 -6496 0
-6546 6502 0
-6546 6502 0
-6546 6496 0
-4424 6547 6543 6544 6545 6546 0
4424 -6547 0
4424 -6543 0
4424 -6544 0
4424 -6545 0
4424 -6546 0
6548 -6502 -6520 0
-6548 6502 0
-6548 6520 0
6549 -6499 -6520 0
-6549 6499 0
-6549 6520 0
6550 -6499 -6523 0
-6550 6499 0
-6550 6523 0
6551 -6502 -6523 -6496 0
-6551 6502 0
-6551 6523 0
-6551 6496 0
-4427 6552 6548 6549 6550 6551 0
4427 -6552 0
4427 -6548 0
4427 -6549 0
4427 -6550 0
4427 -6551 0
6553 -6502 -6527 0
-6553 6502 0
-6553 6527 0
6554 -6499 -6529 0
-6554 6499 0
-6554 6529 0
6555 -6499 -6527 0
-6555 6499 0
-6555 6527 0
6556 -6502 -6529 -6496 0
-6556 6502 0
-6556 6529 0
-6556 6496 0
-4430 6557 6553 6554 6555 6556 0
4430 -6557 0
4430 -6553 0
4430 -6554 0
4430 -6555 0
4430 -6556 0
6558 -6508 -6527 0
-6558 6508 0
-6558 6527 0
6559 -6506 -6527 0
-6559 6506 0
-6559 6527 0
6560 -6506 -6529 0
-6560 6506 0
-6560 6529 0
6561 -6508 -6529 -6496 0
-6561 6508 0
-6561 6529 0
-6561 6496 0
-4433 6562 6558 6559 6560 6561 0
4433 -6562 0
4433 -6558 0
4433 -6559 0
4433 -6560 0
4433 -6561 0
6563 -6523 -6515 0
-6563 6523 0
-6563 6515 0
6564 -6520 -6513 0
-6564 6520 0
-6564 6513 0
6565 -6520 -6515 0
-6565 6520 0
-6565 6515 0
6566 -6523 -6513 -6496 0
-6566 6523 0
-6566 6513 0
-6566 6496 0
-4426 6567 6563 6564 6565 6566 0
4426 -6567 0
4426 -6563 0
4426 -6564 0
4426 -6565 0
4426 -6566 0
6568 -6523 -6506 0
-6568 6523 0
-6568 6506 0
6569 -6520 -6508 0
-6569 6520 0
-6569 6508 0
6570 -6520 -6506 0
-6570 6520 0
-6570 6506 0
6571 -6523 -6508 -6496 0
-6571 6523 0
-6571 6508 0
-6571 6496 0
-4435 6572 6568 6569 6570 6571 0
4435 -6572 0
4435 -6568 0
4435 -6569 0
4435 -6570 0
4435 -6571 0
6573 -6523 -6520 0
-6573 6523 0
-6573 6520 0
6574 -6520 -6520 0
-6574 6520 0
-6574 6520 0
6575 -6520 -6523 0
-6575 6520 0
-6575 6523 0
6576 -6523 -6523 -6496 0
-6576 6523 0
-6576 6523 0
-6576 6496 0
-4438 6577 6573 6574 6575 6576 0
4438 -6577 0
4438 -6573 0
4438 -6574 0
4438 -6575 0
4438 -6576 0
6578 -6579 -6579 0
-6578 6579 0
-6578 6579 0
-4124 6580 6578 0
4124 -6580 0
4124 -6578 0
6581 -6579 -6582 0
-6581 6579 0
-6581 6582 0
-4120 6583 6581 0
4120 -6583 0
4120 -6581 0
6584 -6579 -6585 0
-6584 6579 0
-6584 6585 0
-4138 6586 6584 0
4138 -6586 0
4138 -6584 0
6587 -6588 -6585 0
-6587 6588 0
-6587 6585 0
-2726 6589 6587 0
2726 -6589 0
2726 -6587 0
6590 -6579 -6591 0
-6590 6579 0
-6590 6591 0
-4127 6592 6590 0
4127 -6592 0
4127 -6590 0
6593 -6579 -6594 0
-6593 6579 0
-6593 6594 0
-4132 6595 6593 0
4132 -6595 0
4132 -6593 0
6596 -6588 -6594 0
-6596 6588 0
-6596 6594 0
-2723 6597 6596 0
2723 -6597 0
2723 -6596 0
6598 -6582 -6588 0
-6598 6582 0
-6598 6588 0
-2716 6599 6598 0
2716 -6599 0
2716 -6598 0
6600 -6582 -6582 0
-6600 6582 0
-6600 6582 0
-2718 6601 6600 0
2718 -6601 0
2718 -6600 0
6602 -6582 -6591 0
-6602 6582 0
-6602 6591 0
-2721 6603 6602 0
2721 -6603 0
2721 -6602 0
6604 -6582 -6594 0
-6604 6582 0
-6604 6594 0
-2724 6605 6604 0
2724 -6605 0
2724 -6604 0
6606 -6585 -6594 0
-6606 6585 0
-6606 6594 0
-2727 6607 6606 0
2727 -6607 0
2727 -6606 0
6608 -6591 -6588 0
-6608 6591 0
-6608 6588 0
-2720 6609 6608 0
2720 -6609 0
2720 -6608 0
6610 -6591 -6585 0
-6610 6591 0
-6610 6585 0
-2729 6611 6610 0
2729 -6611 0
2729 -6610 0
6612 -6591 -6591 0
-6612 6591 0
-6612 6591 0
-2732 6613 6612 0
2732 -6613 0
2732 -6612 0
6614 -6615 -6615 0
-6614 6615 0
-6614 6615 0
-3580 6616 6614 0
3580 -6616 0
3580 -6614 0
6617 -6615 -6618 0
-6617 6615 0
-6617 6618 0
-5138 6619 6617 0
5138 -6619 0
5138 -6617 0
6620 -6615 -6621 0
-6620 6615 0
-6620 6621 0
-3578 6622 6620 0
3578 -6622 0
3578 -6620 0
6623 -6624 -6621 0
-6623 6624 0
-6623 6621 0
-3060 6625 6623 0
3060 -6625 0
3060 -6623 0
6626 -6615 -6627 0
-6626 6615 0
-6626 6627 0
-3582 6628 6626 0
3582 -6628 0
3582 -6626 0
6629 -6615 -6630 0
-6629 6615 0
-6629 6630 0
-3584 6631 6629 0
3584 -6631 0
3584 -6629 0
6632 -6624 -6630 0
-6632 6624 0
-6632 6630 0
-3057 6633 6632 0
3057 -6633 0
3057 -6632 0
6634 -6618 -6624 0
-6634 6618 0
-6634 6624 0
-3050 6635 6634 0
3050 -6635 0
3050 -6634 0
6636 -6618 -6618 0
-6636 6618 0
-6636 6618 0
-3052 6637 6636 0
3052 -6637 0
3052 -6636 0
6638 -6618 -6627 0
-6638 6618 0
-6638 6627 0
-3055 6639 6638 0
3055 -6639 0
3055 -6638 0
6640 -6618 -6630 0
-6640 6618 0
-6640 6630 0
-3058 6641 6640 0
3058 -6641 0
3058 -6640 0
6642 -6621 -6630 0
-6642 6621 0
-6642 6630 0
-3061 6643 6642 0
3061 -6643 0
3061 -6642 0
6644 -6627 -6624 0
-6644 6627 0
-6644 6624 0
-3054 6645 6644 0
3054 -6645 0
3054 -6644 0
6646 -6627 -6621 0
-6646 6627 0
-6646 6621 0
-3063 6647 6646 0
3063 -6647 0
3063 -6646 0
6648 -6627 -6627 0
-6648 6627 0
-6648 6627 0
-3066 6649 6648 0
3066 -6649 0
3066 -6648 0
6650 -6651 -6651 0
-6650 6651 0
-6650 6651 0
-1279 6652 6650 0
1279 -6652 0
1279 -6650 0
6653 -6651 -6654 0
-6653 6651 0
-6653 6654 0
-4979 6655 6653 0
4979 -6655 0
4979 -6653 0
6656 -6651 -6657 0
-6656 6651 0
-6656 6657 0
-1277 6658 6656 0
1277 -6658 0
1277 -6656 0
6659 -6660 -6657 0
-6659 6660 0
-6659 6657 0
-1287 6661 6659 0
1287 -6661 0
1287 -6659 0
6662 -6651 -6663 0
-6662 6651 0
-6662 6663 0
-1282 6664 6662 0
1282 -6664 0
1282 -6662 0
6665 -6651 -6666 0
-6665 6651 0
-6665 6666 0
-1285 6667 6665 0
1285 -6667 0
1285 -6665 0
6668 -6660 -6666 0
-6668 6660 0
-6668 6666 0
-1288 6669 6668 0
1288 -6669 0
1288 -6668 0
6670 -6654 -6660 0
-6670 6654 0
-6670 6660 0
-4997 6671 6670 0
4997 -6671 0
4997 -6670 0
6672 -6654 -6654 0
-6672 6654 0
-6672 6654 0
-4983 6673 6672 0
4983 -6673 0
4983 -6672 0
6674 -6654 -6663 0
-6674 6654 0
-6674 6663 0
-4986 6675 6674 0
4986 -6675 0
4986 -6674 0
6676 -6654 -6666 0
-6676 6654 0
-6676 6666 0
-4991 6677 6676 0
4991 -6677 0
4991 -6676 0
6678 -6657 -6666 0
-6678 6657 0
-6678 6666 0
-1284 6679 6678 0
1284 -6679 0
1284 -6678 0
6680 -6663 -6660 0
-6680 6663 0
-6680 6660 0
-1290 6681 6680 0
1290 -6681 0
1290 -6680 0
6682 -6663 -6657 0
-6682 6663 0
-6682 6657 0
-1281 6683 6682 0
1281 -6683 0
1281 -6682 0
6684 -6663 -6663 0
-6684 6663 0
-6684 6663 0
-1293 6685 6684 0
1293 -6685 0
1293 -6684 0
6686 -6658 -6655 0
-6686 6658 0
-6686 6655 0
6687 -6655 -6655 0
-6687 6655 0
-6687 6655 0
6688 -6655 -6658 0
-6688 6655 0
-6688 6658 0
6689 -6658 -6658 -6673 0
-6689 6658 0
-6689 6658 0
-6689 6673 0
-1467 6652 6686 6687 6688 6689 0
1467 -6652 0
1467 -6686 0
1467 -6687 0
1467 -6688 0
1467 -6689 0
6690 -6658 -6691 0
-6690 6658 0
-6690 6691 0
6692 -6655 -6691 0
-6692 6655 0
-6692 6691 0
6693 -6655 -6694 0
-6693 6655 0
-6693 6694 0
6695 -6658 -6694 -6673 0
-6695 6658 0
-6695 6694 0
-6695 6673 0
-1463 6696 6690 6692 6693 6695 0
1463 -6696 0
1463 -6690 0
1463 -6692 0
1463 -6693 0
1463 -6695 0
6697 -6658 -6654 0
-6697 6658 0
-6697 6654 0
6698 -6655 -6657 0
-6698 6655 0
-6698 6657 0
6699 -6655 -6654 0
-6699 6655 0
-6699 6654 0
6700 -6658 -6657 -6673 0
-6700 6658 0
-6700 6657 0
-6700 6673 0
-1487 6651 6697 6698 6699 6700 0
1487 -6651 0
1487 -6697 0
1487 -6698 0
1487 -6699 0
1487 -6700 0
6701 -6661 -6654 0
-6701 6661 0
-6701 6654 0
6702 -6671 -6654 0
-6702 6671 0
-6702 6654 0
6703 -6671 -6657 0
-6703 6671 0
-6703 6657 0
6704 -6661 -6657 -6673 0
-6704 6661 0
-6704 6657 0
-6704 6673 0
-1485 6660 6701 6702 6703 6704 0
1485 -6660 0
1485 -6701 0
1485 -6702 0
1485 -6703 0
1485 -6704 0
6705 -6658 -6675 0
-6705 6658 0
-6705 6675 0
6706 -6655 -6675 0
-6706 6655 0
-6706 6675 0
6707 -6655 -6683 0
-6707 6655 0
-6707 6683 0
6708 -6658 -6683 -6673 0
-6708 6658 0
-6708 6683 0
-6708 6673 0
-1471 6664 6705 6706 6707 6708 0
1471 -6664 0
1471 -6705 0
1471 -6706 0
1471 -6707 0
1471 -6708 0
6709 -6658 -6677 0
-6709 6658 0
-6709 6677 0
6710 -6655 -6679 0
-6710 6655 0
-6710 6679 0
6711 -6655 -6677 0
-6711 6655 0
-6711 6677 0
6712 -6658 -6679 -6673 0
-6712 6658 0
-6712 6679 0
-6712 6673 0
-1478 6667 6709 6710 6711 6712 0
1478 -6667 0
1478 -6709 0
1478 -6710 0
1478 -6711 0
1478 -6712 0
6713 -6661 -6677 0
-6713 6661 0
-6713 6677 0
6714 -6671 -6677 0
-6714 6671 0
-6714 6677 0
6715 -6671 -6679 0
-6715 6671 0
-6715 6679 0
6716 -6661 -6679 -6673 0
-6716 6661 0
-6716 6679 0
-6716 6673 0
-1480 6669 6713 6714 6715 6716 0
1480 -6669 0
1480 -6713 0
1480 -6714 0
1480 -6715 0
1480 -6716 0
6717 -6694 -6671 0
-6717 6694 0
-6717 6671 0
6718 -6691 -6661 0
-6718 6691 0
-6718 6661 0
6719 -6691 -6671 0
-6719 6691 0
-6719 6671 0
6720 -6694 -6661 -6673 0
-6720 6694 0
-6720 6661 0
-6720 6673 0
-1462 6721 6717 6718 6719 6720 0
1462 -6721 0
1462 -6717 0
1462 -6718 0
1462 -6719 0
1462 -6720 0
6722 -6694 -6691 0
-6722 6694 0
-6722 6691 0
6723 -6691 -6691 0
-6723 6691 0
-6723 6691 0
6724 -6691 -6694 0
-6724 6691 0
-6724 6694 0
6725 -6694 -6694 -6673 0
-6725 6694 0
-6725 6694 0
-6725 6673 0
-1469 6726 6722 6723 6724 6725 0
1469 -6726 0
1469 -6722 0
1469 -6723 0
1469 -6724 0
1469 -6725 0
6727 -6694 -6675 0
-6727 6694 0
-6727 6675 0
6728 -6691 -6675 0
-6728 6691 0
-6728 6675 0
6729 -6691 -6683 0
-6729 6691 0
-6729 6683 0
6730 -6694 -6683 -6673 0
-6730 6694 0
-6730 6683 0
-6730 6673 0
-1476 6731 6727 6728 6729 6730 0
1476 -6731 0
1476 -6727 0
1476 -6728 0
1476 -6729 0
1476 -6730 0
6732 -6694 -6677 0
-6732 6694 0
-6732 6677 0
6733 -6691 -6679 0
-6733 6691 0
-6733 6679 0
6734 -6691 -6677 0
-6734 6691 0
-6734 6677 0
6735 -6694 -6679 -6673 0
-6735 6694 0
-6735 6679 0
-6735 6673 0
-1483 6736 6732 6733 6734 6735 0
1483 -6736 0
1483 -6732 0
1483 -6733 0
1483 -6734 0
1483 -6735 0
6737 -6657 -6677 0
-6737 6657 0
-6737 6677 0
6738 -6654 -6677 0
-6738 6654 0
-6738 6677 0
6739 -6654 -6679 0
-6739 6654 0
-6739 6679 0
6740 -6657 -6679 -6673 0
-6740 6657 0
-6740 6679 0
-6740 6673 0
-1490 6666 6737 6738 6739 6740 0
1490 -6666 0
1490 -6737 0
1490 -6738 0
1490 -6739 0
1490 -6740 0
6741 -6683 -6671 0
-6741 6683 0
-6741 6671 0
6742 -6675 -6661 0
-6742 6675 0
-6742 6661 0
6743 -6675 -6671 0
-6743 6675 0
-6743 6671 0
6744 -6683 -6661 -6673 0
-6744 6683 0
-6744 6661 0
-6744 6673 0
-1474 6681 6741 6742 6743 6744 0
1474 -6681 0
1474 -6741 0
1474 -6742 0
1474 -6743 0
1474 -6744 0
6745 -6683 -6654 0
-6745 6683 0
-6745 6654 0
6746 -6675 -6657 0
-6746 6675 0
-6746 6657 0
6747 -6675 -6654 0
-6747 6675 0
-6747 6654 0
6748 -6683 -6657 -6673 0
-6748 6683 0
-6748 6657 0
-6748 6673 0
-1495 6663 6745 6746 6747 6748 0
1495 -6663 0
1495 -6745 0
1495 -6746 0
1495 -6747 0
1495 -6748 0
6749 -6683 -6675 0
-6749 6683 0
-6749 6675 0
6750 -6675 -6675 0
-6750 6675 0
-6750 6675 0
6751 -6675 -6683 0
-6751 6675 0
-6751 6683 0
6752 -6683 -6683 -6673 0
-6752 6683 0
-6752 6683 0
-6752 6673 0
-1501 6685 6749 6750 6751 6752 0
1501 -6685 0
1501 -6749 0
1501 -6750 0
1501 -6751 0
1501 -6752 0
6753 -6754 -6755 0
-6753 6754 0
-6753 6755 0
6756 -6755 -6755 0
-6756 6755 0
-6756 6755 0
6757 -6755 -6754 0
-6757 6755 0
-6757 6754 0
6758 -6754 -6754 -6759 0
-6758 6754 0
-6758 6754 0
-6758 6759 0
-3070 6760 6753 6756 6757 6758 0
3070 -6760 0
3070 -6753 0
3070 -6756 0
3070 -6757 0
3070 -6758 0
6761 -6754 -6762 0
-6761 6754 0
-6761 6762 0
6763 -6755 -6762 0
-6763 6755 0
-6763 6762 0
6764 -6755 -6765 0
-6764 6755 0
-6764 6765 0
6766 -6754 -6765 -6759 0
-6766 6754 0
-6766 6765 0
-6766 6759 0
-3111 6767 6761 6763 6764 6766 0
3111 -6767 0
3111 -6761 0
3111 -6763 0
3111 -6764 0
3111 -6766 0
6768 -6754 -6769 0
-6768 6754 0
-6768 6769 0
6770 -6755 -6771 0
-6770 6755 0
-6770 6771 0
6772 -6755 -6769 0
-6772 6755 0
-6772 6769 0
6773 -6754 -6771 -6759 0
-6773 6754 0
-6773 6771 0
-6773 6759 0
-3068 6774 6768 6770 6772 6773 0
3068 -6774 0
3068 -6768 0
3068 -6770 0
3068 -6772 0
3068 -6773 0
6775 -6776 -6769 0
-6775 6776 0
-6775 6769 0
6777 -6778 -6769 0
-6777 6778 0
-6777 6769 0
6779 -6778 -6771 0
-6779 6778 0
-6779 6771 0
6780 -6776 -6771 -6759 0
-6780 6776 0
-6780 6771 0
-6780 6759 0
-2270 6781 6775 6777 6779 6780 0
2270 -6781 0
2270 -6775 0
2270 -6777 0
2270 -6779 0
2270 -6780 0
6782 -6754 -6783 0
-6782 6754 0
-6782 6783 0
6784 -6755 -6783 0
-6784 6755 0
-6784 6783 0
6785 -6755 -6786 0
-6785 6755 0
-6785 6786 0
6787 -6754 -6786 -6759 0
-6787 6754 0
-6787 6786 0
-6787 6759 0
-3072 6788 6782 6784 6785 6787 0
3072 -6788 0
3072 -6782 0
3072 -6784 0
3072 -6785 0
3072 -6787 0
6789 -6754 -6790 0
-6789 6754 0
-6789 6790 0
6791 -6755 -6792 0
-6791 6755 0
-6791 6792 0
6793 -6755 -6790 0
-6793 6755 0
-6793 6790 0
6794 -6754 -6792 -6759 0
-6794 6754 0
-6794 6792 0
-6794 6759 0
-3074 6795 6789 6791 6793 6794 0
3074 -6795 0
3074 -6789 0
3074 -6791 0
3074 -6793 0
3074 -6794 0
6796 -6776 -6790 0
-6796 6776 0
-6796 6790 0
6797 -6778 -6790 0
-6797 6778 0
-6797 6790 0
6798 -6778 -6792 0
-6798 6778 0
-6798 6792 0
6799 -6776 -6792 -6759 0
-6799 6776 0
-6799 6792 0
-6799 6759 0
-2267 6800 6796 6797 6798 6799 0
2267 -6800 0
2267 -6796 0
2267 -6797 0
2267 -6798 0
2267 -6799 0
6801 -6765 -6778 0
-6801 6765 0
-6801 6778 0
6802 -6762 -6776 0
-6802 6762 0
-6802 6776 0
6803 -6762 -6778 0
-6803 6762 0
-6803 6778 0
6804 -6765 -6776 -6759 0
-6804 6765 0
-6804 6776 0
-6804 6759 0
-2260 6805 6801 6802 6803 6804 0
2260 -6805 0
2260 -6801 0
2260 -6802 0
2260 -6803 0
2260 -6804 0
6806 -6765 -6762 0
-6806 6765 0
-6806 6762 0
6807 -6762 -6762 0
-6807 6762 0
-6807 6762 0
6808 -6762 -6765 0
-6808 6762 0
-6808 6765 0
6809 -6765 -6765 -6759 0
-6809 6765 0
-6809 6765 0
-6809 6759 0
-2262 6810 6806 6807 6808 6809 0
2262 -6810 0
2262 -6806 0
2262 -6807 0
2262 -6808 0
2262 -6809 0
6811 -6765 -6783 0
-6811 6765 0
-6811 6783 0
6812 -6762 -6783 0
-6812 6762 0
-6812 6783 0
6813 -6762 -6786 0
-6813 6762 0
-6813 6786 0
6814 -6765 -6786 -6759 0
-6814 6765 0
-6814 6786 0
-6814 6759 0
-2265 6815 6811 6812 6813 6814 0
2265 -6815 0
2265 -6811 0
2265 -6812 0
2265 -6813 0
2265 -6814 0
6816 -6765 -6790 0
-6816 6765 0
-6816 6790 0
6817 -6762 -6792 0
-6817 6762 0
-6817 6792 0
6818 -6762 -6790 0
-6818 6762 0
-6818 6790 0
6819 -6765 -6792 -6759 0
-6819 6765 0
-6819 6792 0
-6819 6759 0
-2268 6820 6816 6817 6818 6819 0
2268 -6820 0
2268 -6816 0
2268 -6817 0
2268 -6818 0
2268 -6819 0
6821 -6771 -6790 0
-6821 6771 0
-6821 6790 0
6822 -6769 -6790 0
-6822 6769 0
-6822 6790 0
6823 -6769 -6792 0
-6823 6769 0
-6823 6792 0
6824 -6771 -6792 -6759 0
-6824 6771 0
-6824 6792 0
-6824 6759 0
-2271 6825 6821 6822 6823 6824 0
2271 -6825 0
2271 -6821 0
2271 -6822 0
2271 -6823 0
2271 -6824 0
6826 -6786 -6778 0
-6826 6786 0
-6826 6778 0
6827 -6783 -6776 0
-6827 6783 0
-6827 6776 0
6828 -6783 -6778 0
-6828 6783 0
-6828 6778 0
6829 -6786 -6776 -6759 0
-6829 6786 0
-6829 6776 0
-6829 6759 0
-2264 6830 6826 6827 6828 6829 0
2264 -6830 0
2264 -6826 0
2264 -6827 0
2264 -6828 0
2264 -6829 0
6831 -6786 -6769 0
-6831 6786 0
-6831 6769 0
6832 -6783 -6771 0
-6832 6783 0
-6832 6771 0
6833 -6783 -6769 0
-6833 6783 0
-6833 6769 0
6834 -6786 -6771 -6759 0
-6834 6786 0
-6834 6771 0
-6834 6759 0
-2273 6835 6831 6832 6833 6834 0
2273 -6835 0
2273 -6831 0
2273 -6832 0
2273 -6833 0
2273 -6834 0
6836 -6786 -6783 0
-6836 6786 0
-6836 6783 0
6837 -6783 -6783 0
-6837 6783 0
-6837 6783 0
6838 -6783 -6786 0
-6838 6783 0
-6838 6786 0
6839 -6786 -6786 -6759 0
-6839 6786 0
-6839 6786 0
-6839 6759 0
-2276 6840 6836 6837 6838 6839 0
2276 -6840 0
2276 -6836 0
2276 -6837 0
2276 -6838 0
2276 -6839 0
6841 -6842 -6842 0
-6841 6842 0
-6841 6842 0
-1382 6843 6841 0
1382 -6843 0
1382 -6841 0
6844 -6842 -6845 0
-6844 6842 0
-6844 6845 0
-1378 6846 6844 0
1378 -6846 0
1378 -6844 0
6847 -6842 -6848 0
-6847 6842 0
-6847 6848 0
-1402 6849 6847 0
1402 -6849 0
1402 -6847 0
6850 -6851 -6848 0
-6850 6851 0
-6850 6848 0
-1400 6852 6850 0
1400 -6852 0
1400 -6850 0
6853 -6842 -6854 0
-6853 6842 0
-6853 6854 0
-1386 6855 6853 0
1386 -6855 0
1386 -6853 0
6856 -6842 -6857 0
-6856 6842 0
-6856 6857 0
-1393 6858 6856 0
1393 -6858 0
1393 -6856 0
6859 -6851 -6857 0
-6859 6851 0
-6859 6857 0
-1395 6860 6859 0
1395 -6860 0
1395 -6859 0
6861 -6845 -6851 0
-6861 6845 0
-6861 6851 0
-1377 6862 6861 0
1377 -6862 0
1377 -6861 0
6863 -6845 -6845 0
-6863 6845 0
-6863 6845 0
-1384 6864 6863 0
1384 -6864 0
1384 -6863 0
6865 -6845 -6854 0
-6865 6845 0
-6865 6854 0
-1391 6866 6865 0
1391 -6866 0
1391 -6865 0
6867 -6845 -6857 0
-6867 6845 0
-6867 6857 0
-1398 6868 6867 0
1398 -6868 0
1398 -6867 0
6869 -6848 -6857 0
-6869 6848 0
-6869 6857 0
-1405 6870 6869 0
1405 -6870 0
1405 -6869 0
6871 -6854 -6851 0
-6871 6854 0
-6871 6851 0
-1389 6872 6871 0
1389 -6872 0
1389 -6871 0
6873 -6854 -6848 0
-6873 6854 0
-6873 6848 0
-1410 6874 6873 0
1410 -6874 0
1410 -6873 0
6875 -6854 -6854 0
-6875 6854 0
-6875 6854 0
-1416 6876 6875 0
1416 -6876 0
1416 -6875 0
6877 -6878 -6878 0
-6877 6878 0
-6877 6878 0
-5833 6879 6877 0
5833 -6879 0
5833 -6877 0
6880 -6878 -6881 0
-6880 6878 0
-6880 6881 0
-5829 6882 6880 0
5829 -6882 0
5829 -6880 0
6883 -6878 -6884 0
-6883 6878 0
-6883 6884 0
-5847 6885 6883 0
5847 -6885 0
5847 -6883 0
6886 -6887 -6884 0
-6886 6887 0
-6886 6884 0
-1251 6888 6886 0
1251 -6888 0
1251 -6886 0
6889 -6878 -6890 0
-6889 6878 0
-6889 6890 0
-5836 6891 6889 0
5836 -6891 0
5836 -6889 0
6892 -6878 -6893 0
-6892 6878 0
-6892 6893 0
-5841 6894 6892 0
5841 -6894 0
5841 -6892 0
6895 -6887 -6893 0
-6895 6887 0
-6895 6893 0
-1248 6896 6895 0
1248 -6896 0
1248 -6895 0
6897 -6881 -6887 0
-6897 6881 0
-6897 6887 0
-1241 6898 6897 0
1241 -6898 0
1241 -6897 0
6899 -6881 -6881 0
-6899 6881 0
-6899 6881 0
-1243 6900 6899 0
1243 -6900 0
1243 -6899 0
6901 -6881 -6890 0
-6901 6881 0
-6901 6890 0
-1246 6902 6901 0
1246 -6902 0
1246 -6901 0
6903 -6881 -6893 0
-6903 6881 0
-6903 6893 0
-1249 6904 6903 0
1249 -6904 0
1249 -6903 0
6905 -6884 -6893 0
-6905 6884 0
-6905 6893 0
-1252 6906 6905 0
1252 -6906 0
1252 -6905 0
6907 -6890 -6887 0
-6907 6890 0
-6907 6887 0
-1245 6908 6907 0
1245 -6908 0
1245 -6907 0
6909 -6890 -6884 0
-6909 6890 0
-6909 6884 0
-1254 6910 6909 0
1254 -6910 0
1254 -6909 0
6911 -6890 -6890 0
-6911 6890 0
-6911 6890 0
-1257 6912 6911 0
1257 -6912 0
1257 -6911 0
6913 -6885 -6885 0
-6913 6885 0
-6913 6885 0
-3736 6879 6913 0
3736 -6879 0
3736 -6913 0
6914 -6885 -6915 0
-6914 6885 0
-6914 6915 0
-3732 6916 6914 0
3732 -6916 0
3732 -6914 0
6917 -6885 -6884 0
-6917 6885 0
-6917 6884 0
-3756 6878 6917 0
3756 -6878 0
3756 -6917 0
6918 -6888 -6884 0
-6918 6888 0
-6918 6884 0
-3754 6887 6918 0
3754 -6887 0
3754 -6918 0
6919 -6885 -6910 0
-6919 6885 0
-6919 6910 0
-3740 6891 6919 0
3740 -6891 0
3740 -6919 0
6920 -6885 -6906 0
-6920 6885 0
-6920 6906 0
-3747 6894 6920 0
3747 -6894 0
3747 -6920 0
6921 -6888 -6906 0
-6921 6888 0
-6921 6906 0
-3749 6896 6921 0
3749 -6896 0
3749 -6921 0
6922 -6915 -6888 0
-6922 6915 0
-6922 6888 0
-3731 6923 6922 0
3731 -6923 0
3731 -6922 0
6924 -6915 -6915 0
-6924 6915 0
-6924 6915 0
-3738 6925 6924 0
3738 -6925 0
3738 -6924 0
6926 -6915 -6910 0
-6926 6915 0
-6926 6910 0
-3745 6927 6926 0
3745 -6927 0
3745 -6926 0
6928 -6915 -6906 0
-6928 6915 0
-6928 6906 0
-3752 6929 6928 0
3752 -6929 0
3752 -6928 0
6930 -6884 -6906 0
-6930 6884 0
-6930 6906 0
-3759 6893 6930 0
3759 -6893 0
3759 -6930 0
6931 -6910 -6888 0
-6931 6910 0
-6931 6888 0
-3743 6908 6931 0
3743 -6908 0
3743 -6931 0
6932 -6910 -6884 0
-6932 6910 0
-6932 6884 0
-3764 6890 6932 0
3764 -6890 0
3764 -6932 0
6933 -6910 -6910 0
-6933 6910 0
-6933 6910 0
-3770 6912 6933 0
3770 -6912 0
3770 -6933 0
6934 -6511 -6511 0
-6934 6511 0
-6934 6511 0
-3697 6497 6934 0
3697 -6497 0
3697 -6934 0
6935 -6511 -6506 0
-6935 6511 0
-6935 6506 0
-3691 6492 6935 0
3691 -6492 0
3691 -6935 0
6936 -6511 -6508 0
-6936 6511 0
-6936 6508 0
-3690 6491 6936 0
3690 -6491 0
3690 -6936 0
6937 -6518 -6508 0
-6937 6518 0
-6937 6508 0
-3713 6513 6937 0
3713 -6513 0
3713 -6937 0
6938 -6511 -6572 0
-6938 6511 0
-6938 6572 0
-3704 6525 6938 0
3704 -6525 0
3704 -6938 0
6939 -6511 -6562 0
-6939 6511 0
-6939 6562 0
-3711 6532 6939 0
3711 -6532 0
3711 -6939 0
6940 -6518 -6562 0
-6940 6518 0
-6940 6562 0
-3718 6537 6940 0
3718 -6537 0
3718 -6940 0
6941 -6506 -6518 0
-6941 6506 0
-6941 6518 0
-3715 6515 6941 0
3715 -6515 0
3715 -6941 0
6942 -6506 -6506 0
-6942 6506 0
-6942 6506 0
-3695 6496 6942 0
3695 -6496 0
3695 -6942 0
6943 -6506 -6572 0
-6943 6506 0
-6943 6572 0
-3699 6520 6943 0
3699 -6520 0
3699 -6943 0
6944 -6506 -6562 0
-6944 6506 0
-6944 6562 0
-3706 6527 6944 0
3706 -6527 0
3706 -6944 0
6945 -6508 -6562 0
-6945 6508 0
-6945 6562 0
-3708 6529 6945 0
3708 -6529 0
3708 -6945 0
6946 -6572 -6518 0
-6946 6572 0
-6946 6518 0
-3723 6567 6946 0
3723 -6567 0
3723 -6946 0
6947 -6572 -6508 0
-6947 6572 0
-6947 6508 0
-3702 6523 6947 0
3702 -6523 0
3702 -6947 0
6948 -6572 -6572 0
-6948 6572 0
-6948 6572 0
-3729 6577 6948 0
3729 -6577 0
3729 -6948 0
6949 -6774 -6767 0
-6949 6774 0
-6949 6767 0
6950 -6767 -6767 0
-6950 6767 0
-6950 6767 0
6951 -6767 -6774 0
-6951 6767 0
-6951 6774 0
6952 -6774 -6774 -6810 0
-6952 6774 0
-6952 6774 0
-6952 6810 0
-5553 6760 6949 6950 6951 6952 0
5553 -6760 0
5553 -6949 0
5553 -6950 0
5553 -6951 0
5553 -6952 0
6953 -6774 -6762 0
-6953 6774 0
-6953 6762 0
6954 -6767 -6762 0
-6954 6767 0
-6954 6762 0
6955 -6767 -6769 0
-6955 6767 0
-6955 6769 0
6956 -6774 -6769 -6810 0
-6956 6774 0
-6956 6769 0
-6956 6810 0
-5549 6755 6953 6954 6955 6956 0
5549 -6755 0
5549 -6953 0
5549 -6954 0
5549 -6955 0
5549 -6956 0
6957 -6774 -6765 0
-6957 6774 0
-6957 6765 0
6958 -6767 -6771 0
-6958 6767 0
-6958 6771 0
6959 -6767 -6765 0
-6959 6767 0
-6959 6765 0
6960 -6774 -6771 -6810 0
-6960 6774 0
-6960 6771 0
-6960 6810 0
-5567 6754 6957 6958 6959 6960 0
5567 -6754 0
5567 -6957 0
5567 -6958 0
5567 -6959 0
5567 -6960 0
6961 -6781 -6765 0
-6961 6781 0
-6961 6765 0
6962 -6805 -6765 0
-6962 6805 0
-6962 6765 0
6963 -6805 -6771 0
-6963 6805 0
-6963 6771 0
6964 -6781 -6771 -6810 0
-6964 6781 0
-6964 6771 0
-6964 6810 0
-3782 6776 6961 6962 6963 6964 0
3782 -6776 0
3782 -6961 0
3782 -6962 0
3782 -6963 0
3782 -6964 0
6965 -6774 -6815 0
-6965 6774 0
-6965 6815 0
6966 -6767 -6815 0
-6966 6767 0
-6966 6815 0
6967 -6767 -6835 0
-6967 6767 0
-6967 6835 0
6968 -6774 -6835 -6810 0
-6968 6774 0
-6968 6835 0
-6968 6810 0
-5556 6788 6965 6966 6967 6968 0
5556 -6788 0
5556 -6965 0
5556 -6966 0
5556 -6967 0
5556 -6968 0
6969 -6774 -6820 0
-6969 6774 0
-6969 6820 0
6970 -6767 -6825 0
-6970 6767 0
-6970 6825 0
6971 -6767 -6820 0
-6971 6767 0
-6971 6820 0
6972 -6774 -6825 -6810 0
-6972 6774 0
-6972 6825 0
-6972 6810 0
-5561 6795 6969 6970 6971 6972 0
5561 -6795 0
5561 -6969 0
5561 -6970 0
5561 -6971 0
5561 -6972 0
6973 -6781 -6820 0
-6973 6781 0
-6973 6820 0
6974 -6805 -6820 0
-6974 6805 0
-6974 6820 0
6975 -6805 -6825 0
-6975 6805 0
-6975 6825 0
6976 -6781 -6825 -6810 0
-6976 6781 0
-6976 6825 0
-6976 6810 0
-3779 6800 6973 6974 6975 6976 0
3779 -6800 0
3779 -6973 0
3779 -6974 0
3779 -6975 0
3779 -6976 0
6977 -6769 -6805 0
-6977 6769 0
-6977 6805 0
6978 -6762 -6781 0
-6978 6762 0
-6978 6781 0
6979 -6762 -6805 0
-6979 6762 0
-6979 6805 0
6980 -6769 -6781 -6810 0
-6980 6769 0
-6980 6781 0
-6980 6810 0
-3772 6778 6977 6978 6979 6980 0
3772 -6778 0
3772 -6977 0
3772 -6978 0
3772 -6979 0
3772 -6980 0
6981 -6769 -6762 0
-6981 6769 0
-6981 6762 0
6807 -6762 -6762 0
-6807 6762 0
-6807 6762 0
6982 -6762 -6769 0
-6982 6762 0
-6982 6769 0
6983 -6769 -6769 -6810 0
-6983 6769 0
-6983 6769 0
-6983 6810 0
-3774 6759 6981 6807 6982 6983 0
3774 -6759 0
3774 -6981 0
3774 -6807 0
3774 -6982 0
3774 -6983 0
6984 -6769 -6815 0
-6984 6769 0
-6984 6815 0
6985 -6762 -6815 0
-6985 6762 0
-6985 6815 0
6986 -6762 -6835 0
-6986 6762 0
-6986 6835 0
6987 -6769 -6835 -6810 0
-6987 6769 0
-6987 6835 0
-6987 6810 0
-3777 6783 6984 6985 6986 6987 0
3777 -6783 0
3777 -6984 0
3777 -6985 0
3777 -6986 0
3777 -6987 0
6988 -6769 -6820 0
-6988 6769 0
-6988 6820 0
6989 -6762 -6825 0
-6989 6762 0
-6989 6825 0
6990 -6762 -6820 0
-6990 6762 0
-6990 6820 0
6991 -6769 -6825 -6810 0
-6991 6769 0
-6991 6825 0
-6991 6810 0
-3780 6790 6988 6989 6990 6991 0
3780 -6790 0
3780 -6988 0
3780 -6989 0
3780 -6990 0
3780 -6991 0
6992 -6771 -6820 0
-6992 6771 0
-6992 6820 0
6993 -6765 -6820 0
-6993 6765 0
-6993 6820 0
6994 -6765 -6825 0
-6994 6765 0
-6994 6825 0
6995 -6771 -6825 -6810 0
-6995 6771 0
-6995 6825 0
-6995 6810 0
-3783 6792 6992 6993 6994 6995 0
3783 -6792 0
3783 -6992 0
3783 -6993 0
3783 -6994 0
3783 -6995 0
6996 -6835 -6805 0
-6996 6835 0
-6996 6805 0
6997 -6815 -6781 0
-6997 6815 0
-6997 6781 0
6998 -6815 -6805 0
-6998 6815 0
-6998 6805 0
6999 -6835 -6781 -6810 0
-6999 6835 0
-6999 6781 0
-6999 6810 0
-3776 6830 6996 6997 6998 6999 0
3776 -6830 0
3776 -6996 0
3776 -6997 0
3776 -6998 0
3776 -6999 0
7000 -6835 -6765 0
-7000 6835 0
-7000 6765 0
7001 -6815 -6771 0
-7001 6815 0
-7001 6771 0
7002 -6815 -6765 0
-7002 6815 0
-7002 6765 0
7003 -6835 -6771 -6810 0
-7003 6835 0
-7003 6771 0
-7003 6810 0
-3785 6786 7000 7001 7002 7003 0
3785 -6786 0
3785 -7000 0
3785 -7001 0
3785 -7002 0
3785 -7003 0
7004 -6835 -6815 0
-7004 6835 0
-7004 6815 0
7005 -6815 -6815 0
-7005 6815 0
-7005 6815 0
7006 -6815 -6835 0
-7006 6815 0
-7006 6835 0
7007 -6835 -6835 -6810 0
-7007 6835 0
-7007 6835 0
-7007 6810 0
-3788 6840 7004 7005 7006 7007 0
3788 -6840 0
3788 -7004 0
3788 -7005 0
3788 -7006 0
3788 -7007 0
7008 -7009 -7010 0
-7008 7009 0
-7008 7010 0
7011 -7010 -7010 0
-7011 7010 0
-7011 7010 0
7012 -7010 -7009 0
-7012 7010 0
-7012 7009 0
7013 -7009 -7009 -7014 0
-7013 7009 0
-7013 7009 0
-7013 7014 0
-5103 7015 7008 7011 7012 7013 0
5103 -7015 0
5103 -7008 0
5103 -7011 0
5103 -7012 0
5103 -7013 0
7016 -7009 -7017 0
-7016 7009 0
-7016 7017 0
7018 -7010 -7017 0
-7018 7010 0
-7018 7017 0
7019 -7010 -7020 0
-7019 7010 0
-7019 7020 0
7021 -7009 -7020 -7014 0
-7021 7009 0
-7021 7020 0
-7021 7014 0
-5099 7022 7016 7018 7019 7021 0
5099 -7022 0
5099 -7016 0
5099 -7018 0
5099 -7019 0
5099 -7021 0
7023 -7009 -7024 0
-7023 7009 0
-7023 7024 0
7025 -7010 -7026 0
-7025 7010 0
-7025 7026 0
7027 -7010 -7024 0
-7027 7010 0
-7027 7024 0
7028 -7009 -7026 -7014 0
-7028 7009 0
-7028 7026 0
-7028 7014 0
-5117 7029 7023 7025 7027 7028 0
5117 -7029 0
5117 -7023 0
5117 -7025 0
5117 -7027 0
5117 -7028 0
7030 -7031 -7024 0
-7030 7031 0
-7030 7024 0
7032 -7033 -7024 0
-7032 7033 0
-7032 7024 0
7034 -7033 -7026 0
-7034 7033 0
-7034 7026 0
7035 -7031 -7026 -7014 0
-7035 7031 0
-7035 7026 0
-7035 7014 0
-4896 7036 7030 7032 7034 7035 0
4896 -7036 0
4896 -7030 0
4896 -7032 0
4896 -7034 0
4896 -7035 0
7037 -7009 -7038 0
-7037 7009 0
-7037 7038 0
7039 -7010 -7038 0
-7039 7010 0
-7039 7038 0
7040 -7010 -7041 0
-7040 7010 0
-7040 7041 0
7042 -7009 -7041 -7014 0
-7042 7009 0
-7042 7041 0
-7042 7014 0
-5106 7043 7037 7039 7040 7042 0
5106 -7043 0
5106 -7037 0
5106 -7039 0
5106 -7040 0
5106 -7042 0
7044 -7009 -7045 0
-7044 7009 0
-7044 7045 0
7046 -7010 -7047 0
-7046 7010 0
-7046 7047 0
7048 -7010 -7045 0
-7048 7010 0
-7048 7045 0
7049 -7009 -7047 -7014 0
-7049 7009 0
-7049 7047 0
-7049 7014 0
-5111 7050 7044 7046 7048 7049 0
5111 -7050 0
5111 -7044 0
5111 -7046 0
5111 -7048 0
5111 -7049 0
7051 -7031 -7045 0
-7051 7031 0
-7051 7045 0
7052 -7033 -7045 0
-7052 7033 0
-7052 7045 0
7053 -7033 -7047 0
-7053 7033 0
-7053 7047 0
7054 -7031 -7047 -7014 0
-7054 7031 0
-7054 7047 0
-7054 7014 0
-4893 7055 7051 7052 7053 7054 0
4893 -7055 0
4893 -7051 0
4893 -7052 0
4893 -7053 0
4893 -7054 0
7056 -7020 -7033 0
-7056 7020 0
-7056 7033 0
7057 -7017 -7031 0
-7057 7017 0
-7057 7031 0
7058 -7017 -7033 0
-7058 7017 0
-7058 7033 0
7059 -7020 -7031 -7014 0
-7059 7020 0
-7059 7031 0
-7059 7014 0
-4886 7060 7056 7057 7058 7059 0
4886 -7060 0
4886 -7056 0
4886 -7057 0
4886 -7058 0
4886 -7059 0
7061 -7020 -7017 0
-7061 7020 0
-7061 7017 0
7062 -7017 -7017 0
-7062 7017 0
-7062 7017 0
7063 -7017 -7020 0
-7063 7017 0
-7063 7020 0
7064 -7020 -7020 -7014 0
-7064 7020 0
-7064 7020 0
-7064 7014 0
-4888 7065 7061 7062 7063 7064 0
4888 -7065 0
4888 -7061 0
4888 -7062 0
4888 -7063 0
4888 -7064 0
7066 -7020 -7038 0
-7066 7020 0
-7066 7038 0
7067 -7017 -7038 0
-7067 7017 0
-7067 7038 0
7068 -7017 -7041 0
-7068 7017 0
-7068 7041 0
7069 -7020 -7041 -7014 0
-7069 7020 0
-7069 7041 0
-7069 7014 0
-4891 7070 7066 7067 7068 7069 0
4891 -7070 0
4891 -7066 0
4891 -7067 0
4891 -7068 0
4891 -7069 0
7071 -7020 -7045 0
-7071 7020 0
-7071 7045 0
7072 -7017 -7047 0
-7072 7017 0
-7072 7047 0
7073 -7017 -7045 0
-7073 7017 0
-7073 7045 0
7074 -7020 -7047 -7014 0
-7074 7020 0
-7074 7047 0
-7074 7014 0
-4894 7075 7071 7072 7073 7074 0
4894 -7075 0
4894 -7071 0
4894 -7072 0
4894 -7073 0
4894 -7074 0
7076 -7026 -7045 0
-7076 7026 0
-7076 7045 0
7077 -7024 -7045 0
-7077 7024 0
-7077 7045 0
7078 -7024 -7047 0
-7078 7024 0
-7078 7047 0
7079 -7026 -7047 -7014 0
-7079 7026 0
-7079 7047 0
-7079 7014 0
-4897 7080 7076 7077 7078 7079 0
4897 -7080 0
4897 -7076 0
4897 -7077 0
4897 -7078 0
4897 -7079 0
7081 -7041 -7033 0
-7081 7041 0
-7081 7033 0
7082 -7038 -7031 0
-7082 7038 0
-7082 7031 0
7083 -7038 -7033 0
-7083 7038 0
-7083 7033 0
7084 -7041 -7031 -7014 0
-7084 7041 0
-7084 7031 0
-7084 7014 0
-4890 7085 7081 7082 7083 7084 0
4890 -7085 0
4890 -7081 0
4890 -7082 0
4890 -7083 0
4890 -7084 0
7086 -7041 -7024 0
-7086 7041 0
-7086 7024 0
7087 -7038 -7026 0
-7087 7038 0
-7087 7026 0
7088 -7038 -7024 0
-7088 7038 0
-7088 7024 0
7089 -7041 -7026 -7014 0
-7089 7041 0
-7089 7026 0
-7089 7014 0
-4899 7090 7086 7087 7088 7089 0
4899 -7090 0
4899 -7086 0
4899 -7087 0
4899 -7088 0
4899 -7089 0
7091 -7041 -7038 0
-7091 7041 0
-7091 7038 0
7092 -7038 -7038 0
-7092 7038 0
-7092 7038 0
7093 -7038 -7041 0
-7093 7038 0
-7093 7041 0
7094 -7041 -7041 -7014 0
-7094 7041 0
-7094 7041 0
-7094 7014 0
-4902 7095 7091 7092 7093 7094 0
4902 -7095 0
4902 -7091 0
4902 -7092 0
4902 -7093 0
4902 -7094 0
7096 -7097 -7098 0
-7096 7097 0
-7096 7098 0
7099 -7098 -7098 0
-7099 7098 0
-7099 7098 0
7100 -7098 -7097 0
-7100 7098 0
-7100 7097 0
7101 -7097 -7097 -7102 0
-7101 7097 0
-7101 7097 0
-7101 7102 0
-3274 7103 7096 7099 7100 7101 0
3274 -7103 0
3274 -7096 0
3274 -7099 0
3274 -7100 0
3274 -7101 0
7104 -7097 -7105 0
-7104 7097 0
-7104 7105 0
7106 -7098 -7105 0
-7106 7098 0
-7106 7105 0
7107 -7098 -7108 0
-7107 7098 0
-7107 7108 0
7109 -7097 -7108 -7102 0
-7109 7097 0
-7109 7108 0
-7109 7102 0
-3270 7110 7104 7106 7107 7109 0
3270 -7110 0
3270 -7104 0
3270 -7106 0
3270 -7107 0
3270 -7109 0
7111 -7097 -7112 0
-7111 7097 0
-7111 7112 0
7113 -7098 -7114 0
-7113 7098 0
-7113 7114 0
7115 -7098 -7112 0
-7115 7098 0
-7115 7112 0
7116 -7097 -7114 -7102 0
-7116 7097 0
-7116 7114 0
-7116 7102 0
-3288 7117 7111 7113 7115 7116 0
3288 -7117 0
3288 -7111 0
3288 -7113 0
3288 -7115 0
3288 -7116 0
7118 -7119 -7112 0
-7118 7119 0
-7118 7112 0
7120 -7121 -7112 0
-7120 7121 0
-7120 7112 0
7122 -7121 -7114 0
-7122 7121 0
-7122 7114 0
7123 -7119 -7114 -7102 0
-7123 7119 0
-7123 7114 0
-7123 7102 0
-2405 7124 7118 7120 7122 7123 0
2405 -7124 0
2405 -7118 0
2405 -7120 0
2405 -7122 0
2405 -7123 0
7125 -7097 -7126 0
-7125 7097 0
-7125 7126 0
7127 -7098 -7126 0
-7127 7098 0
-7127 7126 0
7128 -7098 -7129 0
-7128 7098 0
-7128 7129 0
7130 -7097 -7129 -7102 0
-7130 7097 0
-7130 7129 0
-7130 7102 0
-3277 7131 7125 7127 7128 7130 0
3277 -7131 0
3277 -7125 0
3277 -7127 0
3277 -7128 0
3277 -7130 0
7132 -7097 -7133 0
-7132 7097 0
-7132 7133 0
7134 -7098 -7135 0
-7134 7098 0
-7134 7135 0
7136 -7098 -7133 0
-7136 7098 0
-7136 7133 0
7137 -7097 -7135 -7102 0
-7137 7097 0
-7137 7135 0
-7137 7102 0
-3282 7138 7132 7134 7136 7137 0
3282 -7138 0
3282 -7132 0
3282 -7134 0
3282 -7136 0
3282 -7137 0
7139 -7119 -7133 0
-7139 7119 0
-7139 7133 0
7140 -7121 -7133 0
-7140 7121 0
-7140 7133 0
7141 -7121 -7135 0
-7141 7121 0
-7141 7135 0
7142 -7119 -7135 -7102 0
-7142 7119 0
-7142 7135 0
-7142 7102 0
-2402 7143 7139 7140 7141 7142 0
2402 -7143 0
2402 -7139 0
2402 -7140 0
2402 -7141 0
2402 -7142 0
7144 -7108 -7121 0
-7144 7108 0
-7144 7121 0
7145 -7105 -7119 0
-7145 7105 0
-7145 7119 0
7146 -7105 -7121 0
-7146 7105 0
-7146 7121 0
7147 -7108 -7119 -7102 0
-7147 7108 0
-7147 7119 0
-7147 7102 0
-2395 7148 7144 7145 7146 7147 0
2395 -7148 0
2395 -7144 0
2395 -7145 0
2395 -7146 0
2395 -7147 0
7149 -7108 -7105 0
-7149 7108 0
-7149 7105 0
7150 -7105 -7105 0
-7150 7105 0
-7150 7105 0
7151 -7105 -7108 0
-7151 7105 0
-7151 7108 0
7152 -7108 -7108 -7102 0
-7152 7108 0
-7152 7108 0
-7152 7102 0
-2397 7153 7149 7150 7151 7152 0
2397 -7153 0
2397 -7149 0
2397 -7150 0
2397 -7151 0
2397 -7152 0
7154 -7108 -7126 0
-7154 7108 0
-7154 7126 0
7155 -7105 -7126 0
-7155 7105 0
-7155 7126 0
7156 -7105 -7129 0
-7156 7105 0
-7156 7129 0
7157 -7108 -7129 -7102 0
-7157 7108 0
-7157 7129 0
-7157 7102 0
-2400 7158 7154 7155 7156 7157 0
2400 -7158 0
2400 -7154 0
2400 -7155 0
2400 -7156 0
2400 -7157 0
7159 -7108 -7133 0
-7159 7108 0
-7159 7133 0
7160 -7105 -7135 0
-7160 7105 0
-7160 7135 0
7161 -7105 -7133 0
-7161 7105 0
-7161 7133 0
7162 -7108 -7135 -7102 0
-7162 7108 0
-7162 7135 0
-7162 7102 0
-2403 7163 7159 7160 7161 7162 0
2403 -7163 0
2403 -7159 0
2403 -7160 0
2403 -7161 0
2403 -7162 0
7164 -7114 -7133 0
-7164 7114 0
-7164 7133 0
7165 -7112 -7133 0
-7165 7112 0
-7165 7133 0
7166 -7112 -7135 0
-7166 7112 0
-7166 7135 0
7167 -7114 -7135 -7102 0
-7167 7114 0
-7167 7135 0
-7167 7102 0
-2406 7168 7164 7165 7166 7167 0
2406 -7168 0
2406 -7164 0
2406 -7165 0
2406 -7166 0
2406 -7167 0
7169 -7129 -7121 0
-7169 7129 0
-7169 7121 0
7170 -7126 -7119 0
-7170 7126 0
-7170 7119 0
7171 -7126 -7121 0
-7171 7126 0
-7171 7121 0
7172 -7129 -7119 -7102 0
-7172 7129 0
-7172 7119 0
-7172 7102 0
-2399 7173 7169 7170 7171 7172 0
2399 -7173 0
2399 -7169 0
2399 -7170 0
2399 -7171 0
2399 -7172 0
7174 -7129 -7112 0
-7174 7129 0
-7174 7112 0
7175 -7126 -7114 0
-7175 7126 0
-7175 7114 0
7176 -7126 -7112 0
-7176 7126 0
-7176 7112 0
7177 -7129 -7114 -7102 0
-7177 7129 0
-7177 7114 0
-7177 7102 0
-2408 7178 7174 7175 7176 7177 0
2408 -7178 0
2408 -7174 0
2408 -7175 0
2408 -7176 0
2408 -7177 0
7179 -7129 -7126 0
-7179 7129 0
-7179 7126 0
7180 -7126 -7126 0
-7180 7126 0
-7180 7126 0
7181 -7126 -7129 0
-7181 7126 0
-7181 7129 0
7182 -7129 -7129 -7102 0
-7182 7129 0
-7182 7129 0
-7182 7102 0
-2411 7183 7179 7180 7181 7182 0
2411 -7183 0
2411 -7179 0
2411 -7180 0
2411 -7181 0
2411 -7182 0
7184 -6885 -6882 0
-7184 6885 0
-7184 6882 0
7185 -6882 -6882 0
-7185 6882 0
-7185 6882 0
7186 -6882 -6885 0
-7186 6882 0
-7186 6885 0
7187 -6885 -6885 -6900 0
-7187 6885 0
-7187 6885 0
-7187 6900 0
-4277 6879 7184 7185 7186 7187 0
4277 -6879 0
4277 -7184 0
4277 -7185 0
4277 -7186 0
4277 -7187 0
7188 -6885 -7189 0
-7188 6885 0
-7188 7189 0
7190 -6882 -7189 0
-7190 6882 0
-7190 7189 0
7191 -6882 -6915 0
-7191 6882 0
-7191 6915 0
7192 -6885 -6915 -6900 0
-7192 6885 0
-7192 6915 0
-7192 6900 0
-4273 6916 7188 7190 7191 7192 0
4273 -6916 0
4273 -7188 0
4273 -7190 0
4273 -7191 0
4273 -7192 0
7193 -6885 -6881 0
-7193 6885 0
-7193 6881 0
7194 -6882 -6884 0
-7194 6882 0
-7194 6884 0
7195 -6882 -6881 0
-7195 6882 0
-7195 6881 0
7196 -6885 -6884 -6900 0
-7196 6885 0
-7196 6884 0
-7196 6900 0
-4291 6878 7193 7194 7195 7196 0
4291 -6878 0
4291 -7193 0
4291 -7194 0
4291 -7195 0
4291 -7196 0
7197 -6888 -6881 0
-7197 6888 0
-7197 6881 0
7198 -6898 -6881 0
-7198 6898 0
-7198 6881 0
7199 -6898 -6884 0
-7199 6898 0
-7199 6884 0
7200 -6888 -6884 -6900 0
-7200 6888 0
-7200 6884 0
-7200 6900 0
-3674 6887 7197 7198 7199 7200 0
3674 -6887 0
3674 -7197 0
3674 -7198 0
3674 -7199 0
3674 -7200 0
7201 -6885 -6902 0
-7201 6885 0
-7201 6902 0
7202 -6882 -6902 0
-7202 6882 0
-7202 6902 0
7203 -6882 -6910 0
-7203 6882 0
-7203 6910 0
7204 -6885 -6910 -6900 0
-7204 6885 0
-7204 6910 0
-7204 6900 0
-4280 6891 7201 7202 7203 7204 0
4280 -6891 0
4280 -7201 0
4280 -7202 0
4280 -7203 0
4280 -7204 0
7205 -6885 -6904 0
-7205 6885 0
-7205 6904 0
7206 -6882 -6906 0
-7206 6882 0
-7206 6906 0
7207 -6882 -6904 0
-7207 6882 0
-7207 6904 0
7208 -6885 -6906 -6900 0
-7208 6885 0
-7208 6906 0
-7208 6900 0
-4285 6894 7205 7206 7207 7208 0
4285 -6894 0
4285 -7205 0
4285 -7206 0
4285 -7207 0
4285 -7208 0
7209 -6888 -6904 0
-7209 6888 0
-7209 6904 0
7210 -6898 -6904 0
-7210 6898 0
-7210 6904 0
7211 -6898 -6906 0
-7211 6898 0
-7211 6906 0
7212 -6888 -6906 -6900 0
-7212 6888 0
-7212 6906 0
-7212 6900 0
-3671 6896 7209 7210 7211 7212 0
3671 -6896 0
3671 -7209 0
3671 -7210 0
3671 -7211 0
3671 -7212 0
7213 -6915 -6898 0
-7213 6915 0
-7213 6898 0
7214 -7189 -6888 0
-7214 7189 0
-7214 6888 0
7215 -7189 -6898 0
-7215 7189 0
-7215 6898 0
7216 -6915 -6888 -6900 0
-7216 6915 0
-7216 6888 0
-7216 6900 0
-3664 6923 7213 7214 7215 7216 0
3664 -6923 0
3664 -7213 0
3664 -7214 0
3664 -7215 0
3664 -7216 0
7217 -6915 -7189 0
-7217 6915 0
-7217 7189 0
7218 -7189 -7189 0
-7218 7189 0
-7218 7189 0
7219 -7189 -6915 0
-7219 7189 0
-7219 6915 0
7220 -6915 -6915 -6900 0
-7220 6915 0
-7220 6915 0
-7220 6900 0
-3666 6925 7217 7218 7219 7220 0
3666 -6925 0
3666 -7217 0
3666 -7218 0
3666 -7219 0
3666 -7220 0
7221 -6915 -6902 0
-7221 6915 0
-7221 6902 0
7222 -7189 -6902 0
-7222 7189 0
-7222 6902 0
7223 -7189 -6910 0
-7223 7189 0
-7223 6910 0
7224 -6915 -6910 -6900 0
-7224 6915 0
-7224 6910 0
-7224 6900 0
-3669 6927 7221 7222 7223 7224 0
3669 -6927 0
3669 -7221 0
3669 -7222 0
3669 -7223 0
3669 -7224 0
7225 -6915 -6904 0
-7225 6915 0
-7225 6904 0
7226 -7189 -6906 0
-7226 7189 0
-7226 6906 0
7227 -7189 -6904 0
-7227 7189 0
-7227 6904 0
7228 -6915 -6906 -6900 0
-7228 6915 0
-7228 6906 0
-7228 6900 0
-3672 6929 7225 7226 7227 7228 0
3672 -6929 0
3672 -7225 0
3672 -7226 0
3672 -7227 0
3672 -7228 0
7229 -6884 -6904 0
-7229 6884 0
-7229 6904 0
7230 -6881 -6904 0
-7230 6881 0
-7230 6904 0
7231 -6881 -6906 0
-7231 6881 0
-7231 6906 0
7232 -6884 -6906 -6900 0
-7232 6884 0
-7232 6906 0
-7232 6900 0
-3675 6893 7229 7230 7231 7232 0
3675 -6893 0
3675 -7229 0
3675 -7230 0
3675 -7231 0
3675 -7232 0
7233 -6910 -6898 0
-7233 6910 0
-7233 6898 0
7234 -6902 -6888 0
-7234 6902 0
-7234 6888 0
7235 -6902 -6898 0
-7235 6902 0
-7235 6898 0
7236 -6910 -6888 -6900 0
-7236 6910 0
-7236 6888 0
-7236 6900 0
-3668 6908 7233 7234 7235 7236 0
3668 -6908 0
3668 -7233 0
3668 -7234 0
3668 -7235 0
3668 -7236 0
7237 -6910 -6881 0
-7237 6910 0
-7237 6881 0
7238 -6902 -6884 0
-7238 6902 0
-7238 6884 0
7239 -6902 -6881 0
-7239 6902 0
-7239 6881 0
7240 -6910 -6884 -6900 0
-7240 6910 0
-7240 6884 0
-7240 6900 0
-3677 6890 7237 7238 7239 7240 0
3677 -6890 0
3677 -7237 0
3677 -7238 0
3677 -7239 0
3677 -7240 0
7241 -6910 -6902 0
-7241 6910 0
-7241 6902 0
7242 -6902 -6902 0
-7242 6902 0
-7242 6902 0
7243 -6902 -6910 0
-7243 6902 0
-7243 6910 0
7244 -6910 -6910 -6900 0
-7244 6910 0
-7244 6910 0
-7244 6900 0
-3680 6912 7241 7242 7243 7244 0
3680 -6912 0
3680 -7241 0
3680 -7242 0
3680 -7243 0
3680 -7244 0
7245 -7029 -7022 0
-7245 7029 0
-7245 7022 0
7246 -7022 -7022 0
-7246 7022 0
-7246 7022 0
7247 -7022 -7029 0
-7247 7022 0
-7247 7029 0
7248 -7029 -7029 -7065 0
-7248 7029 0
-7248 7029 0
-7248 7065 0
-2800 7015 7245 7246 7247 7248 0
2800 -7015 0
2800 -7245 0
2800 -7246 0
2800 -7247 0
2800 -7248 0
7249 -7029 -7017 0
-7249 7029 0
-7249 7017 0
7250 -7022 -7017 0
-7250 7022 0
-7250 7017 0
7251 -7022 -7024 0
-7251 7022 0
-7251 7024 0
7252 -7029 -7024 -7065 0
-7252 7029 0
-7252 7024 0
-7252 7065 0
-2794 7010 7249 7250 7251 7252 0
2794 -7010 0
2794 -7249 0
2794 -7250 0
2794 -7251 0
2794 -7252 0
7253 -7029 -7020 0
-7253 7029 0
-7253 7020 0
7254 -7022 -7026 0
-7254 7022 0
-7254 7026 0
7255 -7022 -7020 0
-7255 7022 0
-7255 7020 0
7256 -7029 -7026 -7065 0
-7256 7029 0
-7256 7026 0
-7256 7065 0
-2793 7009 7253 7254 7255 7256 0
2793 -7009 0
2793 -7253 0
2793 -7254 0
2793 -7255 0
2793 -7256 0
7257 -7036 -7020 0
-7257 7036 0
-7257 7020 0
7258 -7060 -7020 0
-7258 7060 0
-7258 7020 0
7259 -7060 -7026 0
-7259 7060 0
-7259 7026 0
7260 -7036 -7026 -7065 0
-7260 7036 0
-7260 7026 0
-7260 7065 0
-2816 7031 7257 7258 7259 7260 0
2816 -7031 0
2816 -7257 0
2816 -7258 0
2816 -7259 0
2816 -7260 0
7261 -7029 -7070 0
-7261 7029 0
-7261 7070 0
7262 -7022 -7070 0
-7262 7022 0
-7262 7070 0
7263 -7022 -7090 0
-7263 7022 0
-7263 7090 0
7264 -7029 -7090 -7065 0
-7264 7029 0
-7264 7090 0
-7264 7065 0
-2807 7043 7261 7262 7263 7264 0
2807 -7043 0
2807 -7261 0
2807 -7262 0
2807 -7263 0
2807 -7264 0
7265 -7029 -7075 0
-7265 7029 0
-7265 7075 0
7266 -7022 -7080 0
-7266 7022 0
-7266 7080 0
7267 -7022 -7075 0
-7267 7022 0
-7267 7075 0
7268 -7029 -7080 -7065 0
-7268 7029 0
-7268 7080 0
-7268 7065 0
-2814 7050 7265 7266 7267 7268 0
2814 -7050 0
2814 -7265 0
2814 -7266 0
2814 -7267 0
2814 -7268 0
7269 -7036 -7075 0
-7269 7036 0
-7269 7075 0
7270 -7060 -7075 0
-7270 7060 0
-7270 7075 0
7271 -7060 -7080 0
-7271 7060 0
-7271 7080 0
7272 -7036 -7080 -7065 0
-7272 7036 0
-7272 7080 0
-7272 7065 0
-2821 7055 7269 7270 7271 7272 0
2821 -7055 0
2821 -7269 0
2821 -7270 0
2821 -7271 0
2821 -7272 0
7273 -7024 -7060 0
-7273 7024 0
-7273 7060 0
7274 -7017 -7036 0
-7274 7017 0
-7274 7036 0
7275 -7017 -7060 0
-7275 7017 0
-7275 7060 0
7276 -7024 -7036 -7065 0
-7276 7024 0
-7276 7036 0
-7276 7065 0
-2818 7033 7273 7274 7275 7276 0
2818 -7033 0
2818 -7273 0
2818 -7274 0
2818 -7275 0
2818 -7276 0
7277 -7024 -7017 0
-7277 7024 0
-7277 7017 0
7062 -7017 -7017 0
-7062 7017 0
-7062 7017 0
7278 -7017 -7024 0
-7278 7017 0
-7278 7024 0
7279 -7024 -7024 -7065 0
-7279 7024 0
-7279 7024 0
-7279 7065 0
-2798 7014 7277 7062 7278 7279 0
2798 -7014 0
2798 -7277 0
2798 -7062 0
2798 -7278 0
2798 -7279 0
7280 -7024 -7070 0
-7280 7024 0
-7280 7070 0
7281 -7017 -7070 0
-7281 7017 0
-7281 7070 0
7282 -7017 -7090 0
-7282 7017 0
-7282 7090 0
7283 -7024 -7090 -7065 0
-7283 7024 0
-7283 7090 0
-7283 7065 0
-2802 7038 7280 7281 7282 7283 0
2802 -7038 0
2802 -7280 0
2802 -7281 0
2802 -7282 0
2802 -7283 0
7284 -7024 -7075 0
-7284 7024 0
-7284 7075 0
7285 -7017 -7080 0
-7285 7017 0
-7285 7080 0
7286 -7017 -7075 0
-7286 7017 0
-7286 7075 0
7287 -7024 -7080 -7065 0
-7287 7024 0
-7287 7080 0
-7287 7065 0
-2809 7045 7284 7285 7286 7287 0
2809 -7045 0
2809 -7284 0
2809 -7285 0
2809 -7286 0
2809 -7287 0
7288 -7026 -7075 0
-7288 7026 0
-7288 7075 0
7289 -7020 -7075 0
-7289 7020 0
-7289 7075 0
7290 -7020 -7080 0
-7290 7020 0
-7290 7080 0
7291 -7026 -7080 -7065 0
-7291 7026 0
-7291 7080 0
-7291 7065 0
-2811 7047 7288 7289 7290 7291 0
2811 -7047 0
2811 -7288 0
2811 -7289 0
2811 -7290 0
2811 -7291 0
7292 -7090 -7060 0
-7292 7090 0
-7292 7060 0
7293 -7070 -7036 0
-7293 7070 0
-7293 7036 0
7294 -7070 -7060 0
-7294 7070 0
-7294 7060 0
7295 -7090 -7036 -7065 0
-7295 7090 0
-7295 7036 0
-7295 7065 0
-2826 7085 7292 7293 7294 7295 0
2826 -7085 0
2826 -7292 0
2826 -7293 0
2826 -7294 0
2826 -7295 0
7296 -7090 -7020 0
-7296 7090 0
-7296 7020 0
7297 -7070 -7026 0
-7297 7070 0
-7297 7026 0
7298 -7070 -7020 0
-7298 7070 0
-7298 7020 0
7299 -7090 -7026 -7065 0
-7299 7090 0
-7299 7026 0
-7299 7065 0
-2805 7041 7296 7297 7298 7299 0
2805 -7041 0
2805 -7296 0
2805 -7297 0
2805 -7298 0
2805 -7299 0
7300 -7090 -7070 0
-7300 7090 0
-7300 7070 0
7301 -7070 -7070 0
-7301 7070 0
-7301 7070 0
7302 -7070 -7090 0
-7302 7070 0
-7302 7090 0
7303 -7090 -7090 -7065 0
-7303 7090 0
-7303 7090 0
-7303 7065 0
-2832 7095 7300 7301 7302 7303 0
2832 -7095 0
2832 -7300 0
2832 -7301 0
2832 -7302 0
2832 -7303 0
7304 -7029 -7029 0
-7304 7029 0
-7304 7029 0
-5414 7015 7304 0
5414 -7015 0
5414 -7304 0
7305 -7029 -7024 0
-7305 7029 0
-7305 7024 0
-5432 7010 7305 0
5432 -7010 0
5432 -7305 0
7306 -7029 -7026 0
-7306 7029 0
-7306 7026 0
-5412 7009 7306 0
5412 -7009 0
5412 -7306 0
7307 -7036 -7026 0
-7307 7036 0
-7307 7026 0
-2252 7031 7307 0
2252 -7031 0
2252 -7307 0
7308 -7029 -7090 0
-7308 7029 0
-7308 7090 0
-5416 7043 7308 0
5416 -7043 0
5416 -7308 0
7309 -7029 -7080 0
-7309 7029 0
-7309 7080 0
-5418 7050 7309 0
5418 -7050 0
5418 -7309 0
7310 -7036 -7080 0
-7310 7036 0
-7310 7080 0
-2249 7055 7310 0
2249 -7055 0
2249 -7310 0
7311 -7024 -7036 0
-7311 7024 0
-7311 7036 0
-2242 7033 7311 0
2242 -7033 0
2242 -7311 0
7312 -7024 -7024 0
-7312 7024 0
-7312 7024 0
-2244 7014 7312 0
2244 -7014 0
2244 -7312 0
7313 -7024 -7090 0
-7313 7024 0
-7313 7090 0
-2247 7038 7313 0
2247 -7038 0
2247 -7313 0
7314 -7024 -7080 0
-7314 7024 0
-7314 7080 0
-2250 7045 7314 0
2250 -7045 0
2250 -7314 0
7315 -7026 -7080 0
-7315 7026 0
-7315 7080 0
-2253 7047 7315 0
2253 -7047 0
2253 -7315 0
7316 -7090 -7036 0
-7316 7090 0
-7316 7036 0
-2246 7085 7316 0
2246 -7085 0
2246 -7316 0
7317 -7090 -7026 0
-7317 7090 0
-7317 7026 0
-2255 7041 7317 0
2255 -7041 0
2255 -7317 0
7318 -7090 -7090 0
-7318 7090 0
-7318 7090 0
-2258 7095 7318 0
2258 -7095 0
2258 -7318 0
7319 -6511 -6504 0
-7319 6511 0
-7319 6504 0
7320 -6504 -6504 0
-7320 6504 0
-7320 6504 0
7321 -6504 -6511 0
-7321 6504 0
-7321 6511 0
7322 -6511 -6511 -6547 0
-7322 6511 0
-7322 6511 0
-7322 6547 0
-3802 6497 7319 7320 7321 7322 0
3802 -6497 0
3802 -7319 0
3802 -7320 0
3802 -7321 0
3802 -7322 0
7323 -6511 -6499 0
-7323 6511 0
-7323 6499 0
7324 -6504 -6499 0
-7324 6504 0
-7324 6499 0
7325 -6504 -6506 0
-7325 6504 0
-7325 6506 0
7326 -6511 -6506 -6547 0
-7326 6511 0
-7326 6506 0
-7326 6547 0
-3798 6492 7323 7324 7325 7326 0
3798 -6492 0
3798 -7323 0
3798 -7324 0
3798 -7325 0
3798 -7326 0
7327 -6511 -6502 0
-7327 6511 0
-7327 6502 0
7328 -6504 -6508 0
-7328 6504 0
-7328 6508 0
7329 -6504 -6502 0
-7329 6504 0
-7329 6502 0
7330 -6511 -6508 -6547 0
-7330 6511 0
-7330 6508 0
-7330 6547 0
-3816 6491 7327 7328 7329 7330 0
3816 -6491 0
3816 -7327 0
3816 -7328 0
3816 -7329 0
3816 -7330 0
7331 -6518 -6502 0
-7331 6518 0
-7331 6502 0
7332 -6542 -6502 0
-7332 6542 0
-7332 6502 0
7333 -6542 -6508 0
-7333 6542 0
-7333 6508 0
7334 -6518 -6508 -6547 0
-7334 6518 0
-7334 6508 0
-7334 6547 0
-2874 6513 7331 7332 7333 7334 0
2874 -6513 0
2874 -7331 0
2874 -7332 0
2874 -7333 0
2874 -7334 0
7335 -6511 -6552 0
-7335 6511 0
-7335 6552 0
7336 -6504 -6552 0
-7336 6504 0
-7336 6552 0
7337 -6504 -6572 0
-7337 6504 0
-7337 6572 0
7338 -6511 -6572 -6547 0
-7338 6511 0
-7338 6572 0
-7338 6547 0
-3805 6525 7335 7336 7337 7338 0
3805 -6525 0
3805 -7335 0
3805 -7336 0
3805 -7337 0
3805 -7338 0
7339 -6511 -6557 0
-7339 6511 0
-7339 6557 0
7340 -6504 -6562 0
-7340 6504 0
-7340 6562 0
7341 -6504 -6557 0
-7341 6504 0
-7341 6557 0
7342 -6511 -6562 -6547 0
-7342 6511 0
-7342 6562 0
-7342 6547 0
-3810 6532 7339 7340 7341 7342 0
3810 -6532 0
3810 -7339 0
3810 -7340 0
3810 -7341 0
3810 -7342 0
7343 -6518 -6557 0
-7343 6518 0
-7343 6557 0
7344 -6542 -6557 0
-7344 6542 0
-7344 6557 0
7345 -6542 -6562 0
-7345 6542 0
-7345 6562 0
7346 -6518 -6562 -6547 0
-7346 6518 0
-7346 6562 0
-7346 6547 0
-2871 6537 7343 7344 7345 7346 0
2871 -6537 0
2871 -7343 0
2871 -7344 0
2871 -7345 0
2871 -7346 0
7347 -6506 -6542 0
-7347 6506 0
-7347 6542 0
7348 -6499 -6518 0
-7348 6499 0
-7348 6518 0
7349 -6499 -6542 0
-7349 6499 0
-7349 6542 0
7350 -6506 -6518 -6547 0
-7350 6506 0
-7350 6518 0
-7350 6547 0
-2864 6515 7347 7348 7349 7350 0
2864 -6515 0
2864 -7347 0
2864 -7348 0
2864 -7349 0
2864 -7350 0
7351 -6506 -6499 0
-7351 6506 0
-7351 6499 0
6544 -6499 -6499 0
-6544 6499 0
-6544 6499 0
7352 -6499 -6506 0
-7352 6499 0
-7352 6506 0
7353 -6506 -6506 -6547 0
-7353 6506 0
-7353 6506 0
-7353 6547 0
-2866 6496 7351 6544 7352 7353 0
2866 -6496 0
2866 -7351 0
2866 -6544 0
2866 -7352 0
2866 -7353 0
7354 -6506 -6552 0
-7354 6506 0
-7354 6552 0
7355 -6499 -6552 0
-7355 6499 0
-7355 6552 0
7356 -6499 -6572 0
-7356 6499 0
-7356 6572 0
7357 -6506 -6572 -6547 0
-7357 6506 0
-7357 6572 0
-7357 6547 0
-2869 6520 7354 7355 7356 7357 0
2869 -6520 0
2869 -7354 0
2869 -7355 0
2869 -7356 0
2869 -7357 0
7358 -6506 -6557 0
-7358 6506 0
-7358 6557 0
7359 -6499 -6562 0
-7359 6499 0
-7359 6562 0
7360 -6499 -6557 0
-7360 6499 0
-7360 6557 0
7361 -6506 -6562 -6547 0
-7361 6506 0
-7361 6562 0
-7361 6547 0
-2872 6527 7358 7359 7360 7361 0
2872 -6527 0
2872 -7358 0
2872 -7359 0
2872 -7360 0
2872 -7361 0
7362 -6508 -6557 0
-7362 6508 0
-7362 6557 0
7363 -6502 -6557 0
-7363 6502 0
-7363 6557 0
7364 -6502 -6562 0
-7364 6502 0
-7364 6562 0
7365 -6508 -6562 -6547 0
-7365 6508 0
-7365 6562 0
-7365 6547 0
-2875 6529 7362 7363 7364 7365 0
2875 -6529 0
2875 -7362 0
2875 -7363 0
2875 -7364 0
2875 -7365 0
7366 -6572 -6542 0
-7366 6572 0
-7366 6542 0
7367 -6552 -6518 0
-7367 6552 0
-7367 6518 0
7368 -6552 -6542 0
-7368 6552 0
-7368 6542 0
7369 -6572 -6518 -6547 0
-7369 6572 0
-7369 6518 0
-7369 6547 0
-2868 6567 7366 7367 7368 7369 0
2868 -6567 0
2868 -7366 0
2868 -7367 0
2868 -7368 0
2868 -7369 0
7370 -6572 -6502 0
-7370 6572 0
-7370 6502 0
7371 -6552 -6508 0
-7371 6552 0
-7371 6508 0
7372 -6552 -6502 0
-7372 6552 0
-7372 6502 0
7373 -6572 -6508 -6547 0
-7373 6572 0
-7373 6508 0
-7373 6547 0
-2877 6523 7370 7371 7372 7373 0
2877 -6523 0
2877 -7370 0
2877 -7371 0
2877 -7372 0
2877 -7373 0
7374 -6572 -6552 0
-7374 6572 0
-7374 6552 0
7375 -6552 -6552 0
-7375 6552 0
-7375 6552 0
7376 -6552 -6572 0
-7376 6552 0
-7376 6572 0
7377 -6572 -6572 -6547 0
-7377 6572 0
-7377 6572 0
-7377 6547 0
-2880 6577 7374 7375 7376 7377 0
2880 -6577 0
2880 -7374 0
2880 -7375 0
2880 -7376 0
2880 -7377 0
7378 -7050 -7050 0
-7378 7050 0
-7378 7050 0
-2041 7015 7378 0
2041 -7015 0
2041 -7378 0
7379 -7050 -7045 0
-7379 7050 0
-7379 7045 0
-2044 7010 7379 0
2044 -7010 0
2044 -7379 0
7380 -7050 -7047 0
-7380 7050 0
-7380 7047 0
-2047 7009 7380 0
2047 -7009 0
2047 -7380 0
7381 -7055 -7047 0
-7381 7055 0
-7381 7047 0
-2050 7031 7381 0
2050 -7031 0
2050 -7381 0
7382 -7050 -7075 0
-7382 7050 0
-7382 7075 0
-2882 7022 7382 0
2882 -7022 0
2882 -7382 0
7383 -7050 -7080 0
-7383 7050 0
-7383 7080 0
-2039 7029 7383 0
2039 -7029 0
2039 -7383 0
7384 -7055 -7080 0
-7384 7055 0
-7384 7080 0
-2049 7036 7384 0
2049 -7036 0
2049 -7384 0
7385 -7045 -7055 0
-7385 7045 0
-7385 7055 0
-2052 7033 7385 0
2052 -7033 0
2052 -7385 0
7386 -7045 -7045 0
-7386 7045 0
-7386 7045 0
-2055 7014 7386 0
2055 -7014 0
2055 -7386 0
7387 -7045 -7075 0
-7387 7045 0
-7387 7075 0
-2889 7017 7387 0
2889 -7017 0
2889 -7387 0
7388 -7045 -7080 0
-7388 7045 0
-7388 7080 0
-2043 7024 7388 0
2043 -7024 0
2043 -7388 0
7389 -7047 -7080 0
-7389 7047 0
-7389 7080 0
-2046 7026 7389 0
2046 -7026 0
2046 -7389 0
7390 -7075 -7055 0
-7390 7075 0
-7390 7055 0
-2900 7060 7390 0
2900 -7060 0
2900 -7390 0
7391 -7075 -7047 0
-7391 7075 0
-7391 7047 0
-2894 7020 7391 0
2894 -7020 0
2894 -7391 0
7392 -7075 -7075 0
-7392 7075 0
-7392 7075 0
-2886 7065 7392 0
2886 -7065 0
2886 -7392 0
7393 -6615 -7394 0
-7393 6615 0
-7393 7394 0
7395 -7394 -7394 0
-7395 7394 0
-7395 7394 0
7396 -7394 -6615 0
-7396 7394 0
-7396 6615 0
7397 -6615 -6615 -7398 0
-7397 6615 0
-7397 6615 0
-7397 7398 0
-1646 6616 7393 7395 7396 7397 0
1646 -6616 0
1646 -7393 0
1646 -7395 0
1646 -7396 0
1646 -7397 0
7399 -6615 -7400 0
-7399 6615 0
-7399 7400 0
7401 -7394 -7400 0
-7401 7394 0
-7401 7400 0
7402 -7394 -6618 0
-7402 7394 0
-7402 6618 0
7403 -6615 -6618 -7398 0
-7403 6615 0
-7403 6618 0
-7403 7398 0
-3375 6619 7399 7401 7402 7403 0
3375 -6619 0
3375 -7399 0
3375 -7401 0
3375 -7402 0
3375 -7403 0
7404 -6615 -7405 0
-7404 6615 0
-7404 7405 0
7406 -7394 -6621 0
-7406 7394 0
-7406 6621 0
7407 -7394 -7405 0
-7407 7394 0
-7407 7405 0
7408 -6615 -6621 -7398 0
-7408 6615 0
-7408 6621 0
-7408 7398 0
-1644 6622 7404 7406 7407 7408 0
1644 -6622 0
1644 -7404 0
1644 -7406 0
1644 -7407 0
1644 -7408 0
7409 -6624 -7405 0
-7409 6624 0
-7409 7405 0
7410 -7411 -7405 0
-7410 7411 0
-7410 7405 0
7412 -7411 -6621 0
-7412 7411 0
-7412 6621 0
7413 -6624 -6621 -7398 0
-7413 6624 0
-7413 6621 0
-7413 7398 0
-1269 6625 7409 7410 7412 7413 0
1269 -6625 0
1269 -7409 0
1269 -7410 0
1269 -7412 0
1269 -7413 0
7414 -6615 -7415 0
-7414 6615 0
-7414 7415 0
7416 -7394 -7415 0
-7416 7394 0
-7416 7415 0
7417 -7394 -6627 0
-7417 7394 0
-7417 6627 0
7418 -6615 -6627 -7398 0
-7418 6615 0
-7418 6627 0
-7418 7398 0
-1648 6628 7414 7416 7417 7418 0
1648 -6628 0
1648 -7414 0
1648 -7416 0
1648 -7417 0
1648 -7418 0
7419 -6615 -7420 0
-7419 6615 0
-7419 7420 0
7421 -7394 -6630 0
-7421 7394 0
-7421 6630 0
7422 -7394 -7420 0
-7422 7394 0
-7422 7420 0
7423 -6615 -6630 -7398 0
-7423 6615 0
-7423 6630 0
-7423 7398 0
-1650 6631 7419 7421 7422 7423 0
1650 -6631 0
1650 -7419 0
1650 -7421 0
1650 -7422 0
1650 -7423 0
7424 -6624 -7420 0
-7424 6624 0
-7424 7420 0
7425 -7411 -7420 0
-7425 7411 0
-7425 7420 0
7426 -7411 -6630 0
-7426 7411 0
-7426 6630 0
7427 -6624 -6630 -7398 0
-7427 6624 0
-7427 6630 0
-7427 7398 0
-1266 6633 7424 7425 7426 7427 0
1266 -6633 0
1266 -7424 0
1266 -7425 0
1266 -7426 0
1266 -7427 0
7428 -6618 -7411 0
-7428 6618 0
-7428 7411 0
7429 -7400 -6624 0
-7429 7400 0
-7429 6624 0
7430 -7400 -7411 0
-7430 7400 0
-7430 7411 0
7431 -6618 -6624 -7398 0
-7431 6618 0
-7431 6624 0
-7431 7398 0
-1259 6635 7428 7429 7430 7431 0
1259 -6635 0
1259 -7428 0
1259 -7429 0
1259 -7430 0
1259 -7431 0
7432 -6618 -7400 0
-7432 6618 0
-7432 7400 0
7433 -7400 -7400 0
-7433 7400 0
-7433 7400 0
7434 -7400 -6618 0
-7434 7400 0
-7434 6618 0
7435 -6618 -6618 -7398 0
-7435 6618 0
-7435 6618 0
-7435 7398 0
-1261 6637 7432 7433 7434 7435 0
1261 -6637 0
1261 -7432 0
1261 -7433 0
1261 -7434 0
1261 -7435 0
7436 -6618 -7415 0
-7436 6618 0
-7436 7415 0
7437 -7400 -7415 0
-7437 7400 0
-7437 7415 0
7438 -7400 -6627 0
-7438 7400 0
-7438 6627 0
7439 -6618 -6627 -7398 0
-7439 6618 0
-7439 6627 0
-7439 7398 0
-1264 6639 7436 7437 7438 7439 0
1264 -6639 0
1264 -7436 0
1264 -7437 0
1264 -7438 0
1264 -7439 0
7440 -6618 -7420 0
-7440 6618 0
-7440 7420 0
7441 -7400 -6630 0
-7441 7400 0
-7441 6630 0
7442 -7400 -7420 0
-7442 7400 0
-7442 7420 0
7443 -6618 -6630 -7398 0
-7443 6618 0
-7443 6630 0
-7443 7398 0
-1267 6641 7440 7441 7442 7443 0
1267 -6641 0
1267 -7440 0
1267 -7441 0
1267 -7442 0
1267 -7443 0
7444 -6621 -7420 0
-7444 6621 0
-7444 7420 0
7445 -7405 -7420 0
-7445 7405 0
-7445 7420 0
7446 -7405 -6630 0
-7446 7405 0
-7446 6630 0
7447 -6621 -6630 -7398 0
-7447 6621 0
-7447 6630 0
-7447 7398 0
-1270 6643 7444 7445 7446 7447 0
1270 -6643 0
1270 -7444 0
1270 -7445 0
1270 -7446 0
1270 -7447 0
7448 -6627 -7411 0
-7448 6627 0
-7448 7411 0
7449 -7415 -6624 0
-7449 7415 0
-7449 6624 0
7450 -7415 -7411 0
-7450 7415 0
-7450 7411 0
7451 -6627 -6624 -7398 0
-7451 6627 0
-7451 6624 0
-7451 7398 0
-1263 6645 7448 7449 7450 7451 0
1263 -6645 0
1263 -7448 0
1263 -7449 0
1263 -7450 0
1263 -7451 0
7452 -6627 -7405 0
-7452 6627 0
-7452 7405 0
7453 -7415 -6621 0
-7453 7415 0
-7453 6621 0
7454 -7415 -7405 0
-7454 7415 0
-7454 7405 0
7455 -6627 -6621 -7398 0
-7455 6627 0
-7455 6621 0
-7455 7398 0
-1272 6647 7452 7453 7454 7455 0
1272 -6647 0
1272 -7452 0
1272 -7453 0
1272 -7454 0
1272 -7455 0
7456 -6627 -7415 0
-7456 6627 0
-7456 7415 0
7457 -7415 -7415 0
-7457 7415 0
-7457 7415 0
7458 -7415 -6627 0
-7458 7415 0
-7458 6627 0
7459 -6627 -6627 -7398 0
-7459 6627 0
-7459 6627 0
-7459 7398 0
-1275 6649 7456 7457 7458 7459 0
1275 -6649 0
1275 -7456 0
1275 -7457 0
1275 -7458 0
1275 -7459 0
7460 -7461 -7462 0
-7460 7461 0
-7460 7462 0
7463 -7462 -7462 0
-7463 7462 0
-7463 7462 0
7464 -7462 -7461 0
-7464 7462 0
-7464 7461 0
7465 -7461 -7461 -7466 0
-7465 7461 0
-7465 7461 0
-7465 7466 0
-5865 7467 7460 7463 7464 7465 0
5865 -7467 0
5865 -7460 0
5865 -7463 0
5865 -7464 0
5865 -7465 0
7468 -7461 -7469 0
-7468 7461 0
-7468 7469 0
7470 -7462 -7469 0
-7470 7462 0
-7470 7469 0
7471 -7462 -7472 0
-7471 7462 0
-7471 7472 0
7473 -7461 -7472 -7466 0
-7473 7461 0
-7473 7472 0
-7473 7466 0
-5861 7474 7468 7470 7471 7473 0
5861 -7474 0
5861 -7468 0
5861 -7470 0
5861 -7471 0
5861 -7473 0
7475 -7461 -7476 0
-7475 7461 0
-7475 7476 0
7477 -7462 -7478 0
-7477 7462 0
-7477 7478 0
7479 -7462 -7476 0
-7479 7462 0
-7479 7476 0
7480 -7461 -7478 -7466 0
-7480 7461 0
-7480 7478 0
-7480 7466 0
-5885 7481 7475 7477 7479 7480 0
5885 -7481 0
5885 -7475 0
5885 -7477 0
5885 -7479 0
5885 -7480 0
7482 -7483 -7476 0
-7482 7483 0
-7482 7476 0
7484 -7485 -7476 0
-7484 7485 0
-7484 7476 0
7486 -7485 -7478 0
-7486 7485 0
-7486 7478 0
7487 -7483 -7478 -7466 0
-7487 7483 0
-7487 7478 0
-7487 7466 0
-5883 7488 7482 7484 7486 7487 0
5883 -7488 0
5883 -7482 0
5883 -7484 0
5883 -7486 0
5883 -7487 0
7489 -7461 -7490 0
-7489 7461 0
-7489 7490 0
7491 -7462 -7490 0
-7491 7462 0
-7491 7490 0
7492 -7462 -7493 0
-7492 7462 0
-7492 7493 0
7494 -7461 -7493 -7466 0
-7494 7461 0
-7494 7493 0
-7494 7466 0
-5869 7495 7489 7491 7492 7494 0
5869 -7495 0
5869 -7489 0
5869 -7491 0
5869 -7492 0
5869 -7494 0
7496 -7461 -7497 0
-7496 7461 0
-7496 7497 0
7498 -7462 -7499 0
-7498 7462 0
-7498 7499 0
7500 -7462 -7497 0
-7500 7462 0
-7500 7497 0
7501 -7461 -7499 -7466 0
-7501 7461 0
-7501 7499 0
-7501 7466 0
-5876 7502 7496 7498 7500 7501 0
5876 -7502 0
5876 -7496 0
5876 -7498 0
5876 -7500 0
5876 -7501 0
7503 -7483 -7497 0
-7503 7483 0
-7503 7497 0
7504 -7485 -7497 0
-7504 7485 0
-7504 7497 0
7505 -7485 -7499 0
-7505 7485 0
-7505 7499 0
7506 -7483 -7499 -7466 0
-7506 7483 0
-7506 7499 0
-7506 7466 0
-5878 7507 7503 7504 7505 7506 0
5878 -7507 0
5878 -7503 0
5878 -7504 0
5878 -7505 0
5878 -7506 0
7508 -7472 -7485 0
-7508 7472 0
-7508 7485 0
7509 -7469 -7483 0
-7509 7469 0
-7509 7483 0
7510 -7469 -7485 0
-7510 7469 0
-7510 7485 0
7511 -7472 -7483 -7466 0
-7511 7472 0
-7511 7483 0
-7511 7466 0
-5860 7512 7508 7509 7510 7511 0
5860 -7512 0
5860 -7508 0
5860 -7509 0
5860 -7510 0
5860 -7511 0
7513 -7472 -7469 0
-7513 7472 0
-7513 7469 0
7514 -7469 -7469 0
-7514 7469 0
-7514 7469 0
7515 -7469 -7472 0
-7515 7469 0
-7515 7472 0
7516 -7472 -7472 -7466 0
-7516 7472 0
-7516 7472 0
-7516 7466 0
-5867 7517 7513 7514 7515 7516 0
5867 -7517 0
5867 -7513 0
5867 -7514 0
5867 -7515 0
5867 -7516 0
7518 -7472 -7490 0
-7518 7472 0
-7518 7490 0
7519 -7469 -7490 0
-7519 7469 0
-7519 7490 0
7520 -7469 -7493 0
-7520 7469 0
-7520 7493 0
7521 -7472 -7493 -7466 0
-7521 7472 0
-7521 7493 0
-7521 7466 0
-5874 7522 7518 7519 7520 7521 0
5874 -7522 0
5874 -7518 0
5874 -7519 0
5874 -7520 0
5874 -7521 0
7523 -7472 -7497 0
-7523 7472 0
-7523 7497 0
7524 -7469 -7499 0
-7524 7469 0
-7524 7499 0
7525 -7469 -7497 0
-7525 7469 0
-7525 7497 0
7526 -7472 -7499 -7466 0
-7526 7472 0
-7526 7499 0
-7526 7466 0
-5881 7527 7523 7524 7525 7526 0
5881 -7527 0
5881 -7523 0
5881 -7524 0
5881 -7525 0
5881 -7526 0
7528 -7478 -7497 0
-7528 7478 0
-7528 7497 0
7529 -7476 -7497 0
-7529 7476 0
-7529 7497 0
7530 -7476 -7499 0
-7530 7476 0
-7530 7499 0
7531 -7478 -7499 -7466 0
-7531 7478 0
-7531 7499 0
-7531 7466 0
-5888 7532 7528 7529 7530 7531 0
5888 -7532 0
5888 -7528 0
5888 -7529 0
5888 -7530 0
5888 -7531 0
7533 -7493 -7485 0
-7533 7493 0
-7533 7485 0
7534 -7490 -7483 0
-7534 7490 0
-7534 7483 0
7535 -7490 -7485 0
-7535 7490 0
-7535 7485 0
7536 -7493 -7483 -7466 0
-7536 7493 0
-7536 7483 0
-7536 7466 0
-5872 7537 7533 7534 7535 7536 0
5872 -7537 0
5872 -7533 0
5872 -7534 0
5872 -7535 0
5872 -7536 0
7538 -7493 -7476 0
-7538 7493 0
-7538 7476 0
7539 -7490 -7478 0
-7539 7490 0
-7539 7478 0
7540 -7490 -7476 0
-7540 7490 0
-7540 7476 0
7541 -7493 -7478 -7466 0
-7541 7493 0
-7541 7478 0
-7541 7466 0
-5893 7542 7538 7539 7540 7541 0
5893 -7542 0
5893 -7538 0
5893 -7539 0
5893 -7540 0
5893 -7541 0
7543 -7493 -7490 0
-7543 7493 0
-7543 7490 0
7544 -7490 -7490 0
-7544 7490 0
-7544 7490 0
7545 -7490 -7493 0
-7545 7490 0
-7545 7493 0
7546 -7493 -7493 -7466 0
-7546 7493 0
-7546 7493 0
-7546 7466 0
-5899 7547 7543 7544 7545 7546 0
5899 -7547 0
5899 -7543 0
5899 -7544 0
5899 -7545 0
5899 -7546 0
7548 -6471 -6471 0
-7548 6471 0
-7548 6471 0
-2136 6456 7548 0
2136 -6456 0
2136 -7548 0
7549 -6471 -6481 0
-7549 6471 0
-7549 6481 0
-4004 6459 7549 0
4004 -6459 0
4004 -7549 0
7550 -6471 -6483 0
-7550 6471 0
-7550 6483 0
-2134 6462 7550 0
2134 -6462 0
2134 -7550 0
7551 -6473 -6483 0
-7551 6473 0
-7551 6483 0
-2144 6465 7551 0
2144 -6465 0
2144 -7551 0
7552 -6471 -7553 0
-7552 6471 0
-7552 7553 0
-2139 7554 7552 0
2139 -7554 0
2139 -7552 0
7555 -6471 -6470 0
-7555 6471 0
-7555 6470 0
-2142 6455 7555 0
2142 -6455 0
2142 -7555 0
7556 -6473 -6470 0
-7556 6473 0
-7556 6470 0
-2145 6464 7556 0
2145 -6464 0
2145 -7556 0
7557 -6481 -6473 0
-7557 6481 0
-7557 6473 0
-4008 6475 7557 0
4008 -6475 0
4008 -7557 0
7558 -6481 -6481 0
-7558 6481 0
-7558 6481 0
-4011 6477 7558 0
4011 -6477 0
4011 -7558 0
7559 -6481 -7553 0
-7559 6481 0
-7559 7553 0
-4392 7560 7559 0
4392 -7560 0
4392 -7559 0
7561 -6481 -6470 0
-7561 6481 0
-7561 6470 0
-4003 6458 7561 0
4003 -6458 0
4003 -7561 0
7562 -6483 -6470 0
-7562 6483 0
-7562 6470 0
-2141 6461 7562 0
2141 -6461 0
2141 -7562 0
7563 -7553 -6473 0
-7563 7553 0
-7563 6473 0
-2147 7564 7563 0
2147 -7564 0
2147 -7563 0
7565 -7553 -6483 0
-7565 7553 0
-7565 6483 0
-2138 7566 7565 0
2138 -7566 0
2138 -7565 0
7567 -7553 -7553 0
-7567 7553 0
-7567 7553 0
-2150 7568 7567 0
2150 -7568 0
2150 -7567 0
7569 -7570 -7570 0
-7569 7570 0
-7569 7570 0
-3835 7571 7569 0
3835 -7571 0
3835 -7569 0
7572 -7570 -7573 0
-7572 7570 0
-7572 7573 0
-3830 7574 7572 0
3830 -7574 0
3830 -7572 0
7575 -7570 -7576 0
-7575 7570 0
-7575 7576 0
-3829 7577 7575 0
3829 -7577 0
3829 -7575 0
7578 -7579 -7576 0
-7578 7579 0
-7578 7576 0
-2785 7580 7578 0
2785 -7580 0
2785 -7578 0
7581 -7570 -7582 0
-7581 7570 0
-7581 7582 0
-3840 7583 7581 0
3840 -7583 0
3840 -7581 0
7584 -7570 -7585 0
-7584 7570 0
-7584 7585 0
-3845 7586 7584 0
3845 -7586 0
3845 -7584 0
7587 -7579 -7585 0
-7587 7579 0
-7587 7585 0
-2782 7588 7587 0
2782 -7588 0
2782 -7587 0
7589 -7573 -7579 0
-7589 7573 0
-7589 7579 0
-2775 7590 7589 0
2775 -7590 0
2775 -7589 0
7591 -7573 -7573 0
-7591 7573 0
-7591 7573 0
-2777 7592 7591 0
2777 -7592 0
2777 -7591 0
7593 -7573 -7582 0
-7593 7573 0
-7593 7582 0
-2780 7594 7593 0
2780 -7594 0
2780 -7593 0
7595 -7573 -7585 0
-7595 7573 0
-7595 7585 0
-2783 7596 7595 0
2783 -7596 0
2783 -7595 0
7597 -7576 -7585 0
-7597 7576 0
-7597 7585 0
-2786 7598 7597 0
2786 -7598 0
2786 -7597 0
7599 -7582 -7579 0
-7599 7582 0
-7599 7579 0
-2779 7600 7599 0
2779 -7600 0
2779 -7599 0
7601 -7582 -7576 0
-7601 7582 0
-7601 7576 0
-2788 7602 7601 0
2788 -7602 0
2788 -7601 0
7603 -7582 -7582 0
-7603 7582 0
-7603 7582 0
-2791 7604 7603 0
2791 -7604 0
2791 -7603 0
7605 -6471 -6468 0
-7605 6471 0
-7605 6468 0
7606 -6468 -6468 0
-7606 6468 0
-7606 6468 0
7607 -6468 -6471 0
-7607 6468 0
-7607 6471 0
7608 -6471 -6471 -6489 0
-7608 6471 0
-7608 6471 0
-7608 6489 0
-2418 6456 7605 7606 7607 7608 0
2418 -6456 0
2418 -7605 0
2418 -7606 0
2418 -7607 0
2418 -7608 0
7609 -6471 -6479 0
-7609 6471 0
-7609 6479 0
7610 -6468 -6479 0
-7610 6468 0
-7610 6479 0
7611 -6468 -6481 0
-7611 6468 0
-7611 6481 0
7612 -6471 -6481 -6489 0
-7612 6471 0
-7612 6481 0
-7612 6489 0
-2414 6459 7609 7610 7611 7612 0
2414 -6459 0
2414 -7609 0
2414 -7610 0
2414 -7611 0
2414 -7612 0
7613 -6471 -6487 0
-7613 6471 0
-7613 6487 0
7614 -6468 -6483 0
-7614 6468 0
-7614 6483 0
7615 -6468 -6487 0
-7615 6468 0
-7615 6487 0
7616 -6471 -6483 -6489 0
-7616 6471 0
-7616 6483 0
-7616 6489 0
-2438 6462 7613 7614 7615 7616 0
2438 -6462 0
2438 -7613 0
2438 -7614 0
2438 -7615 0
2438 -7616 0
7617 -6473 -6487 0
-7617 6473 0
-7617 6487 0
7618 -6485 -6487 0
-7618 6485 0
-7618 6487 0
7619 -6485 -6483 0
-7619 6485 0
-7619 6483 0
7620 -6473 -6483 -6489 0
-7620 6473 0
-7620 6483 0
-7620 6489 0
-2436 6465 7617 7618 7619 7620 0
2436 -6465 0
2436 -7617 0
2436 -7618 0
2436 -7619 0
2436 -7620 0
7621 -6471 -7622 0
-7621 6471 0
-7621 7622 0
7623 -6468 -7622 0
-7623 6468 0
-7623 7622 0
7624 -6468 -7553 0
-7624 6468 0
-7624 7553 0
7625 -6471 -7553 -6489 0
-7625 6471 0
-7625 7553 0
-7625 6489 0
-2422 7554 7621 7623 7624 7625 0
2422 -7554 0
2422 -7621 0
2422 -7623 0
2422 -7624 0
2422 -7625 0
7626 -6471 -6467 0
-7626 6471 0
-7626 6467 0
7627 -6468 -6470 0
-7627 6468 0
-7627 6470 0
7628 -6468 -6467 0
-7628 6468 0
-7628 6467 0
7629 -6471 -6470 -6489 0
-7629 6471 0
-7629 6470 0
-7629 6489 0
-2429 6455 7626 7627 7628 7629 0
2429 -6455 0
2429 -7626 0
2429 -7627 0
2429 -7628 0
2429 -7629 0
7630 -6473 -6467 0
-7630 6473 0
-7630 6467 0
7631 -6485 -6467 0
-7631 6485 0
-7631 6467 0
7632 -6485 -6470 0
-7632 6485 0
-7632 6470 0
7633 -6473 -6470 -6489 0
-7633 6473 0
-7633 6470 0
-7633 6489 0
-2431 6464 7630 7631 7632 7633 0
2431 -6464 0
2431 -7630 0
2431 -7631 0
2431 -7632 0
2431 -7633 0
7634 -6481 -6485 0
-7634 6481 0
-7634 6485 0
7635 -6479 -6473 0
-7635 6479 0
-7635 6473 0
7636 -6479 -6485 0
-7636 6479 0
-7636 6485 0
7637 -6481 -6473 -6489 0
-7637 6481 0
-7637 6473 0
-7637 6489 0
-2413 6475 7634 7635 7636 7637 0
2413 -6475 0
2413 -7634 0
2413 -7635 0
2413 -7636 0
2413 -7637 0
7638 -6481 -6479 0
-7638 6481 0
-7638 6479 0
7639 -6479 -6479 0
-7639 6479 0
-7639 6479 0
7640 -6479 -6481 0
-7640 6479 0
-7640 6481 0
7641 -6481 -6481 -6489 0
-7641 6481 0
-7641 6481 0
-7641 6489 0
-2420 6477 7638 7639 7640 7641 0
2420 -6477 0
2420 -7638 0
2420 -7639 0
2420 -7640 0
2420 -7641 0
7642 -6481 -7622 0
-7642 6481 0
-7642 7622 0
7643 -6479 -7622 0
-7643 6479 0
-7643 7622 0
7644 -6479 -7553 0
-7644 6479 0
-7644 7553 0
7645 -6481 -7553 -6489 0
-7645 6481 0
-7645 7553 0
-7645 6489 0
-2427 7560 7642 7643 7644 7645 0
2427 -7560 0
2427 -7642 0
2427 -7643 0
2427 -7644 0
2427 -7645 0
7646 -6481 -6467 0
-7646 6481 0
-7646 6467 0
7647 -6479 -6470 0
-7647 6479 0
-7647 6470 0
7648 -6479 -6467 0
-7648 6479 0
-7648 6467 0
7649 -6481 -6470 -6489 0
-7649 6481 0
-7649 6470 0
-7649 6489 0
-2434 6458 7646 7647 7648 7649 0
2434 -6458 0
2434 -7646 0
2434 -7647 0
2434 -7648 0
2434 -7649 0
7650 -6483 -6467 0
-7650 6483 0
-7650 6467 0
7651 -6487 -6467 0
-7651 6487 0
-7651 6467 0
7652 -6487 -6470 0
-7652 6487 0
-7652 6470 0
7653 -6483 -6470 -6489 0
-7653 6483 0
-7653 6470 0
-7653 6489 0
-2441 6461 7650 7651 7652 7653 0
2441 -6461 0
2441 -7650 0
2441 -7651 0
2441 -7652 0
2441 -7653 0
7654 -7553 -6485 0
-7654 7553 0
-7654 6485 0
7655 -7622 -6473 0
-7655 7622 0
-7655 6473 0
7656 -7622 -6485 0
-7656 7622 0
-7656 6485 0
7657 -7553 -6473 -6489 0
-7657 7553 0
-7657 6473 0
-7657 6489 0
-2425 7564 7654 7655 7656 7657 0
2425 -7564 0
2425 -7654 0
2425 -7655 0
2425 -7656 0
2425 -7657 0
7658 -7553 -6487 0
-7658 7553 0
-7658 6487 0
7659 -7622 -6483 0
-7659 7622 0
-7659 6483 0
7660 -7622 -6487 0
-7660 7622 0
-7660 6487 0
7661 -7553 -6483 -6489 0
-7661 7553 0
-7661 6483 0
-7661 6489 0
-2446 7566 7658 7659 7660 7661 0
2446 -7566 0
2446 -7658 0
2446 -7659 0
2446 -7660 0
2446 -7661 0
7662 -7553 -7622 0
-7662 7553 0
-7662 7622 0
7663 -7622 -7622 0
-7663 7622 0
-7663 7622 0
7664 -7622 -7553 0
-7664 7622 0
-7664 7553 0
7665 -7553 -7553 -6489 0
-7665 7553 0
-7665 7553 0
-7665 6489 0
-2452 7568 7662 7663 7664 7665 0
2452 -7568 0
2452 -7662 0
2452 -7663 0
2452 -7664 0
2452 -7665 0
7666 -7667 -7668 0
-7666 7667 0
-7666 7668 0
7669 -7668 -7668 0
-7669 7668 0
-7669 7668 0
7670 -7668 -7667 0
-7670 7668 0
-7670 7667 0
7671 -7667 -7667 -7672 0
-7671 7667 0
-7671 7667 0
-7671 7672 0
-6108 7673 7666 7669 7670 7671 0
6108 -7673 0
6108 -7666 0
6108 -7669 0
6108 -7670 0
6108 -7671 0
7674 -7667 -7675 0
-7674 7667 0
-7674 7675 0
7676 -7668 -7675 0
-7676 7668 0
-7676 7675 0
7677 -7668 -7678 0
-7677 7668 0
-7677 7678 0
7679 -7667 -7678 -7672 0
-7679 7667 0
-7679 7678 0
-7679 7672 0
-6104 7680 7674 7676 7677 7679 0
6104 -7680 0
6104 -7674 0
6104 -7676 0
6104 -7677 0
6104 -7679 0
7681 -7667 -7682 0
-7681 7667 0
-7681 7682 0
7683 -7668 -7684 0
-7683 7668 0
-7683 7684 0
7685 -7668 -7682 0
-7685 7668 0
-7685 7682 0
7686 -7667 -7684 -7672 0
-7686 7667 0
-7686 7684 0
-7686 7672 0
-6122 7687 7681 7683 7685 7686 0
6122 -7687 0
6122 -7681 0
6122 -7683 0
6122 -7685 0
6122 -7686 0
7688 -7689 -7682 0
-7688 7689 0
-7688 7682 0
7690 -7691 -7682 0
-7690 7691 0
-7690 7682 0
7692 -7691 -7684 0
-7692 7691 0
-7692 7684 0
7693 -7689 -7684 -7672 0
-7693 7689 0
-7693 7684 0
-7693 7672 0
-4161 7694 7688 7690 7692 7693 0
4161 -7694 0
4161 -7688 0
4161 -7690 0
4161 -7692 0
4161 -7693 0
7695 -7667 -7696 0
-7695 7667 0
-7695 7696 0
7697 -7668 -7696 0
-7697 7668 0
-7697 7696 0
7698 -7668 -7699 0
-7698 7668 0
-7698 7699 0
7700 -7667 -7699 -7672 0
-7700 7667 0
-7700 7699 0
-7700 7672 0
-6111 7701 7695 7697 7698 7700 0
6111 -7701 0
6111 -7695 0
6111 -7697 0
6111 -7698 0
6111 -7700 0
7702 -7667 -7703 0
-7702 7667 0
-7702 7703 0
7704 -7668 -7705 0
-7704 7668 0
-7704 7705 0
7706 -7668 -7703 0
-7706 7668 0
-7706 7703 0
7707 -7667 -7705 -7672 0
-7707 7667 0
-7707 7705 0
-7707 7672 0
-6116 7708 7702 7704 7706 7707 0
6116 -7708 0
6116 -7702 0
6116 -7704 0
6116 -7706 0
6116 -7707 0
7709 -7689 -7703 0
-7709 7689 0
-7709 7703 0
7710 -7691 -7703 0
-7710 7691 0
-7710 7703 0
7711 -7691 -7705 0
-7711 7691 0
-7711 7705 0
7712 -7689 -7705 -7672 0
-7712 7689 0
-7712 7705 0
-7712 7672 0
-4158 7713 7709 7710 7711 7712 0
4158 -7713 0
4158 -7709 0
4158 -7710 0
4158 -7711 0
4158 -7712 0
7714 -7678 -7691 0
-7714 7678 0
-7714 7691 0
7715 -7675 -7689 0
-7715 7675 0
-7715 7689 0
7716 -7675 -7691 0
-7716 7675 0
-7716 7691 0
7717 -7678 -7689 -7672 0
-7717 7678 0
-7717 7689 0
-7717 7672 0
-4151 7718 7714 7715 7716 7717 0
4151 -7718 0
4151 -7714 0
4151 -7715 0
4151 -7716 0
4151 -7717 0
7719 -7678 -7675 0
-7719 7678 0
-7719 7675 0
7720 -7675 -7675 0
-7720 7675 0
-7720 7675 0
7721 -7675 -7678 0
-7721 7675 0
-7721 7678 0
7722 -7678 -7678 -7672 0
-7722 7678 0
-7722 7678 0
-7722 7672 0
-4153 7723 7719 7720 7721 7722 0
4153 -7723 0
4153 -7719 0
4153 -7720 0
4153 -7721 0
4153 -7722 0
7724 -7678 -7696 0
-7724 7678 0
-7724 7696 0
7725 -7675 -7696 0
-7725 7675 0
-7725 7696 0
7726 -7675 -7699 0
-7726 7675 0
-7726 7699 0
7727 -7678 -7699 -7672 0
-7727 7678 0
-7727 7699 0
-7727 7672 0
-4156 7728 7724 7725 7726 7727 0
4156 -7728 0
4156 -7724 0
4156 -7725 0
4156 -7726 0
4156 -7727 0
7729 -7678 -7703 0
-7729 7678 0
-7729 7703 0
7730 -7675 -7705 0
-7730 7675 0
-7730 7705 0
7731 -7675 -7703 0
-7731 7675 0
-7731 7703 0
7732 -7678 -7705 -7672 0
-7732 7678 0
-7732 7705 0
-7732 7672 0
-4159 7733 7729 7730 7731 7732 0
4159 -7733 0
4159 -7729 0
4159 -7730 0
4159 -7731 0
4159 -7732 0
7734 -7684 -7703 0
-7734 7684 0
-7734 7703 0
7735 -7682 -7703 0
-7735 7682 0
-7735 7703 0
7736 -7682 -7705 0
-7736 7682 0
-7736 7705 0
7737 -7684 -7705 -7672 0
-7737 7684 0
-7737 7705 0
-7737 7672 0
-4162 7738 7734 7735 7736 7737 0
4162 -7738 0
4162 -7734 0
4162 -7735 0
4162 -7736 0
4162 -7737 0
7739 -7699 -7691 0
-7739 7699 0
-7739 7691 0
7740 -7696 -7689 0
-7740 7696 0
-7740 7689 0
7741 -7696 -7691 0
-7741 7696 0
-7741 7691 0
7742 -7699 -7689 -7672 0
-7742 7699 0
-7742 7689 0
-7742 7672 0
-4155 7743 7739 7740 7741 7742 0
4155 -7743 0
4155 -7739 0
4155 -7740 0
4155 -7741 0
4155 -7742 0
7744 -7699 -7682 0
-7744 7699 0
-7744 7682 0
7745 -7696 -7684 0
-7745 7696 0
-7745 7684 0
7746 -7696 -7682 0
-7746 7696 0
-7746 7682 0
7747 -7699 -7684 -7672 0
-7747 7699 0
-7747 7684 0
-7747 7672 0
-4164 7748 7744 7745 7746 7747 0
4164 -7748 0
4164 -7744 0
4164 -7745 0
4164 -7746 0
4164 -7747 0
7749 -7699 -7696 0
-7749 7699 0
-7749 7696 0
7750 -7696 -7696 0
-7750 7696 0
-7750 7696 0
7751 -7696 -7699 0
-7751 7696 0
-7751 7699 0
7752 -7699 -7699 -7672 0
-7752 7699 0
-7752 7699 0
-7752 7672 0
-4167 7753 7749 7750 7751 7752 0
4167 -7753 0
4167 -7749 0
4167 -7750 0
4167 -7751 0
4167 -7752 0
7754 -7755 -7755 0
-7754 7755 0
-7754 7755 0
-1738 7756 7754 0
1738 -7756 0
1738 -7754 0
7757 -7755 -7758 0
-7757 7755 0
-7757 7758 0
-1734 7759 7757 0
1734 -7759 0
1734 -7757 0
7760 -7755 -7761 0
-7760 7755 0
-7760 7761 0
-1758 7762 7760 0
1758 -7762 0
1758 -7760 0
7763 -7764 -7761 0
-7763 7764 0
-7763 7761 0
-1756 7765 7763 0
1756 -7765 0
1756 -7763 0
7766 -7755 -7767 0
-7766 7755 0
-7766 7767 0
-1742 7768 7766 0
1742 -7768 0
1742 -7766 0
7769 -7755 -7770 0
-7769 7755 0
-7769 7770 0
-1749 7771 7769 0
1749 -7771 0
1749 -7769 0
7772 -7764 -7770 0
-7772 7764 0
-7772 7770 0
-1751 7773 7772 0
1751 -7773 0
1751 -7772 0
7774 -7758 -7764 0
-7774 7758 0
-7774 7764 0
-1733 7775 7774 0
1733 -7775 0
1733 -7774 0
7776 -7758 -7758 0
-7776 7758 0
-7776 7758 0
-1740 7777 7776 0
1740 -7777 0
1740 -7776 0
7778 -7758 -7767 0
-7778 7758 0
-7778 7767 0
-1747 7779 7778 0
1747 -7779 0
1747 -7778 0
7780 -7758 -7770 0
-7780 7758 0
-7780 7770 0
-1754 7781 7780 0
1754 -7781 0
1754 -7780 0
7782 -7761 -7770 0
-7782 7761 0
-7782 7770 0
-1761 7783 7782 0
1761 -7783 0
1761 -7782 0
7784 -7767 -7764 0
-7784 7767 0
-7784 7764 0
-1745 7785 7784 0
1745 -7785 0
1745 -7784 0
7786 -7767 -7761 0
-7786 7767 0
-7786 7761 0
-1766 7787 7786 0
1766 -7787 0
1766 -7786 0
7788 -7767 -7767 0
-7788 7767 0
-7788 7767 0
-1772 7789 7788 0
1772 -7789 0
1772 -7788 0
7790 -7791 -7792 0
-7790 7791 0
-7790 7792 0
7793 -7792 -7792 0
-7793 7792 0
-7793 7792 0
7794 -7792 -7791 0
-7794 7792 0
-7794 7791 0
7795 -7791 -7791 -7796 0
-7795 7791 0
-7795 7791 0
-7795 7796 0
-2621 7797 7790 7793 7794 7795 0
2621 -7797 0
2621 -7790 0
2621 -7793 0
2621 -7794 0
2621 -7795 0
7798 -7791 -7799 0
-7798 7791 0
-7798 7799 0
7800 -7792 -7799 0
-7800 7792 0
-7800 7799 0
7801 -7792 -7802 0
-7801 7792 0
-7801 7802 0
7803 -7791 -7802 -7796 0
-7803 7791 0
-7803 7802 0
-7803 7796 0
-2617 7804 7798 7800 7801 7803 0
2617 -7804 0
2617 -7798 0
2617 -7800 0
2617 -7801 0
2617 -7803 0
7805 -7791 -7806 0
-7805 7791 0
-7805 7806 0
7807 -7792 -7808 0
-7807 7792 0
-7807 7808 0
7809 -7792 -7806 0
-7809 7792 0
-7809 7806 0
7810 -7791 -7808 -7796 0
-7810 7791 0
-7810 7808 0
-7810 7796 0
-2641 7811 7805 7807 7809 7810 0
2641 -7811 0
2641 -7805 0
2641 -7807 0
2641 -7809 0
2641 -7810 0
7812 -7813 -7806 0
-7812 7813 0
-7812 7806 0
7814 -7815 -7806 0
-7814 7815 0
-7814 7806 0
7816 -7815 -7808 0
-7816 7815 0
-7816 7808 0
7817 -7813 -7808 -7796 0
-7817 7813 0
-7817 7808 0
-7817 7796 0
-2639 7818 7812 7814 7816 7817 0
2639 -7818 0
2639 -7812 0
2639 -7814 0
2639 -7816 0
2639 -7817 0
7819 -7791 -7820 0
-7819 7791 0
-7819 7820 0
7821 -7792 -7820 0
-7821 7792 0
-7821 7820 0
7822 -7792 -7823 0
-7822 7792 0
-7822 7823 0
7824 -7791 -7823 -7796 0
-7824 7791 0
-7824 7823 0
-7824 7796 0
-2625 7825 7819 7821 7822 7824 0
2625 -7825 0
2625 -7819 0
2625 -7821 0
2625 -7822 0
2625 -7824 0
7826 -7791 -7827 0
-7826 7791 0
-7826 7827 0
7828 -7792 -7829 0
-7828 7792 0
-7828 7829 0
7830 -7792 -7827 0
-7830 7792 0
-7830 7827 0
7831 -7791 -7829 -7796 0
-7831 7791 0
-7831 7829 0
-7831 7796 0
-2632 7832 7826 7828 7830 7831 0
2632 -7832 0
2632 -7826 0
2632 -7828 0
2632 -7830 0
2632 -7831 0
7833 -7813 -7827 0
-7833 7813 0
-7833 7827 0
7834 -7815 -7827 0
-7834 7815 0
-7834 7827 0
7835 -7815 -7829 0
-7835 7815 0
-7835 7829 0
7836 -7813 -7829 -7796 0
-7836 7813 0
-7836 7829 0
-7836 7796 0
-2634 7837 7833 7834 7835 7836 0
2634 -7837 0
2634 -7833 0
2634 -7834 0
2634 -7835 0
2634 -7836 0
7838 -7802 -7815 0
-7838 7802 0
-7838 7815 0
7839 -7799 -7813 0
-7839 7799 0
-7839 7813 0
7840 -7799 -7815 0
-7840 7799 0
-7840 7815 0
7841 -7802 -7813 -7796 0
-7841 7802 0
-7841 7813 0
-7841 7796 0
-2616 7842 7838 7839 7840 7841 0
2616 -7842 0
2616 -7838 0
2616 -7839 0
2616 -7840 0
2616 -7841 0
7843 -7802 -7799 0
-7843 7802 0
-7843 7799 0
7844 -7799 -7799 0
-7844 7799 0
-7844 7799 0
7845 -7799 -7802 0
-7845 7799 0
-7845 7802 0
7846 -7802 -7802 -7796 0
-7846 7802 0
-7846 7802 0
-7846 7796 0
-2623 7847 7843 7844 7845 7846 0
2623 -7847 0
2623 -7843 0
2623 -7844 0
2623 -7845 0
2623 -7846 0
7848 -7802 -7820 0
-7848 7802 0
-7848 7820 0
7849 -7799 -7820 0
-7849 7799 0
-7849 7820 0
7850 -7799 -7823 0
-7850 7799 0
-7850 7823 0
7851 -7802 -7823 -7796 0
-7851 7802 0
-7851 7823 0
-7851 7796 0
-2630 7852 7848 7849 7850 7851 0
2630 -7852 0
2630 -7848 0
2630 -7849 0
2630 -7850 0
2630 -7851 0
7853 -7802 -7827 0
-7853 7802 0
-7853 7827 0
7854 -7799 -7829 0
-7854 7799 0
-7854 7829 0
7855 -7799 -7827 0
-7855 7799 0
-7855 7827 0
7856 -7802 -7829 -7796 0
-7856 7802 0
-7856 7829 0
-7856 7796 0
-2637 7857 7853 7854 7855 7856 0
2637 -7857 0
2637 -7853 0
2637 -7854 0
2637 -7855 0
2637 -7856 0
7858 -7808 -7827 0
-7858 7808 0
-7858 7827 0
7859 -7806 -7827 0
-7859 7806 0
-7859 7827 0
7860 -7806 -7829 0
-7860 7806 0
-7860 7829 0
7861 -7808 -7829 -7796 0
-7861 7808 0
-7861 7829 0
-7861 7796 0
-2644 7862 7858 7859 7860 7861 0
2644 -7862 0
2644 -7858 0
2644 -7859 0
2644 -7860 0
2644 -7861 0
7863 -7823 -7815 0
-7863 7823 0
-7863 7815 0
7864 -7820 -7813 0
-7864 7820 0
-7864 7813 0
7865 -7820 -7815 0
-7865 7820 0
-7865 7815 0
7866 -7823 -7813 -7796 0
-7866 7823 0
-7866 7813 0
-7866 7796 0
-2628 7867 7863 7864 7865 7866 0
2628 -7867 0
2628 -7863 0
2628 -7864 0
2628 -7865 0
2628 -7866 0
7868 -7823 -7806 0
-7868 7823 0
-7868 7806 0
7869 -7820 -7808 0
-7869 7820 0
-7869 7808 0
7870 -7820 -7806 0
-7870 7820 0
-7870 7806 0
7871 -7823 -7808 -7796 0
-7871 7823 0
-7871 7808 0
-7871 7796 0
-2649 7872 7868 7869 7870 7871 0
2649 -7872 0
2649 -7868 0
2649 -7869 0
2649 -7870 0
2649 -7871 0
7873 -7823 -7820 0
-7873 7823 0
-7873 7820 0
7874 -7820 -7820 0
-7874 7820 0
-7874 7820 0
7875 -7820 -7823 0
-7875 7820 0
-7875 7823 0
7876 -7823 -7823 -7796 0
-7876 7823 0
-7876 7823 0
-7876 7796 0
-2655 7877 7873 7874 7875 7876 0
2655 -7877 0
2655 -7873 0
2655 -7874 0
2655 -7875 0
2655 -7876 0
7878 -7762 -7762 0
-7878 7762 0
-7878 7762 0
-2946 7756 7878 0
2946 -7756 0
2946 -7878 0
7879 -7762 -7880 0
-7879 7762 0
-7879 7880 0
-2940 7881 7879 0
2940 -7881 0
2940 -7879 0
7882 -7762 -7761 0
-7882 7762 0
-7882 7761 0
-2939 7755 7882 0
2939 -7755 0
2939 -7882 0
7883 -7765 -7761 0
-7883 7765 0
-7883 7761 0
-2962 7764 7883 0
2962 -7764 0
2962 -7883 0
7884 -7762 -7787 0
-7884 7762 0
-7884 7787 0
-2953 7768 7884 0
2953 -7768 0
2953 -7884 0
7885 -7762 -7783 0
-7885 7762 0
-7885 7783 0
-2960 7771 7885 0
2960 -7771 0
2960 -7885 0
7886 -7765 -7783 0
-7886 7765 0
-7886 7783 0
-2967 7773 7886 0
2967 -7773 0
2967 -7886 0
7887 -7880 -7765 0
-7887 7880 0
-7887 7765 0
-2964 7888 7887 0
2964 -7888 0
2964 -7887 0
7889 -7880 -7880 0
-7889 7880 0
-7889 7880 0
-2944 7890 7889 0
2944 -7890 0
2944 -7889 0
7891 -7880 -7787 0
-7891 7880 0
-7891 7787 0
-2948 7892 7891 0
2948 -7892 0
2948 -7891 0
7893 -7880 -7783 0
-7893 7880 0
-7893 7783 0
-2955 7894 7893 0
2955 -7894 0
2955 -7893 0
7895 -7761 -7783 0
-7895 7761 0
-7895 7783 0
-2957 7770 7895 0
2957 -7770 0
2957 -7895 0
7896 -7787 -7765 0
-7896 7787 0
-7896 7765 0
-2972 7785 7896 0
2972 -7785 0
2972 -7896 0
7897 -7787 -7761 0
-7897 7787 0
-7897 7761 0
-2951 7767 7897 0
2951 -7767 0
2951 -7897 0
7898 -7787 -7787 0
-7898 7787 0
-7898 7787 0
-2978 7789 7898 0
2978 -7789 0
2978 -7898 0
7899 -7900 -7901 0
-7899 7900 0
-7899 7901 0
7902 -7901 -7901 0
-7902 7901 0
-7902 7901 0
7903 -7901 -7900 0
-7903 7901 0
-7903 7900 0
7904 -7900 -7900 -7905 0
-7904 7900 0
-7904 7900 0
-7904 7905 0
-5039 7906 7899 7902 7903 7904 0
5039 -7906 0
5039 -7899 0
5039 -7902 0
5039 -7903 0
5039 -7904 0
7907 -7900 -7908 0
-7907 7900 0
-7907 7908 0
7909 -7901 -7908 0
-7909 7901 0
-7909 7908 0
7910 -7901 -7911 0
-7910 7901 0
-7910 7911 0
7912 -7900 -7911 -7905 0
-7912 7900 0
-7912 7911 0
-7912 7905 0
-5035 7913 7907 7909 7910 7912 0
5035 -7913 0
5035 -7907 0
5035 -7909 0
5035 -7910 0
5035 -7912 0
7914 -7900 -7915 0
-7914 7900 0
-7914 7915 0
7916 -7901 -7917 0
-7916 7901 0
-7916 7917 0
7918 -7901 -7915 0
-7918 7901 0
-7918 7915 0
7919 -7900 -7917 -7905 0
-7919 7900 0
-7919 7917 0
-7919 7905 0
-5053 7920 7914 7916 7918 7919 0
5053 -7920 0
5053 -7914 0
5053 -7916 0
5053 -7918 0
5053 -7919 0
7921 -7922 -7915 0
-7921 7922 0
-7921 7915 0
7923 -7924 -7915 0
-7923 7924 0
-7923 7915 0
7925 -7924 -7917 0
-7925 7924 0
-7925 7917 0
7926 -7922 -7917 -7905 0
-7926 7922 0
-7926 7917 0
-7926 7905 0
-1446 7927 7921 7923 7925 7926 0
1446 -7927 0
1446 -7921 0
1446 -7923 0
1446 -7925 0
1446 -7926 0
7928 -7900 -7929 0
-7928 7900 0
-7928 7929 0
7930 -7901 -7929 0
-7930 7901 0
-7930 7929 0
7931 -7901 -7932 0
-7931 7901 0
-7931 7932 0
7933 -7900 -7932 -7905 0
-7933 7900 0
-7933 7932 0
-7933 7905 0
-5042 7934 7928 7930 7931 7933 0
5042 -7934 0
5042 -7928 0
5042 -7930 0
5042 -7931 0
5042 -7933 0
7935 -7900 -7936 0
-7935 7900 0
-7935 7936 0
7937 -7901 -7938 0
-7937 7901 0
-7937 7938 0
7939 -7901 -7936 0
-7939 7901 0
-7939 7936 0
7940 -7900 -7938 -7905 0
-7940 7900 0
-7940 7938 0
-7940 7905 0
-5047 7941 7935 7937 7939 7940 0
5047 -7941 0
5047 -7935 0
5047 -7937 0
5047 -7939 0
5047 -7940 0
7942 -7922 -7936 0
-7942 7922 0
-7942 7936 0
7943 -7924 -7936 0
-7943 7924 0
-7943 7936 0
7944 -7924 -7938 0
-7944 7924 0
-7944 7938 0
7945 -7922 -7938 -7905 0
-7945 7922 0
-7945 7938 0
-7945 7905 0
-1443 7946 7942 7943 7944 7945 0
1443 -7946 0
1443 -7942 0
1443 -7943 0
1443 -7944 0
1443 -7945 0
7947 -7911 -7924 0
-7947 7911 0
-7947 7924 0
7948 -7908 -7922 0
-7948 7908 0
-7948 7922 0
7949 -7908 -7924 0
-7949 7908 0
-7949 7924 0
7950 -7911 -7922 -7905 0
-7950 7911 0
-7950 7922 0
-7950 7905 0
-1436 7951 7947 7948 7949 7950 0
1436 -7951 0
1436 -7947 0
1436 -7948 0
1436 -7949 0
1436 -7950 0
7952 -7911 -7908 0
-7952 7911 0
-7952 7908 0
7953 -7908 -7908 0
-7953 7908 0
-7953 7908 0
7954 -7908 -7911 0
-7954 7908 0
-7954 7911 0
7955 -7911 -7911 -7905 0
-7955 7911 0
-7955 7911 0
-7955 7905 0
-1438 7956 7952 7953 7954 7955 0
1438 -7956 0
1438 -7952 0
1438 -7953 0
1438 -7954 0
1438 -7955 0
7957 -7911 -7929 0
-7957 7911 0
-7957 7929 0
7958 -7908 -7929 0
-7958 7908 0
-7958 7929 0
7959 -7908 -7932 0
-7959 7908 0
-7959 7932 0
7960 -7911 -7932 -7905 0
-7960 7911 0
-7960 7932 0
-7960 7905 0
-1441 7961 7957 7958 7959 7960 0
1441 -7961 0
1441 -7957 0
1441 -7958 0
1441 -7959 0
1441 -7960 0
7962 -7911 -7936 0
-7962 7911 0
-7962 7936 0
7963 -7908 -7938 0
-7963 7908 0
-7963 7938 0
7964 -7908 -7936 0
-7964 7908 0
-7964 7936 0
7965 -7911 -7938 -7905 0
-7965 7911 0
-7965 7938 0
-7965 7905 0
-1444 7966 7962 7963 7964 7965 0
1444 -7966 0
1444 -7962 0
1444 -7963 0
1444 -7964 0
1444 -7965 0
7967 -7917 -7936 0
-7967 7917 0
-7967 7936 0
7968 -7915 -7936 0
-7968 7915 0
-7968 7936 0
7969 -7915 -7938 0
-7969 7915 0
-7969 7938 0
7970 -7917 -7938 -7905 0
-7970 7917 0
-7970 7938 0
-7970 7905 0
-1447 7971 7967 7968 7969 7970 0
1447 -7971 0
1447 -7967 0
1447 -7968 0
1447 -7969 0
1447 -7970 0
7972 -7932 -7924 0
-7972 7932 0
-7972 7924 0
7973 -7929 -7922 0
-7973 7929 0
-7973 7922 0
7974 -7929 -7924 0
-7974 7929 0
-7974 7924 0
7975 -7932 -7922 -7905 0
-7975 7932 0
-7975 7922 0
-7975 7905 0
-1440 7976 7972 7973 7974 7975 0
1440 -7976 0
1440 -7972 0
1440 -7973 0
1440 -7974 0
1440 -7975 0
7977 -7932 -7915 0
-7977 7932 0
-7977 7915 0
7978 -7929 -7917 0
-7978 7929 0
-7978 7917 0
7979 -7929 -7915 0
-7979 7929 0
-7979 7915 0
7980 -7932 -7917 -7905 0
-7980 7932 0
-7980 7917 0
-7980 7905 0
-1449 7981 7977 7978 7979 7980 0
1449 -7981 0
1449 -7977 0
1449 -7978 0
1449 -7979 0
1449 -7980 0
7982 -7932 -7929 0
-7982 7932 0
-7982 7929 0
7983 -7929 -7929 0
-7983 7929 0
-7983 7929 0
7984 -7929 -7932 0
-7984 7929 0
-7984 7932 0
7985 -7932 -7932 -7905 0
-7985 7932 0
-7985 7932 0
-7985 7905 0
-1452 7986 7982 7983 7984 7985 0
1452 -7986 0
1452 -7982 0
1452 -7983 0
1452 -7984 0
1452 -7985 0
7987 -7570 -7988 0
-7987 7570 0
-7987 7988 0
7989 -7988 -7988 0
-7989 7988 0
-7989 7988 0
7990 -7988 -7570 0
-7990 7988 0
-7990 7570 0
7991 -7570 -7570 -7992 0
-7991 7570 0
-7991 7570 0
-7991 7992 0
-2580 7571 7987 7989 7990 7991 0
2580 -7571 0
2580 -7987 0
2580 -7989 0
2580 -7990 0
2580 -7991 0
7993 -7570 -7994 0
-7993 7570 0
-7993 7994 0
7995 -7988 -7994 0
-7995 7988 0
-7995 7994 0
7996 -7988 -7573 0
-7996 7988 0
-7996 7573 0
7997 -7570 -7573 -7992 0
-7997 7570 0
-7997 7573 0
-7997 7992 0
-2576 7574 7993 7995 7996 7997 0
2576 -7574 0
2576 -7993 0
2576 -7995 0
2576 -7996 0
2576 -7997 0
7998 -7570 -7999 0
-7998 7570 0
-7998 7999 0
8000 -7988 -7576 0
-8000 7988 0
-8000 7576 0
8001 -7988 -7999 0
-8001 7988 0
-8001 7999 0
8002 -7570 -7576 -7992 0
-8002 7570 0
-8002 7576 0
-8002 7992 0
-2600 7577 7998 8000 8001 8002 0
2600 -7577 0
2600 -7998 0
2600 -8000 0
2600 -8001 0
2600 -8002 0
8003 -7579 -7999 0
-8003 7579 0
-8003 7999 0
8004 -8005 -7999 0
-8004 8005 0
-8004 7999 0
8006 -8005 -7576 0
-8006 8005 0
-8006 7576 0
8007 -7579 -7576 -7992 0
-8007 7579 0
-8007 7576 0
-8007 7992 0
-2598 7580 8003 8004 8006 8007 0
2598 -7580 0
2598 -8003 0
2598 -8004 0
2598 -8006 0
2598 -8007 0
8008 -7570 -8009 0
-8008 7570 0
-8008 8009 0
8010 -7988 -8009 0
-8010 7988 0
-8010 8009 0
8011 -7988 -7582 0
-8011 7988 0
-8011 7582 0
8012 -7570 -7582 -7992 0
-8012 7570 0
-8012 7582 0
-8012 7992 0
-2584 7583 8008 8010 8011 8012 0
2584 -7583 0
2584 -8008 0
2584 -8010 0
2584 -8011 0
2584 -8012 0
8013 -7570 -8014 0
-8013 7570 0
-8013 8014 0
8015 -7988 -7585 0
-8015 7988 0
-8015 7585 0
8016 -7988 -8014 0
-8016 7988 0
-8016 8014 0
8017 -7570 -7585 -7992 0
-8017 7570 0
-8017 7585 0
-8017 7992 0
-2591 7586 8013 8015 8016 8017 0
2591 -7586 0
2591 -8013 0
2591 -8015 0
2591 -8016 0
2591 -8017 0
8018 -7579 -8014 0
-8018 7579 0
-8018 8014 0
8019 -8005 -8014 0
-8019 8005 0
-8019 8014 0
8020 -8005 -7585 0
-8020 8005 0
-8020 7585 0
8021 -7579 -7585 -7992 0
-8021 7579 0
-8021 7585 0
-8021 7992 0
-2593 7588 8018 8019 8020 8021 0
2593 -7588 0
2593 -8018 0
2593 -8019 0
2593 -8020 0
2593 -8021 0
8022 -7573 -8005 0
-8022 7573 0
-8022 8005 0
8023 -7994 -7579 0
-8023 7994 0
-8023 7579 0
8024 -7994 -8005 0
-8024 7994 0
-8024 8005 0
8025 -7573 -7579 -7992 0
-8025 7573 0
-8025 7579 0
-8025 7992 0
-2575 7590 8022 8023 8024 8025 0
2575 -7590 0
2575 -8022 0
2575 -8023 0
2575 -8024 0
2575 -8025 0
8026 -7573 -7994 0
-8026 7573 0
-8026 7994 0
8027 -7994 -7994 0
-8027 7994 0
-8027 7994 0
8028 -7994 -7573 0
-8028 7994 0
-8028 7573 0
8029 -7573 -7573 -7992 0
-8029 7573 0
-8029 7573 0
-8029 7992 0
-2582 7592 8026 8027 8028 8029 0
2582 -7592 0
2582 -8026 0
2582 -8027 0
2582 -8028 0
2582 -8029 0
8030 -7573 -8009 0
-8030 7573 0
-8030 8009 0
8031 -7994 -8009 0
-8031 7994 0
-8031 8009 0
8032 -7994 -7582 0
-8032 7994 0
-8032 7582 0
8033 -7573 -7582 -7992 0
-8033 7573 0
-8033 7582 0
-8033 7992 0
-2589 7594 8030 8031 8032 8033 0
2589 -7594 0
2589 -8030 0
2589 -8031 0
2589 -8032 0
2589 -8033 0
8034 -7573 -8014 0
-8034 7573 0
-8034 8014 0
8035 -7994 -7585 0
-8035 7994 0
-8035 7585 0
8036 -7994 -8014 0
-8036 7994 0
-8036 8014 0
8037 -7573 -7585 -7992 0
-8037 7573 0
-8037 7585 0
-8037 7992 0
-2596 7596 8034 8035 8036 8037 0
2596 -7596 0
2596 -8034 0
2596 -8035 0
2596 -8036 0
2596 -8037 0
8038 -7576 -8014 0
-8038 7576 0
-8038 8014 0
8039 -7999 -8014 0
-8039 7999 0
-8039 8014 0
8040 -7999 -7585 0
-8040 7999 0
-8040 7585 0
8041 -7576 -7585 -7992 0
-8041 7576 0
-8041 7585 0
-8041 7992 0
-2603 7598 8038 8039 8040 8041 0
2603 -7598 0
2603 -8038 0
2603 -8039 0
2603 -8040 0
2603 -8041 0
8042 -7582 -8005 0
-8042 7582 0
-8042 8005 0
8043 -8009 -7579 0
-8043 8009 0
-8043 7579 0
8044 -8009 -8005 0
-8044 8009 0
-8044 8005 0
8045 -7582 -7579 -7992 0
-8045 7582 0
-8045 7579 0
-8045 7992 0
-2587 7600 8042 8043 8044 8045 0
2587 -7600 0
2587 -8042 0
2587 -8043 0
2587 -8044 0
2587 -8045 0
8046 -7582 -7999 0
-8046 7582 0
-8046 7999 0
8047 -8009 -7576 0
-8047 8009 0
-8047 7576 0
8048 -8009 -7999 0
-8048 8009 0
-8048 7999 0
8049 -7582 -7576 -7992 0
-8049 7582 0
-8049 7576 0
-8049 7992 0
-2608 7602 8046 8047 8048 8049 0
2608 -7602 0
2608 -8046 0
2608 -8047 0
2608 -8048 0
2608 -8049 0
8050 -7582 -8009 0
-8050 7582 0
-8050 8009 0
8051 -8009 -8009 0
-8051 8009 0
-8051 8009 0
8052 -8009 -7582 0
-8052 8009 0
-8052 7582 0
8053 -7582 -7582 -7992 0
-8053 7582 0
-8053 7582 0
-8053 7992 0
-2614 7604 8050 8051 8052 8053 0
2614 -7604 0
2614 -8050 0
2614 -8051 0
2614 -8052 0
2614 -8053 0
8054 -7755 -7881 0
-8054 7755 0
-8054 7881 0
8055 -7881 -7881 0
-8055 7881 0
-8055 7881 0
8056 -7881 -7755 0
-8056 7881 0
-8056 7755 0
8057 -7755 -7755 -7890 0
-8057 7755 0
-8057 7755 0
-8057 7890 0
-1779 7756 8054 8055 8056 8057 0
1779 -7756 0
1779 -8054 0
1779 -8055 0
1779 -8056 0
1779 -8057 0
8058 -7755 -8059 0
-8058 7755 0
-8058 8059 0
8060 -7881 -8059 0
-8060 7881 0
-8060 8059 0
8061 -7881 -7758 0
-8061 7881 0
-8061 7758 0
8062 -7755 -7758 -7890 0
-8062 7755 0
-8062 7758 0
-8062 7890 0
-1775 7759 8058 8060 8061 8062 0
1775 -7759 0
1775 -8058 0
1775 -8060 0
1775 -8061 0
1775 -8062 0
8063 -7755 -7880 0
-8063 7755 0
-8063 7880 0
8064 -7881 -7761 0
-8064 7881 0
-8064 7761 0
8065 -7881 -7880 0
-8065 7881 0
-8065 7880 0
8066 -7755 -7761 -7890 0
-8066 7755 0
-8066 7761 0
-8066 7890 0
-1799 7762 8063 8064 8065 8066 0
1799 -7762 0
1799 -8063 0
1799 -8064 0
1799 -8065 0
1799 -8066 0
8067 -7764 -7880 0
-8067 7764 0
-8067 7880 0
8068 -7888 -7880 0
-8068 7888 0
-8068 7880 0
8069 -7888 -7761 0
-8069 7888 0
-8069 7761 0
8070 -7764 -7761 -7890 0
-8070 7764 0
-8070 7761 0
-8070 7890 0
-1797 7765 8067 8068 8069 8070 0
1797 -7765 0
1797 -8067 0
1797 -8068 0
1797 -8069 0
1797 -8070 0
8071 -7755 -7892 0
-8071 7755 0
-8071 7892 0
8072 -7881 -7892 0
-8072 7881 0
-8072 7892 0
8073 -7881 -7767 0
-8073 7881 0
-8073 7767 0
8074 -7755 -7767 -7890 0
-8074 7755 0
-8074 7767 0
-8074 7890 0
-1783 7768 8071 8072 8073 8074 0
1783 -7768 0
1783 -8071 0
1783 -8072 0
1783 -8073 0
1783 -8074 0
8075 -7755 -7894 0
-8075 7755 0
-8075 7894 0
8076 -7881 -7770 0
-8076 7881 0
-8076 7770 0
8077 -7881 -7894 0
-8077 7881 0
-8077 7894 0
8078 -7755 -7770 -7890 0
-8078 7755 0
-8078 7770 0
-8078 7890 0
-1790 7771 8075 8076 8077 8078 0
1790 -7771 0
1790 -8075 0
1790 -8076 0
1790 -8077 0
1790 -8078 0
8079 -7764 -7894 0
-8079 7764 0
-8079 7894 0
8080 -7888 -7894 0
-8080 7888 0
-8080 7894 0
8081 -7888 -7770 0
-8081 7888 0
-8081 7770 0
8082 -7764 -7770 -7890 0
-8082 7764 0
-8082 7770 0
-8082 7890 0
-1792 7773 8079 8080 8081 8082 0
1792 -7773 0
1792 -8079 0
1792 -8080 0
1792 -8081 0
1792 -8082 0
8083 -7758 -7888 0
-8083 7758 0
-8083 7888 0
8084 -8059 -7764 0
-8084 8059 0
-8084 7764 0
8085 -8059 -7888 0
-8085 8059 0
-8085 7888 0
8086 -7758 -7764 -7890 0
-8086 7758 0
-8086 7764 0
-8086 7890 0
-1774 7775 8083 8084 8085 8086 0
1774 -7775 0
1774 -8083 0
1774 -8084 0
1774 -8085 0
1774 -8086 0
8087 -7758 -8059 0
-8087 7758 0
-8087 8059 0
8088 -8059 -8059 0
-8088 8059 0
-8088 8059 0
8089 -8059 -7758 0
-8089 8059 0
-8089 7758 0
8090 -7758 -7758 -7890 0
-8090 7758 0
-8090 7758 0
-8090 7890 0
-1781 7777 8087 8088 8089 8090 0
1781 -7777 0
1781 -8087 0
1781 -8088 0
1781 -8089 0
1781 -8090 0
8091 -7758 -7892 0
-8091 7758 0
-8091 7892 0
8092 -8059 -7892 0
-8092 8059 0
-8092 7892 0
8093 -8059 -7767 0
-8093 8059 0
-8093 7767 0
8094 -7758 -7767 -7890 0
-8094 7758 0
-8094 7767 0
-8094 7890 0
-1788 7779 8091 8092 8093 8094 0
1788 -7779 0
1788 -8091 0
1788 -8092 0
1788 -8093 0
1788 -8094 0
8095 -7758 -7894 0
-8095 7758 0
-8095 7894 0
8096 -8059 -7770 0
-8096 8059 0
-8096 7770 0
8097 -8059 -7894 0
-8097 8059 0
-8097 7894 0
8098 -7758 -7770 -7890 0
-8098 7758 0
-8098 7770 0
-8098 7890 0
-1795 7781 8095 8096 8097 8098 0
1795 -7781 0
1795 -8095 0
1795 -8096 0
1795 -8097 0
1795 -8098 0
8099 -7761 -7894 0
-8099 7761 0
-8099 7894 0
8100 -7880 -7894 0
-8100 7880 0
-8100 7894 0
8101 -7880 -7770 0
-8101 7880 0
-8101 7770 0
8102 -7761 -7770 -7890 0
-8102 7761 0
-8102 7770 0
-8102 7890 0
-1802 7783 8099 8100 8101 8102 0
1802 -7783 0
1802 -8099 0
1802 -8100 0
1802 -8101 0
1802 -8102 0
8103 -7767 -7888 0
-8103 7767 0
-8103 7888 0
8104 -7892 -7764 0
-8104 7892 0
-8104 7764 0
8105 -7892 -7888 0
-8105 7892 0
-8105 7888 0
8106 -7767 -7764 -7890 0
-8106 7767 0
-8106 7764 0
-8106 7890 0
-1786 7785 8103 8104 8105 8106 0
1786 -7785 0
1786 -8103 0
1786 -8104 0
1786 -8105 0
1786 -8106 0
8107 -7767 -7880 0
-8107 7767 0
-8107 7880 0
8108 -7892 -7761 0
-8108 7892 0
-8108 7761 0
8109 -7892 -7880 0
-8109 7892 0
-8109 7880 0
8110 -7767 -7761 -7890 0
-8110 7767 0
-8110 7761 0
-8110 7890 0
-1807 7787 8107 8108 8109 8110 0
1807 -7787 0
1807 -8107 0
1807 -8108 0
1807 -8109 0
1807 -8110 0
8111 -7767 -7892 0
-8111 7767 0
-8111 7892 0
8112 -7892 -7892 0
-8112 7892 0
-8112 7892 0
8113 -7892 -7767 0
-8113 7892 0
-8113 7767 0
8114 -7767 -7767 -7890 0
-8114 7767 0
-8114 7767 0
-8114 7890 0
-1813 7789 8111 8112 8113 8114 0
1813 -7789 0
1813 -8111 0
1813 -8112 0
1813 -8113 0
1813 -8114 0
8115 -7811 -7804 0
-8115 7811 0
-8115 7804 0
8116 -7804 -7804 0
-8116 7804 0
-8116 7804 0
8117 -7804 -7811 0
-8117 7804 0
-8117 7811 0
8118 -7811 -7811 -7847 0
-8118 7811 0
-8118 7811 0
-8118 7847 0
-1966 7797 8115 8116 8117 8118 0
1966 -7797 0
1966 -8115 0
1966 -8116 0
1966 -8117 0
1966 -8118 0
8119 -7811 -7799 0
-8119 7811 0
-8119 7799 0
8120 -7804 -7799 0
-8120 7804 0
-8120 7799 0
8121 -7804 -7806 0
-8121 7804 0
-8121 7806 0
8122 -7811 -7806 -7847 0
-8122 7811 0
-8122 7806 0
-8122 7847 0
-1960 7792 8119 8120 8121 8122 0
1960 -7792 0
1960 -8119 0
1960 -8120 0
1960 -8121 0
1960 -8122 0
8123 -7811 -7802 0
-8123 7811 0
-8123 7802 0
8124 -7804 -7808 0
-8124 7804 0
-8124 7808 0
8125 -7804 -7802 0
-8125 7804 0
-8125 7802 0
8126 -7811 -7808 -7847 0
-8126 7811 0
-8126 7808 0
-8126 7847 0
-1959 7791 8123 8124 8125 8126 0
1959 -7791 0
1959 -8123 0
1959 -8124 0
1959 -8125 0
1959 -8126 0
8127 -7818 -7802 0
-8127 7818 0
-8127 7802 0
8128 -7842 -7802 0
-8128 7842 0
-8128 7802 0
8129 -7842 -7808 0
-8129 7842 0
-8129 7808 0
8130 -7818 -7808 -7847 0
-8130 7818 0
-8130 7808 0
-8130 7847 0
-1982 7813 8127 8128 8129 8130 0
1982 -7813 0
1982 -8127 0
1982 -8128 0
1982 -8129 0
1982 -8130 0
8131 -7811 -7852 0
-8131 7811 0
-8131 7852 0
8132 -7804 -7852 0
-8132 7804 0
-8132 7852 0
8133 -7804 -7872 0
-8133 7804 0
-8133 7872 0
8134 -7811 -7872 -7847 0
-8134 7811 0
-8134 7872 0
-8134 7847 0
-1973 7825 8131 8132 8133 8134 0
1973 -7825 0
1973 -8131 0
1973 -8132 0
1973 -8133 0
1973 -8134 0
8135 -7811 -7857 0
-8135 7811 0
-8135 7857 0
8136 -7804 -7862 0
-8136 7804 0
-8136 7862 0
8137 -7804 -7857 0
-8137 7804 0
-8137 7857 0
8138 -7811 -7862 -7847 0
-8138 7811 0
-8138 7862 0
-8138 7847 0
-1980 7832 8135 8136 8137 8138 0
1980 -7832 0
1980 -8135 0
1980 -8136 0
1980 -8137 0
1980 -8138 0
8139 -7818 -7857 0
-8139 7818 0
-8139 7857 0
8140 -7842 -7857 0
-8140 7842 0
-8140 7857 0
8141 -7842 -7862 0
-8141 7842 0
-8141 7862 0
8142 -7818 -7862 -7847 0
-8142 7818 0
-8142 7862 0
-8142 7847 0
-1987 7837 8139 8140 8141 8142 0
1987 -7837 0
1987 -8139 0
1987 -8140 0
1987 -8141 0
1987 -8142 0
8143 -7806 -7842 0
-8143 7806 0
-8143 7842 0
8144 -7799 -7818 0
-8144 7799 0
-8144 7818 0
8145 -7799 -7842 0
-8145 7799 0
-8145 7842 0
8146 -7806 -7818 -7847 0
-8146 7806 0
-8146 7818 0
-8146 7847 0
-1984 7815 8143 8144 8145 8146 0
1984 -7815 0
1984 -8143 0
1984 -8144 0
1984 -8145 0
1984 -8146 0
8147 -7806 -7799 0
-8147 7806 0
-8147 7799 0
7844 -7799 -7799 0
-7844 7799 0
-7844 7799 0
8148 -7799 -7806 0
-8148 7799 0
-8148 7806 0
8149 -7806 -7806 -7847 0
-8149 7806 0
-8149 7806 0
-8149 7847 0
-1964 7796 8147 7844 8148 8149 0
1964 -7796 0
1964 -8147 0
1964 -7844 0
1964 -8148 0
1964 -8149 0
8150 -7806 -7852 0
-8150 7806 0
-8150 7852 0
8151 -7799 -7852 0
-8151 7799 0
-8151 7852 0
8152 -7799 -7872 0
-8152 7799 0
-8152 7872 0
8153 -7806 -7872 -7847 0
-8153 7806 0
-8153 7872 0
-8153 7847 0
-1968 7820 8150 8151 8152 8153 0
1968 -7820 0
1968 -8150 0
1968 -8151 0
1968 -8152 0
1968 -8153 0
8154 -7806 -7857 0
-8154 7806 0
-8154 7857 0
8155 -7799 -7862 0
-8155 7799 0
-8155 7862 0
8156 -7799 -7857 0
-8156 7799 0
-8156 7857 0
8157 -7806 -7862 -7847 0
-8157 7806 0
-8157 7862 0
-8157 7847 0
-1975 7827 8154 8155 8156 8157 0
1975 -7827 0
1975 -8154 0
1975 -8155 0
1975 -8156 0
1975 -8157 0
8158 -7808 -7857 0
-8158 7808 0
-8158 7857 0
8159 -7802 -7857 0
-8159 7802 0
-8159 7857 0
8160 -7802 -7862 0
-8160 7802 0
-8160 7862 0
8161 -7808 -7862 -7847 0
-8161 7808 0
-8161 7862 0
-8161 7847 0
-1977 7829 8158 8159 8160 8161 0
1977 -7829 0
1977 -8158 0
1977 -8159 0
1977 -8160 0
1977 -8161 0
8162 -7872 -7842 0
-8162 7872 0
-8162 7842 0
8163 -7852 -7818 0
-8163 7852 0
-8163 7818 0
8164 -7852 -7842 0
-8164 7852 0
-8164 7842 0
8165 -7872 -7818 -7847 0
-8165 7872 0
-8165 7818 0
-8165 7847 0
-1992 7867 8162 8163 8164 8165 0
1992 -7867 0
1992 -8162 0
1992 -8163 0
1992 -8164 0
1992 -8165 0
8166 -7872 -7802 0
-8166 7872 0
-8166 7802 0
8167 -7852 -7808 0
-8167 7852 0
-8167 7808 0
8168 -7852 -7802 0
-8168 7852 0
-8168 7802 0
8169 -7872 -7808 -7847 0
-8169 7872 0
-8169 7808 0
-8169 7847 0
-1971 7823 8166 8167 8168 8169 0
1971 -7823 0
1971 -8166 0
1971 -8167 0
1971 -8168 0
1971 -8169 0
8170 -7872 -7852 0
-8170 7872 0
-8170 7852 0
8171 -7852 -7852 0
-8171 7852 0
-8171 7852 0
8172 -7852 -7872 0
-8172 7852 0
-8172 7872 0
8173 -7872 -7872 -7847 0
-8173 7872 0
-8173 7872 0
-8173 7847 0
-1998 7877 8170 8171 8172 8173 0
1998 -7877 0
1998 -8170 0
1998 -8171 0
1998 -8172 0
1998 -8173 0
8174 -8175 -8176 0
-8174 8175 0
-8174 8176 0
8177 -8176 -8176 0
-8177 8176 0
-8177 8176 0
8178 -8176 -8175 0
-8178 8176 0
-8178 8175 0
8179 -8175 -8175 -8180 0
-8179 8175 0
-8179 8175 0
-8179 8180 0
-1341 8181 8174 8177 8178 8179 0
1341 -8181 0
1341 -8174 0
1341 -8177 0
1341 -8178 0
1341 -8179 0
8182 -8175 -8183 0
-8182 8175 0
-8182 8183 0
8184 -8176 -8183 0
-8184 8176 0
-8184 8183 0
8185 -8176 -8186 0
-8185 8176 0
-8185 8186 0
8187 -8175 -8186 -8180 0
-8187 8175 0
-8187 8186 0
-8187 8180 0
-1337 8188 8182 8184 8185 8187 0
1337 -8188 0
1337 -8182 0
1337 -8184 0
1337 -8185 0
1337 -8187 0
8189 -8175 -8190 0
-8189 8175 0
-8189 8190 0
8191 -8176 -8192 0
-8191 8176 0
-8191 8192 0
8193 -8176 -8190 0
-8193 8176 0
-8193 8190 0
8194 -8175 -8192 -8180 0
-8194 8175 0
-8194 8192 0
-8194 8180 0
-1361 8195 8189 8191 8193 8194 0
1361 -8195 0
1361 -8189 0
1361 -8191 0
1361 -8193 0
1361 -8194 0
8196 -8197 -8190 0
-8196 8197 0
-8196 8190 0
8198 -8199 -8190 0
-8198 8199 0
-8198 8190 0
8200 -8199 -8192 0
-8200 8199 0
-8200 8192 0
8201 -8197 -8192 -8180 0
-8201 8197 0
-8201 8192 0
-8201 8180 0
-1359 8202 8196 8198 8200 8201 0
1359 -8202 0
1359 -8196 0
1359 -8198 0
1359 -8200 0
1359 -8201 0
8203 -8175 -8204 0
-8203 8175 0
-8203 8204 0
8205 -8176 -8204 0
-8205 8176 0
-8205 8204 0
8206 -8176 -8207 0
-8206 8176 0
-8206 8207 0
8208 -8175 -8207 -8180 0
-8208 8175 0
-8208 8207 0
-8208 8180 0
-1345 8209 8203 8205 8206 8208 0
1345 -8209 0
1345 -8203 0
1345 -8205 0
1345 -8206 0
1345 -8208 0
8210 -8175 -8211 0
-8210 8175 0
-8210 8211 0
8212 -8176 -8213 0
-8212 8176 0
-8212 8213 0
8214 -8176 -8211 0
-8214 8176 0
-8214 8211 0
8215 -8175 -8213 -8180 0
-8215 8175 0
-8215 8213 0
-8215 8180 0
-1352 8216 8210 8212 8214 8215 0
1352 -8216 0
1352 -8210 0
1352 -8212 0
1352 -8214 0
1352 -8215 0
8217 -8197 -8211 0
-8217 8197 0
-8217 8211 0
8218 -8199 -8211 0
-8218 8199 0
-8218 8211 0
8219 -8199 -8213 0
-8219 8199 0
-8219 8213 0
8220 -8197 -8213 -8180 0
-8220 8197 0
-8220 8213 0
-8220 8180 0
-1354 8221 8217 8218 8219 8220 0
1354 -8221 0
1354 -8217 0
1354 -8218 0
1354 -8219 0
1354 -8220 0
8222 -8186 -8199 0
-8222 8186 0
-8222 8199 0
8223 -8183 -8197 0
-8223 8183 0
-8223 8197 0
8224 -8183 -8199 0
-8224 8183 0
-8224 8199 0
8225 -8186 -8197 -8180 0
-8225 8186 0
-8225 8197 0
-8225 8180 0
-1336 8226 8222 8223 8224 8225 0
1336 -8226 0
1336 -8222 0
1336 -8223 0
1336 -8224 0
1336 -8225 0
8227 -8186 -8183 0
-8227 8186 0
-8227 8183 0
8228 -8183 -8183 0
-8228 8183 0
-8228 8183 0
8229 -8183 -8186 0
-8229 8183 0
-8229 8186 0
8230 -8186 -8186 -8180 0
-8230 8186 0
-8230 8186 0
-8230 8180 0
-1343 8231 8227 8228 8229 8230 0
1343 -8231 0
1343 -8227 0
1343 -8228 0
1343 -8229 0
1343 -8230 0
8232 -8186 -8204 0
-8232 8186 0
-8232 8204 0
8233 -8183 -8204 0
-8233 8183 0
-8233 8204 0
8234 -8183 -8207 0
-8234 8183 0
-8234 8207 0
8235 -8186 -8207 -8180 0
-8235 8186 0
-8235 8207 0
-8235 8180 0
-1350 8236 8232 8233 8234 8235 0
1350 -8236 0
1350 -8232 0
1350 -8233 0
1350 -8234 0
1350 -8235 0
8237 -8186 -8211 0
-8237 8186 0
-8237 8211 0
8238 -8183 -8213 0
-8238 8183 0
-8238 8213 0
8239 -8183 -8211 0
-8239 8183 0
-8239 8211 0
8240 -8186 -8213 -8180 0
-8240 8186 0
-8240 8213 0
-8240 8180 0
-1357 8241 8237 8238 8239 8240 0
1357 -8241 0
1357 -8237 0
1357 -8238 0
1357 -8239 0
1357 -8240 0
8242 -8192 -8211 0
-8242 8192 0
-8242 8211 0
8243 -8190 -8211 0
-8243 8190 0
-8243 8211 0
8244 -8190 -8213 0
-8244 8190 0
-8244 8213 0
8245 -8192 -8213 -8180 0
-8245 8192 0
-8245 8213 0
-8245 8180 0
-1364 8246 8242 8243 8244 8245 0
1364 -8246 0
1364 -8242 0
1364 -8243 0
1364 -8244 0
1364 -8245 0
8247 -8207 -8199 0
-8247 8207 0
-8247 8199 0
8248 -8204 -8197 0
-8248 8204 0
-8248 8197 0
8249 -8204 -8199 0
-8249 8204 0
-8249 8199 0
8250 -8207 -8197 -8180 0
-8250 8207 0
-8250 8197 0
-8250 8180 0
-1348 8251 8247 8248 8249 8250 0
1348 -8251 0
1348 -8247 0
1348 -8248 0
1348 -8249 0
1348 -8250 0
8252 -8207 -8190 0
-8252 8207 0
-8252 8190 0
8253 -8204 -8192 0
-8253 8204 0
-8253 8192 0
8254 -8204 -8190 0
-8254 8204 0
-8254 8190 0
8255 -8207 -8192 -8180 0
-8255 8207 0
-8255 8192 0
-8255 8180 0
-1369 8256 8252 8253 8254 8255 0
1369 -8256 0
1369 -8252 0
1369 -8253 0
1369 -8254 0
1369 -8255 0
8257 -8207 -8204 0
-8257 8207 0
-8257 8204 0
8258 -8204 -8204 0
-8258 8204 0
-8258 8204 0
8259 -8204 -8207 0
-8259 8204 0
-8259 8207 0
8260 -8207 -8207 -8180 0
-8260 8207 0
-8260 8207 0
-8260 8180 0
-1375 8261 8257 8258 8259 8260 0
1375 -8261 0
1375 -8257 0
1375 -8258 0
1375 -8259 0
1375 -8260 0
8262 -7097 -7097 0
-8262 7097 0
-8262 7097 0
-4230 7103 8262 0
4230 -7103 0
4230 -8262 0
8263 -7097 -7108 0
-8263 7097 0
-8263 7108 0
-4226 7110 8263 0
4226 -7110 0
4226 -8263 0
8264 -7097 -7114 0
-8264 7097 0
-8264 7114 0
-4244 7117 8264 0
4244 -7117 0
4244 -8264 0
8265 -7119 -7114 0
-8265 7119 0
-8265 7114 0
-2126 7124 8265 0
2126 -7124 0
2126 -8265 0
8266 -7097 -7129 0
-8266 7097 0
-8266 7129 0
-4233 7131 8266 0
4233 -7131 0
4233 -8266 0
8267 -7097 -7135 0
-8267 7097 0
-8267 7135 0
-4238 7138 8267 0
4238 -7138 0
4238 -8267 0
8268 -7119 -7135 0
-8268 7119 0
-8268 7135 0
-2123 7143 8268 0
2123 -7143 0
2123 -8268 0
8269 -7108 -7119 0
-8269 7108 0
-8269 7119 0
-2116 7148 8269 0
2116 -7148 0
2116 -8269 0
8270 -7108 -7108 0
-8270 7108 0
-8270 7108 0
-2118 7153 8270 0
2118 -7153 0
2118 -8270 0
8271 -7108 -7129 0
-8271 7108 0
-8271 7129 0
-2121 7158 8271 0
2121 -7158 0
2121 -8271 0
8272 -7108 -7135 0
-8272 7108 0
-8272 7135 0
-2124 7163 8272 0
2124 -7163 0
2124 -8272 0
8273 -7114 -7135 0
-8273 7114 0
-8273 7135 0
-2127 7168 8273 0
2127 -7168 0
2127 -8273 0
8274 -7129 -7119 0
-8274 7129 0
-8274 7119 0
-2120 7173 8274 0
2120 -7173 0
2120 -8274 0
8275 -7129 -7114 0
-8275 7129 0
-8275 7114 0
-2129 7178 8275 0
2129 -7178 0
2129 -8275 0
8276 -7129 -7129 0
-8276 7129 0
-8276 7129 0
-2132 7183 8276 0
2132 -7183 0
2132 -8276 0
8277 -8278 -8279 0
-8277 8278 0
-8277 8279 0
8280 -8279 -8279 0
-8280 8279 0
-8280 8279 0
8281 -8279 -8278 0
-8281 8279 0
-8281 8278 0
8282 -8278 -8278 -8283 0
-8282 8278 0
-8282 8278 0
-8282 8283 0
-1549 8284 8277 8280 8281 8282 0
1549 -8284 0
1549 -8277 0
1549 -8280 0
1549 -8281 0
1549 -8282 0
8285 -8278 -8286 0
-8285 8278 0
-8285 8286 0
8287 -8279 -8286 0
-8287 8279 0
-8287 8286 0
8288 -8279 -8289 0
-8288 8279 0
-8288 8289 0
8290 -8278 -8289 -8283 0
-8290 8278 0
-8290 8289 0
-8290 8283 0
-1545 8291 8285 8287 8288 8290 0
1545 -8291 0
1545 -8285 0
1545 -8287 0
1545 -8288 0
1545 -8290 0
8292 -8278 -8293 0
-8292 8278 0
-8292 8293 0
8294 -8279 -8295 0
-8294 8279 0
-8294 8295 0
8296 -8279 -8293 0
-8296 8279 0
-8296 8293 0
8297 -8278 -8295 -8283 0
-8297 8278 0
-8297 8295 0
-8297 8283 0
-1569 8298 8292 8294 8296 8297 0
1569 -8298 0
1569 -8292 0
1569 -8294 0
1569 -8296 0
1569 -8297 0
8299 -8300 -8293 0
-8299 8300 0
-8299 8293 0
8301 -8302 -8293 0
-8301 8302 0
-8301 8293 0
8303 -8302 -8295 0
-8303 8302 0
-8303 8295 0
8304 -8300 -8295 -8283 0
-8304 8300 0
-8304 8295 0
-8304 8283 0
-1567 8305 8299 8301 8303 8304 0
1567 -8305 0
1567 -8299 0
1567 -8301 0
1567 -8303 0
1567 -8304 0
8306 -8278 -8307 0
-8306 8278 0
-8306 8307 0
8308 -8279 -8307 0
-8308 8279 0
-8308 8307 0
8309 -8279 -8310 0
-8309 8279 0
-8309 8310 0
8311 -8278 -8310 -8283 0
-8311 8278 0
-8311 8310 0
-8311 8283 0
-1553 8312 8306 8308 8309 8311 0
1553 -8312 0
1553 -8306 0
1553 -8308 0
1553 -8309 0
1553 -8311 0
8313 -8278 -8314 0
-8313 8278 0
-8313 8314 0
8315 -8279 -8316 0
-8315 8279 0
-8315 8316 0
8317 -8279 -8314 0
-8317 8279 0
-8317 8314 0
8318 -8278 -8316 -8283 0
-8318 8278 0
-8318 8316 0
-8318 8283 0
-1560 8319 8313 8315 8317 8318 0
1560 -8319 0
1560 -8313 0
1560 -8315 0
1560 -8317 0
1560 -8318 0
8320 -8300 -8314 0
-8320 8300 0
-8320 8314 0
8321 -8302 -8314 0
-8321 8302 0
-8321 8314 0
8322 -8302 -8316 0
-8322 8302 0
-8322 8316 0
8323 -8300 -8316 -8283 0
-8323 8300 0
-8323 8316 0
-8323 8283 0
-1562 8324 8320 8321 8322 8323 0
1562 -8324 0
1562 -8320 0
1562 -8321 0
1562 -8322 0
1562 -8323 0
8325 -8289 -8302 0
-8325 8289 0
-8325 8302 0
8326 -8286 -8300 0
-8326 8286 0
-8326 8300 0
8327 -8286 -8302 0
-8327 8286 0
-8327 8302 0
8328 -8289 -8300 -8283 0
-8328 8289 0
-8328 8300 0
-8328 8283 0
-1544 8329 8325 8326 8327 8328 0
1544 -8329 0
1544 -8325 0
1544 -8326 0
1544 -8327 0
1544 -8328 0
8330 -8289 -8286 0
-8330 8289 0
-8330 8286 0
8331 -8286 -8286 0
-8331 8286 0
-8331 8286 0
8332 -8286 -8289 0
-8332 8286 0
-8332 8289 0
8333 -8289 -8289 -8283 0
-8333 8289 0
-8333 8289 0
-8333 8283 0
-1551 8334 8330 8331 8332 8333 0
1551 -8334 0
1551 -8330 0
1551 -8331 0
1551 -8332 0
1551 -8333 0
8335 -8289 -8307 0
-8335 8289 0
-8335 8307 0
8336 -8286 -8307 0
-8336 8286 0
-8336 8307 0
8337 -8286 -8310 0
-8337 8286 0
-8337 8310 0
8338 -8289 -8310 -8283 0
-8338 8289 0
-8338 8310 0
-8338 8283 0
-1558 8339 8335 8336 8337 8338 0
1558 -8339 0
1558 -8335 0
1558 -8336 0
1558 -8337 0
1558 -8338 0
8340 -8289 -8314 0
-8340 8289 0
-8340 8314 0
8341 -8286 -8316 0
-8341 8286 0
-8341 8316 0
8342 -8286 -8314 0
-8342 8286 0
-8342 8314 0
8343 -8289 -8316 -8283 0
-8343 8289 0
-8343 8316 0
-8343 8283 0
-1565 8344 8340 8341 8342 8343 0
1565 -8344 0
1565 -8340 0
1565 -8341 0
1565 -8342 0
1565 -8343 0
8345 -8295 -8314 0
-8345 8295 0
-8345 8314 0
8346 -8293 -8314 0
-8346 8293 0
-8346 8314 0
8347 -8293 -8316 0
-8347 8293 0
-8347 8316 0
8348 -8295 -8316 -8283 0
-8348 8295 0
-8348 8316 0
-8348 8283 0
-1572 8349 8345 8346 8347 8348 0
1572 -8349 0
1572 -8345 0
1572 -8346 0
1572 -8347 0
1572 -8348 0
8350 -8310 -8302 0
-8350 8310 0
-8350 8302 0
8351 -8307 -8300 0
-8351 8307 0
-8351 8300 0
8352 -8307 -8302 0
-8352 8307 0
-8352 8302 0
8353 -8310 -8300 -8283 0
-8353 8310 0
-8353 8300 0
-8353 8283 0
-1556 8354 8350 8351 8352 8353 0
1556 -8354 0
1556 -8350 0
1556 -8351 0
1556 -8352 0
1556 -8353 0
8355 -8310 -8293 0
-8355 8310 0
-8355 8293 0
8356 -8307 -8295 0
-8356 8307 0
-8356 8295 0
8357 -8307 -8293 0
-8357 8307 0
-8357 8293 0
8358 -8310 -8295 -8283 0
-8358 8310 0
-8358 8295 0
-8358 8283 0
-1577 8359 8355 8356 8357 8358 0
1577 -8359 0
1577 -8355 0
1577 -8356 0
1577 -8357 0
1577 -8358 0
8360 -8310 -8307 0
-8360 8310 0
-8360 8307 0
8361 -8307 -8307 0
-8361 8307 0
-8361 8307 0
8362 -8307 -8310 0
-8362 8307 0
-8362 8310 0
8363 -8310 -8310 -8283 0
-8363 8310 0
-8363 8310 0
-8363 8283 0
-1583 8364 8360 8361 8362 8363 0
1583 -8364 0
1583 -8360 0
1583 -8361 0
1583 -8362 0
1583 -8363 0
8365 -6658 -6658 0
-8365 6658 0
-8365 6658 0
-5489 6652 8365 0
5489 -6652 0
5489 -8365 0
8366 -6658 -6694 0
-8366 6658 0
-8366 6694 0
-5485 6696 8366 0
5485 -6696 0
5485 -8366 0
8367 -6658 -6657 0
-8367 6658 0
-8367 6657 0
-5503 6651 8367 0
5503 -6651 0
5503 -8367 0
8368 -6661 -6657 0
-8368 6661 0
-8368 6657 0
-3471 6660 8368 0
3471 -6660 0
3471 -8368 0
8369 -6658 -6683 0
-8369 6658 0
-8369 6683 0
-5492 6664 8369 0
5492 -6664 0
5492 -8369 0
8370 -6658 -6679 0
-8370 6658 0
-8370 6679 0
-5497 6667 8370 0
5497 -6667 0
5497 -8370 0
8371 -6661 -6679 0
-8371 6661 0
-8371 6679 0
-3468 6669 8371 0
3468 -6669 0
3468 -8371 0
8372 -6694 -6661 0
-8372 6694 0
-8372 6661 0
-3461 6721 8372 0
3461 -6721 0
3461 -8372 0
8373 -6694 -6694 0
-8373 6694 0
-8373 6694 0
-3463 6726 8373 0
3463 -6726 0
3463 -8373 0
8374 -6694 -6683 0
-8374 6694 0
-8374 6683 0
-3466 6731 8374 0
3466 -6731 0
3466 -8374 0
8375 -6694 -6679 0
-8375 6694 0
-8375 6679 0
-3469 6736 8375 0
3469 -6736 0
3469 -8375 0
8376 -6657 -6679 0
-8376 6657 0
-8376 6679 0
-3472 6666 8376 0
3472 -6666 0
3472 -8376 0
8377 -6683 -6661 0
-8377 6683 0
-8377 6661 0
-3465 6681 8377 0
3465 -6681 0
3465 -8377 0
8378 -6683 -6657 0
-8378 6683 0
-8378 6657 0
-3474 6663 8378 0
3474 -6663 0
3474 -8378 0
8379 -6683 -6683 0
-8379 6683 0
-8379 6683 0
-3477 6685 8379 0
3477 -6685 0
3477 -8379 0
8380 -8381 -8382 0
-8380 8381 0
-8380 8382 0
8383 -8382 -8382 0
-8383 8382 0
-8383 8382 0
8384 -8382 -8381 0
-8384 8382 0
-8384 8381 0
8385 -8381 -8381 -8386 0
-8385 8381 0
-8385 8381 0
-8385 8386 0
-5385 8387 8380 8383 8384 8385 0
5385 -8387 0
5385 -8380 0
5385 -8383 0
5385 -8384 0
5385 -8385 0
8388 -8381 -8389 0
-8388 8381 0
-8388 8389 0
8390 -8382 -8389 0
-8390 8382 0
-8390 8389 0
8391 -8382 -8392 0
-8391 8382 0
-8391 8392 0
8393 -8381 -8392 -8386 0
-8393 8381 0
-8393 8392 0
-8393 8386 0
-5381 8394 8388 8390 8391 8393 0
5381 -8394 0
5381 -8388 0
5381 -8390 0
5381 -8391 0
5381 -8393 0
8395 -8381 -8396 0
-8395 8381 0
-8395 8396 0
8397 -8382 -8398 0
-8397 8382 0
-8397 8398 0
8399 -8382 -8396 0
-8399 8382 0
-8399 8396 0
8400 -8381 -8398 -8386 0
-8400 8381 0
-8400 8398 0
-8400 8386 0
-5399 8401 8395 8397 8399 8400 0
5399 -8401 0
5399 -8395 0
5399 -8397 0
5399 -8399 0
5399 -8400 0
8402 -8403 -8396 0
-8402 8403 0
-8402 8396 0
8404 -8405 -8396 0
-8404 8405 0
-8404 8396 0
8406 -8405 -8398 0
-8406 8405 0
-8406 8398 0
8407 -8403 -8398 -8386 0
-8407 8403 0
-8407 8398 0
-8407 8386 0
-2844 8408 8402 8404 8406 8407 0
2844 -8408 0
2844 -8402 0
2844 -8404 0
2844 -8406 0
2844 -8407 0
8409 -8381 -8410 0
-8409 8381 0
-8409 8410 0
8411 -8382 -8410 0
-8411 8382 0
-8411 8410 0
8412 -8382 -8413 0
-8412 8382 0
-8412 8413 0
8414 -8381 -8413 -8386 0
-8414 8381 0
-8414 8413 0
-8414 8386 0
-5388 8415 8409 8411 8412 8414 0
5388 -8415 0
5388 -8409 0
5388 -8411 0
5388 -8412 0
5388 -8414 0
8416 -8381 -8417 0
-8416 8381 0
-8416 8417 0
8418 -8382 -8419 0
-8418 8382 0
-8418 8419 0
8420 -8382 -8417 0
-8420 8382 0
-8420 8417 0
8421 -8381 -8419 -8386 0
-8421 8381 0
-8421 8419 0
-8421 8386 0
-5393 8422 8416 8418 8420 8421 0
5393 -8422 0
5393 -8416 0
5393 -8418 0
5393 -8420 0
5393 -8421 0
8423 -8403 -8417 0
-8423 8403 0
-8423 8417 0
8424 -8405 -8417 0
-8424 8405 0
-8424 8417 0
8425 -8405 -8419 0
-8425 8405 0
-8425 8419 0
8426 -8403 -8419 -8386 0
-8426 8403 0
-8426 8419 0
-8426 8386 0
-2841 8427 8423 8424 8425 8426 0
2841 -8427 0
2841 -8423 0
2841 -8424 0
2841 -8425 0
2841 -8426 0
8428 -8392 -8405 0
-8428 8392 0
-8428 8405 0
8429 -8389 -8403 0
-8429 8389 0
-8429 8403 0
8430 -8389 -8405 0
-8430 8389 0
-8430 8405 0
8431 -8392 -8403 -8386 0
-8431 8392 0
-8431 8403 0
-8431 8386 0
-2834 8432 8428 8429 8430 8431 0
2834 -8432 0
2834 -8428 0
2834 -8429 0
2834 -8430 0
2834 -8431 0
8433 -8392 -8389 0
-8433 8392 0
-8433 8389 0
8434 -8389 -8389 0
-8434 8389 0
-8434 8389 0
8435 -8389 -8392 0
-8435 8389 0
-8435 8392 0
8436 -8392 -8392 -8386 0
-8436 8392 0
-8436 8392 0
-8436 8386 0
-2836 8437 8433 8434 8435 8436 0
2836 -8437 0
2836 -8433 0
2836 -8434 0
2836 -8435 0
2836 -8436 0
8438 -8392 -8410 0
-8438 8392 0
-8438 8410 0
8439 -8389 -8410 0
-8439 8389 0
-8439 8410 0
8440 -8389 -8413 0
-8440 8389 0
-8440 8413 0
8441 -8392 -8413 -8386 0
-8441 8392 0
-8441 8413 0
-8441 8386 0
-2839 8442 8438 8439 8440 8441 0
2839 -8442 0
2839 -8438 0
2839 -8439 0
2839 -8440 0
2839 -8441 0
8443 -8392 -8417 0
-8443 8392 0
-8443 8417 0
8444 -8389 -8419 0
-8444 8389 0
-8444 8419 0
8445 -8389 -8417 0
-8445 8389 0
-8445 8417 0
8446 -8392 -8419 -8386 0
-8446 8392 0
-8446 8419 0
-8446 8386 0
-2842 8447 8443 8444 8445 8446 0
2842 -8447 0
2842 -8443 0
2842 -8444 0
2842 -8445 0
2842 -8446 0
8448 -8398 -8417 0
-8448 8398 0
-8448 8417 0
8449 -8396 -8417 0
-8449 8396 0
-8449 8417 0
8450 -8396 -8419 0
-8450 8396 0
-8450 8419 0
8451 -8398 -8419 -8386 0
-8451 8398 0
-8451 8419 0
-8451 8386 0
-2845 8452 8448 8449 8450 8451 0
2845 -8452 0
2845 -8448 0
2845 -8449 0
2845 -8450 0
2845 -8451 0
8453 -8413 -8405 0
-8453 8413 0
-8453 8405 0
8454 -8410 -8403 0
-8454 8410 0
-8454 8403 0
8455 -8410 -8405 0
-8455 8410 0
-8455 8405 0
8456 -8413 -8403 -8386 0
-8456 8413 0
-8456 8403 0
-8456 8386 0
-2838 8457 8453 8454 8455 8456 0
2838 -8457 0
2838 -8453 0
2838 -8454 0
2838 -8455 0
2838 -8456 0
8458 -8413 -8396 0
-8458 8413 0
-8458 8396 0
8459 -8410 -8398 0
-8459 8410 0
-8459 8398 0
8460 -8410 -8396 0
-8460 8410 0
-8460 8396 0
8461 -8413 -8398 -8386 0
-8461 8413 0
-8461 8398 0
-8461 8386 0
-2847 8462 8458 8459 8460 8461 0
2847 -8462 0
2847 -8458 0
2847 -8459 0
2847 -8460 0
2847 -8461 0
8463 -8413 -8410 0
-8463 8413 0
-8463 8410 0
8464 -8410 -8410 0
-8464 8410 0
-8464 8410 0
8465 -8410 -8413 0
-8465 8410 0
-8465 8413 0
8466 -8413 -8413 -8386 0
-8466 8413 0
-8466 8413 0
-8466 8386 0
-2850 8467 8463 8464 8465 8466 0
2850 -8467 0
2850 -8463 0
2850 -8464 0
2850 -8465 0
2850 -8466 0
8468 -6754 -6754 0
-8468 6754 0
-8468 6754 0
-1302 6760 8468 0
1302 -6760 0
1302 -8468 0
8469 -6754 -6765 0
-8469 6754 0
-8469 6765 0
-1296 6767 8469 0
1296 -6767 0
1296 -8469 0
8470 -6754 -6771 0
-8470 6754 0
-8470 6771 0
-1295 6774 8470 0
1295 -6774 0
1295 -8470 0
8471 -6776 -6771 0
-8471 6776 0
-8471 6771 0
-1318 6781 8471 0
1318 -6781 0
1318 -8471 0
8472 -6754 -6786 0
-8472 6754 0
-8472 6786 0
-1309 6788 8472 0
1309 -6788 0
1309 -8472 0
8473 -6754 -6792 0
-8473 6754 0
-8473 6792 0
-1316 6795 8473 0
1316 -6795 0
1316 -8473 0
8474 -6776 -6792 0
-8474 6776 0
-8474 6792 0
-1323 6800 8474 0
1323 -6800 0
1323 -8474 0
8475 -6765 -6776 0
-8475 6765 0
-8475 6776 0
-1320 6805 8475 0
1320 -6805 0
1320 -8475 0
8476 -6765 -6765 0
-8476 6765 0
-8476 6765 0
-1300 6810 8476 0
1300 -6810 0
1300 -8476 0
8477 -6765 -6786 0
-8477 6765 0
-8477 6786 0
-1304 6815 8477 0
1304 -6815 0
1304 -8477 0
8478 -6765 -6792 0
-8478 6765 0
-8478 6792 0
-1311 6820 8478 0
1311 -6820 0
1311 -8478 0
8479 -6771 -6792 0
-8479 6771 0
-8479 6792 0
-1313 6825 8479 0
1313 -6825 0
1313 -8479 0
8480 -6786 -6776 0
-8480 6786 0
-8480 6776 0
-1328 6830 8480 0
1328 -6830 0
1328 -8480 0
8481 -6786 -6771 0
-8481 6786 0
-8481 6771 0
-1307 6835 8481 0
1307 -6835 0
1307 -8481 0
8482 -6786 -6786 0
-8482 6786 0
-8482 6786 0
-1334 6840 8482 0
1334 -6840 0
1334 -8482 0
8483 -8484 -8485 0
-8483 8484 0
-8483 8485 0
8486 -8485 -8485 0
-8486 8485 0
-8486 8485 0
8487 -8485 -8484 0
-8487 8485 0
-8487 8484 0
8488 -8484 -8484 -8489 0
-8488 8484 0
-8488 8484 0
-8488 8489 0
-5906 8490 8483 8486 8487 8488 0
5906 -8490 0
5906 -8483 0
5906 -8486 0
5906 -8487 0
5906 -8488 0
8491 -8484 -8492 0
-8491 8484 0
-8491 8492 0
8493 -8485 -8492 0
-8493 8485 0
-8493 8492 0
8494 -8485 -8495 0
-8494 8485 0
-8494 8495 0
8496 -8484 -8495 -8489 0
-8496 8484 0
-8496 8495 0
-8496 8489 0
-5902 8497 8491 8493 8494 8496 0
5902 -8497 0
5902 -8491 0
5902 -8493 0
5902 -8494 0
5902 -8496 0
8498 -8484 -8499 0
-8498 8484 0
-8498 8499 0
8500 -8485 -8501 0
-8500 8485 0
-8500 8501 0
8502 -8485 -8499 0
-8502 8485 0
-8502 8499 0
8503 -8484 -8501 -8489 0
-8503 8484 0
-8503 8501 0
-8503 8489 0
-5926 8504 8498 8500 8502 8503 0
5926 -8504 0
5926 -8498 0
5926 -8500 0
5926 -8502 0
5926 -8503 0
8505 -8506 -8499 0
-8505 8506 0
-8505 8499 0
8507 -8508 -8499 0
-8507 8508 0
-8507 8499 0
8509 -8508 -8501 0
-8509 8508 0
-8509 8501 0
8510 -8506 -8501 -8489 0
-8510 8506 0
-8510 8501 0
-8510 8489 0
-5924 8511 8505 8507 8509 8510 0
5924 -8511 0
5924 -8505 0
5924 -8507 0
5924 -8509 0
5924 -8510 0
8512 -8484 -8513 0
-8512 8484 0
-8512 8513 0
8514 -8485 -8513 0
-8514 8485 0
-8514 8513 0
8515 -8485 -8516 0
-8515 8485 0
-8515 8516 0
8517 -8484 -8516 -8489 0
-8517 8484 0
-8517 8516 0
-8517 8489 0
-5910 8518 8512 8514 8515 8517 0
5910 -8518 0
5910 -8512 0
5910 -8514 0
5910 -8515 0
5910 -8517 0
8519 -8484 -8520 0
-8519 8484 0
-8519 8520 0
8521 -8485 -8522 0
-8521 8485 0
-8521 8522 0
8523 -8485 -8520 0
-8523 8485 0
-8523 8520 0
8524 -8484 -8522 -8489 0
-8524 8484 0
-8524 8522 0
-8524 8489 0
-5917 8525 8519 8521 8523 8524 0
5917 -8525 0
5917 -8519 0
5917 -8521 0
5917 -8523 0
5917 -8524 0
8526 -8506 -8520 0
-8526 8506 0
-8526 8520 0
8527 -8508 -8520 0
-8527 8508 0
-8527 8520 0
8528 -8508 -8522 0
-8528 8508 0
-8528 8522 0
8529 -8506 -8522 -8489 0
-8529 8506 0
-8529 8522 0
-8529 8489 0
-5919 8530 8526 8527 8528 8529 0
5919 -8530 0
5919 -8526 0
5919 -8527 0
5919 -8528 0
5919 -8529 0
8531 -8495 -8508 0
-8531 8495 0
-8531 8508 0
8532 -8492 -8506 0
-8532 8492 0
-8532 8506 0
8533 -8492 -8508 0
-8533 8492 0
-8533 8508 0
8534 -8495 -8506 -8489 0
-8534 8495 0
-8534 8506 0
-8534 8489 0
-5901 8535 8531 8532 8533 8534 0
5901 -8535 0
5901 -8531 0
5901 -8532 0
5901 -8533 0
5901 -8534 0
8536 -8495 -8492 0
-8536 8495 0
-8536 8492 0
8537 -8492 -8492 0
-8537 8492 0
-8537 8492 0
8538 -8492 -8495 0
-8538 8492 0
-8538 8495 0
8539 -8495 -8495 -8489 0
-8539 8495 0
-8539 8495 0
-8539 8489 0
-5908 8540 8536 8537 8538 8539 0
5908 -8540 0
5908 -8536 0
5908 -8537 0
5908 -8538 0
5908 -8539 0
8541 -8495 -8513 0
-8541 8495 0
-8541 8513 0
8542 -8492 -8513 0
-8542 8492 0
-8542 8513 0
8543 -8492 -8516 0
-8543 8492 0
-8543 8516 0
8544 -8495 -8516 -8489 0
-8544 8495 0
-8544 8516 0
-8544 8489 0
-5915 8545 8541 8542 8543 8544 0
5915 -8545 0
5915 -8541 0
5915 -8542 0
5915 -8543 0
5915 -8544 0
8546 -8495 -8520 0
-8546 8495 0
-8546 8520 0
8547 -8492 -8522 0
-8547 8492 0
-8547 8522 0
8548 -8492 -8520 0
-8548 8492 0
-8548 8520 0
8549 -8495 -8522 -8489 0
-8549 8495 0
-8549 8522 0
-8549 8489 0
-5922 8550 8546 8547 8548 8549 0
5922 -8550 0
5922 -8546 0
5922 -8547 0
5922 -8548 0
5922 -8549 0
8551 -8501 -8520 0
-8551 8501 0
-8551 8520 0
8552 -8499 -8520 0
-8552 8499 0
-8552 8520 0
8553 -8499 -8522 0
-8553 8499 0
-8553 8522 0
8554 -8501 -8522 -8489 0
-8554 8501 0
-8554 8522 0
-8554 8489 0
-5929 8555 8551 8552 8553 8554 0
5929 -8555 0
5929 -8551 0
5929 -8552 0
5929 -8553 0
5929 -8554 0
8556 -8516 -8508 0
-8556 8516 0
-8556 8508 0
8557 -8513 -8506 0
-8557 8513 0
-8557 8506 0
8558 -8513 -8508 0
-8558 8513 0
-8558 8508 0
8559 -8516 -8506 -8489 0
-8559 8516 0
-8559 8506 0
-8559 8489 0
-5913 8560 8556 8557 8558 8559 0
5913 -8560 0
5913 -8556 0
5913 -8557 0
5913 -8558 0
5913 -8559 0
8561 -8516 -8499 0
-8561 8516 0
-8561 8499 0
8562 -8513 -8501 0
-8562 8513 0
-8562 8501 0
8563 -8513 -8499 0
-8563 8513 0
-8563 8499 0
8564 -8516 -8501 -8489 0
-8564 8516 0
-8564 8501 0
-8564 8489 0
-5934 8565 8561 8562 8563 8564 0
5934 -8565 0
5934 -8561 0
5934 -8562 0
5934 -8563 0
5934 -8564 0
8566 -8516 -8513 0
-8566 8516 0
-8566 8513 0
8567 -8513 -8513 0
-8567 8513 0
-8567 8513 0
8568 -8513 -8516 0
-8568 8513 0
-8568 8516 0
8569 -8516 -8516 -8489 0
-8569 8516 0
-8569 8516 0
-8569 8489 0
-5940 8570 8566 8567 8568 8569 0
5940 -8570 0
5940 -8566 0
5940 -8567 0
5940 -8568 0
5940 -8569 0
8571 -8484 -8484 0
-8571 8484 0
-8571 8484 0
-3340 8490 8571 0
3340 -8490 0
3340 -8571 0
8572 -8484 -8495 0
-8572 8484 0
-8572 8495 0
-3336 8497 8572 0
3336 -8497 0
3336 -8572 0
8573 -8484 -8501 0
-8573 8484 0
-8573 8501 0
-3354 8504 8573 0
3354 -8504 0
3354 -8573 0
8574 -8506 -8501 0
-8574 8506 0
-8574 8501 0
-2379 8511 8574 0
2379 -8511 0
2379 -8574 0
8575 -8484 -8516 0
-8575 8484 0
-8575 8516 0
-3343 8518 8575 0
3343 -8518 0
3343 -8575 0
8576 -8484 -8522 0
-8576 8484 0
-8576 8522 0
-3348 8525 8576 0
3348 -8525 0
3348 -8576 0
8577 -8506 -8522 0
-8577 8506 0
-8577 8522 0
-2376 8530 8577 0
2376 -8530 0
2376 -8577 0
8578 -8495 -8506 0
-8578 8495 0
-8578 8506 0
-2369 8535 8578 0
2369 -8535 0
2369 -8578 0
8579 -8495 -8495 0
-8579 8495 0
-8579 8495 0
-2371 8540 8579 0
2371 -8540 0
2371 -8579 0
8580 -8495 -8516 0
-8580 8495 0
-8580 8516 0
-2374 8545 8580 0
2374 -8545 0
2374 -8580 0
8581 -8495 -8522 0
-8581 8495 0
-8581 8522 0
-2377 8550 8581 0
2377 -8550 0
2377 -8581 0
8582 -8501 -8522 0
-8582 8501 0
-8582 8522 0
-2380 8555 8582 0
2380 -8555 0
2380 -8582 0
8583 -8516 -8506 0
-8583 8516 0
-8583 8506 0
-2373 8560 8583 0
2373 -8560 0
2373 -8583 0
8584 -8516 -8501 0
-8584 8516 0
-8584 8501 0
-2382 8565 8584 0
2382 -8565 0
2382 -8584 0
8585 -8516 -8516 0
-8585 8516 0
-8585 8516 0
-2385 8570 8585 0
2385 -8570 0
2385 -8585 0
8586 -7009 -7009 0
-8586 7009 0
-8586 7009 0
-4500 7015 8586 0
4500 -7015 0
4500 -8586 0
8587 -7009 -7020 0
-8587 7009 0
-8587 7020 0
-4496 7022 8587 0
4496 -7022 0
4496 -8587 0
8588 -7009 -7026 0
-8588 7009 0
-8588 7026 0
-4520 7029 8588 0
4520 -7029 0
4520 -8588 0
8589 -7031 -7026 0
-8589 7031 0
-8589 7026 0
-4518 7036 8589 0
4518 -7036 0
4518 -8589 0
8590 -7009 -7041 0
-8590 7009 0
-8590 7041 0
-4504 7043 8590 0
4504 -7043 0
4504 -8590 0
8591 -7009 -7047 0
-8591 7009 0
-8591 7047 0
-4511 7050 8591 0
4511 -7050 0
4511 -8591 0
8592 -7031 -7047 0
-8592 7031 0
-8592 7047 0
-4513 7055 8592 0
4513 -7055 0
4513 -8592 0
8593 -7020 -7031 0
-8593 7020 0
-8593 7031 0
-4495 7060 8593 0
4495 -7060 0
4495 -8593 0
8594 -7020 -7020 0
-8594 7020 0
-8594 7020 0
-4502 7065 8594 0
4502 -7065 0
4502 -8594 0
8595 -7020 -7041 0
-8595 7020 0
-8595 7041 0
-4509 7070 8595 0
4509 -7070 0
4509 -8595 0
8596 -7020 -7047 0
-8596 7020 0
-8596 7047 0
-4516 7075 8596 0
4516 -7075 0
4516 -8596 0
8597 -7026 -7047 0
-8597 7026 0
-8597 7047 0
-4523 7080 8597 0
4523 -7080 0
4523 -8597 0
8598 -7041 -7031 0
-8598 7041 0
-8598 7031 0
-4507 7085 8598 0
4507 -7085 0
4507 -8598 0
8599 -7041 -7026 0
-8599 7041 0
-8599 7026 0
-4528 7090 8599 0
4528 -7090 0
4528 -8599 0
8600 -7041 -7041 0
-8600 7041 0
-8600 7041 0
-4534 7095 8600 0
4534 -7095 0
4534 -8600 0
8601 -7687 -7680 0
-8601 7687 0
-8601 7680 0
8602 -7680 -7680 0
-8602 7680 0
-8602 7680 0
8603 -7680 -7687 0
-8603 7680 0
-8603 7687 0
8604 -7687 -7687 -7723 0
-8604 7687 0
-8604 7687 0
-8604 7723 0
-2741 7673 8601 8602 8603 8604 0
2741 -7673 0
2741 -8601 0
2741 -8602 0
2741 -8603 0
2741 -8604 0
8605 -7687 -7675 0
-8605 7687 0
-8605 7675 0
8606 -7680 -7675 0
-8606 7680 0
-8606 7675 0
8607 -7680 -7682 0
-8607 7680 0
-8607 7682 0
8608 -7687 -7682 -7723 0
-8608 7687 0
-8608 7682 0
-8608 7723 0
-2735 7668 8605 8606 8607 8608 0
2735 -7668 0
2735 -8605 0
2735 -8606 0
2735 -8607 0
2735 -8608 0
8609 -7687 -7678 0
-8609 7687 0
-8609 7678 0
8610 -7680 -7684 0
-8610 7680 0
-8610 7684 0
8611 -7680 -7678 0
-8611 7680 0
-8611 7678 0
8612 -7687 -7684 -7723 0
-8612 7687 0
-8612 7684 0
-8612 7723 0
-2734 7667 8609 8610 8611 8612 0
2734 -7667 0
2734 -8609 0
2734 -8610 0
2734 -8611 0
2734 -8612 0
8613 -7694 -7678 0
-8613 7694 0
-8613 7678 0
8614 -7718 -7678 0
-8614 7718 0
-8614 7678 0
8615 -7718 -7684 0
-8615 7718 0
-8615 7684 0
8616 -7694 -7684 -7723 0
-8616 7694 0
-8616 7684 0
-8616 7723 0
-2757 7689 8613 8614 8615 8616 0
2757 -7689 0
2757 -8613 0
2757 -8614 0
2757 -8615 0
2757 -8616 0
8617 -7687 -7728 0
-8617 7687 0
-8617 7728 0
8618 -7680 -7728 0
-8618 7680 0
-8618 7728 0
8619 -7680 -7748 0
-8619 7680 0
-8619 7748 0
8620 -7687 -7748 -7723 0
-8620 7687 0
-8620 7748 0
-8620 7723 0
-2748 7701 8617 8618 8619 8620 0
2748 -7701 0
2748 -8617 0
2748 -8618 0
2748 -8619 0
2748 -8620 0
8621 -7687 -7733 0
-8621 7687 0
-8621 7733 0
8622 -7680 -7738 0
-8622 7680 0
-8622 7738 0
8623 -7680 -7733 0
-8623 7680 0
-8623 7733 0
8624 -7687 -7738 -7723 0
-8624 7687 0
-8624 7738 0
-8624 7723 0
-2755 7708 8621 8622 8623 8624 0
2755 -7708 0
2755 -8621 0
2755 -8622 0
2755 -8623 0
2755 -8624 0
8625 -7694 -7733 0
-8625 7694 0
-8625 7733 0
8626 -7718 -7733 0
-8626 7718 0
-8626 7733 0
8627 -7718 -7738 0
-8627 7718 0
-8627 7738 0
8628 -7694 -7738 -7723 0
-8628 7694 0
-8628 7738 0
-8628 7723 0
-2762 7713 8625 8626 8627 8628 0
2762 -7713 0
2762 -8625 0
2762 -8626 0
2762 -8627 0
2762 -8628 0
8629 -7682 -7718 0
-8629 7682 0
-8629 7718 0
8630 -7675 -7694 0
-8630 7675 0
-8630 7694 0
8631 -7675 -7718 0
-8631 7675 0
-8631 7718 0
8632 -7682 -7694 -7723 0
-8632 7682 0
-8632 7694 0
-8632 7723 0
-2759 7691 8629 8630 8631 8632 0
2759 -7691 0
2759 -8629 0
2759 -8630 0
2759 -8631 0
2759 -8632 0
8633 -7682 -7675 0
-8633 7682 0
-8633 7675 0
7720 -7675 -7675 0
-7720 7675 0
-7720 7675 0
8634 -7675 -7682 0
-8634 7675 0
-8634 7682 0
8635 -7682 -7682 -7723 0
-8635 7682 0
-8635 7682 0
-8635 7723 0
-2739 7672 8633 7720 8634 8635 0
2739 -7672 0
2739 -8633 0
2739 -7720 0
2739 -8634 0
2739 -8635 0
8636 -7682 -7728 0
-8636 7682 0
-8636 7728 0
8637 -7675 -7728 0
-8637 7675 0
-8637 7728 0
8638 -7675 -7748 0
-8638 7675 0
-8638 7748 0
8639 -7682 -7748 -7723 0
-8639 7682 0
-8639 7748 0
-8639 7723 0
-2743 7696 8636 8637 8638 8639 0
2743 -7696 0
2743 -8636 0
2743 -8637 0
2743 -8638 0
2743 -8639 0
8640 -7682 -7733 0
-8640 7682 0
-8640 7733 0
8641 -7675 -7738 0
-8641 7675 0
-8641 7738 0
8642 -7675 -7733 0
-8642 7675 0
-8642 7733 0
8643 -7682 -7738 -7723 0
-8643 7682 0
-8643 7738 0
-8643 7723 0
-2750 7703 8640 8641 8642 8643 0
2750 -7703 0
2750 -8640 0
2750 -8641 0
2750 -8642 0
2750 -8643 0
8644 -7684 -7733 0
-8644 7684 0
-8644 7733 0
8645 -7678 -7733 0
-8645 7678 0
-8645 7733 0
8646 -7678 -7738 0
-8646 7678 0
-8646 7738 0
8647 -7684 -7738 -7723 0
-8647 7684 0
-8647 7738 0
-8647 7723 0
-2752 7705 8644 8645 8646 8647 0
2752 -7705 0
2752 -8644 0
2752 -8645 0
2752 -8646 0
2752 -8647 0
8648 -7748 -7718 0
-8648 7748 0
-8648 7718 0
8649 -7728 -7694 0
-8649 7728 0
-8649 7694 0
8650 -7728 -7718 0
-8650 7728 0
-8650 7718 0
8651 -7748 -7694 -7723 0
-8651 7748 0
-8651 7694 0
-8651 7723 0
-2767 7743 8648 8649 8650 8651 0
2767 -7743 0
2767 -8648 0
2767 -8649 0
2767 -8650 0
2767 -8651 0
8652 -7748 -7678 0
-8652 7748 0
-8652 7678 0
8653 -7728 -7684 0
-8653 7728 0
-8653 7684 0
8654 -7728 -7678 0
-8654 7728 0
-8654 7678 0
8655 -7748 -7684 -7723 0
-8655 7748 0
-8655 7684 0
-8655 7723 0
-2746 7699 8652 8653 8654 8655 0
2746 -7699 0
2746 -8652 0
2746 -8653 0
2746 -8654 0
2746 -8655 0
8656 -7748 -7728 0
-8656 7748 0
-8656 7728 0
8657 -7728 -7728 0
-8657 7728 0
-8657 7728 0
8658 -7728 -7748 0
-8658 7728 0
-8658 7748 0
8659 -7748 -7748 -7723 0
-8659 7748 0
-8659 7748 0
-8659 7723 0
-2773 7753 8656 8657 8658 8659 0
2773 -7753 0
2773 -8656 0
2773 -8657 0
2773 -8658 0
2773 -8659 0
8660 -6462 -6459 0
-8660 6462 0
-8660 6459 0
8661 -6459 -6459 0
-8661 6459 0
-8661 6459 0
8662 -6459 -6462 0
-8662 6459 0
-8662 6462 0
8663 -6462 -6462 -6477 0
-8663 6462 0
-8663 6462 0
-8663 6477 0
-3084 6456 8660 8661 8662 8663 0
3084 -6456 0
3084 -8660 0
3084 -8661 0
3084 -8662 0
3084 -8663 0
8664 -6462 -7560 0
-8664 6462 0
-8664 7560 0
8665 -6459 -7560 0
-8665 6459 0
-8665 7560 0
8666 -6459 -7566 0
-8666 6459 0
-8666 7566 0
8667 -6462 -7566 -6477 0
-8667 6462 0
-8667 7566 0
-8667 6477 0
-3080 7554 8664 8665 8666 8667 0
3080 -7554 0
3080 -8664 0
3080 -8665 0
3080 -8666 0
3080 -8667 0
8668 -6462 -6458 0
-8668 6462 0
-8668 6458 0
8669 -6459 -6461 0
-8669 6459 0
-8669 6461 0
8670 -6459 -6458 0
-8670 6459 0
-8670 6458 0
8671 -6462 -6461 -6477 0
-8671 6462 0
-8671 6461 0
-8671 6477 0
-3098 6455 8668 8669 8670 8671 0
3098 -6455 0
3098 -8668 0
3098 -8669 0
3098 -8670 0
3098 -8671 0
8672 -6465 -6458 0
-8672 6465 0
-8672 6458 0
8673 -6475 -6458 0
-8673 6475 0
-8673 6458 0
8674 -6475 -6461 0
-8674 6475 0
-8674 6461 0
8675 -6465 -6461 -6477 0
-8675 6465 0
-8675 6461 0
-8675 6477 0
-2923 6464 8672 8673 8674 8675 0
2923 -6464 0
2923 -8672 0
2923 -8673 0
2923 -8674 0
2923 -8675 0
8676 -6462 -6479 0
-8676 6462 0
-8676 6479 0
8677 -6459 -6479 0
-8677 6459 0
-8677 6479 0
8678 -6459 -6487 0
-8678 6459 0
-8678 6487 0
8679 -6462 -6487 -6477 0
-8679 6462 0
-8679 6487 0
-8679 6477 0
-3087 6468 8676 8677 8678 8679 0
3087 -6468 0
3087 -8676 0
3087 -8677 0
3087 -8678 0
3087 -8679 0
8680 -6462 -6481 0
-8680 6462 0
-8680 6481 0
8681 -6459 -6483 0
-8681 6459 0
-8681 6483 0
8682 -6459 -6481 0
-8682 6459 0
-8682 6481 0
8683 -6462 -6483 -6477 0
-8683 6462 0
-8683 6483 0
-8683 6477 0
-3092 6471 8680 8681 8682 8683 0
3092 -6471 0
3092 -8680 0
3092 -8681 0
3092 -8682 0
3092 -8683 0
8684 -6465 -6481 0
-8684 6465 0
-8684 6481 0
8685 -6475 -6481 0
-8685 6475 0
-8685 6481 0
8686 -6475 -6483 0
-8686 6475 0
-8686 6483 0
8687 -6465 -6483 -6477 0
-8687 6465 0
-8687 6483 0
-8687 6477 0
-2920 6473 8684 8685 8686 8687 0
2920 -6473 0
2920 -8684 0
2920 -8685 0
2920 -8686 0
2920 -8687 0
8688 -7566 -6475 0
-8688 7566 0
-8688 6475 0
8689 -7560 -6465 0
-8689 7560 0
-8689 6465 0
8690 -7560 -6475 0
-8690 7560 0
-8690 6475 0
8691 -7566 -6465 -6477 0
-8691 7566 0
-8691 6465 0
-8691 6477 0
-2913 7564 8688 8689 8690 8691 0
2913 -7564 0
2913 -8688 0
2913 -8689 0
2913 -8690 0
2913 -8691 0
8692 -7566 -7560 0
-8692 7566 0
-8692 7560 0
8693 -7560 -7560 0
-8693 7560 0
-8693 7560 0
8694 -7560 -7566 0
-8694 7560 0
-8694 7566 0
8695 -7566 -7566 -6477 0
-8695 7566 0
-8695 7566 0
-8695 6477 0
-2915 7568 8692 8693 8694 8695 0
2915 -7568 0
2915 -8692 0
2915 -8693 0
2915 -8694 0
2915 -8695 0
8696 -7566 -6479 0
-8696 7566 0
-8696 6479 0
8697 -7560 -6479 0
-8697 7560 0
-8697 6479 0
8698 -7560 -6487 0
-8698 7560 0
-8698 6487 0
8699 -7566 -6487 -6477 0
-8699 7566 0
-8699 6487 0
-8699 6477 0
-2918 7622 8696 8697 8698 8699 0
2918 -7622 0
2918 -8696 0
2918 -8697 0
2918 -8698 0
2918 -8699 0
8700 -7566 -6481 0
-8700 7566 0
-8700 6481 0
8701 -7560 -6483 0
-8701 7560 0
-8701 6483 0
8702 -7560 -6481 0
-8702 7560 0
-8702 6481 0
8703 -7566 -6483 -6477 0
-8703 7566 0
-8703 6483 0
-8703 6477 0
-2921 7553 8700 8701 8702 8703 0
2921 -7553 0
2921 -8700 0
2921 -8701 0
2921 -8702 0
2921 -8703 0
8704 -6461 -6481 0
-8704 6461 0
-8704 6481 0
8705 -6458 -6481 0
-8705 6458 0
-8705 6481 0
8706 -6458 -6483 0
-8706 6458 0
-8706 6483 0
8707 -6461 -6483 -6477 0
-8707 6461 0
-8707 6483 0
-8707 6477 0
-2924 6470 8704 8705 8706 8707 0
2924 -6470 0
2924 -8704 0
2924 -8705 0
2924 -8706 0
2924 -8707 0
8708 -6487 -6475 0
-8708 6487 0
-8708 6475 0
8709 -6479 -6465 0
-8709 6479 0
-8709 6465 0
8710 -6479 -6475 0
-8710 6479 0
-8710 6475 0
8711 -6487 -6465 -6477 0
-8711 6487 0
-8711 6465 0
-8711 6477 0
-2917 6485 8708 8709 8710 8711 0
2917 -6485 0
2917 -8708 0
2917 -8709 0
2917 -8710 0
2917 -8711 0
8712 -6487 -6458 0
-8712 6487 0
-8712 6458 0
8713 -6479 -6461 0
-8713 6479 0
-8713 6461 0
8714 -6479 -6458 0
-8714 6479 0
-8714 6458 0
8715 -6487 -6461 -6477 0
-8715 6487 0
-8715 6461 0
-8715 6477 0
-2926 6467 8712 8713 8714 8715 0
2926 -6467 0
2926 -8712 0
2926 -8713 0
2926 -8714 0
2926 -8715 0
8716 -6487 -6479 0
-8716 6487 0
-8716 6479 0
7639 -6479 -6479 0
-7639 6479 0
-7639 6479 0
8717 -6479 -6487 0
-8717 6479 0
-8717 6487 0
8718 -6487 -6487 -6477 0
-8718 6487 0
-8718 6487 0
-8718 6477 0
-2929 6489 8716 7639 8717 8718 0
2929 -6489 0
2929 -8716 0
2929 -7639 0
2929 -8717 0
2929 -8718 0
8719 -8401 -8394 0
-8719 8401 0
-8719 8394 0
8720 -8394 -8394 0
-8720 8394 0
-8720 8394 0
8721 -8394 -8401 0
-8721 8394 0
-8721 8401 0
8722 -8401 -8401 -8437 0
-8722 8401 0
-8722 8401 0
-8722 8437 0
-2006 8387 8719 8720 8721 8722 0
2006 -8387 0
2006 -8719 0
2006 -8720 0
2006 -8721 0
2006 -8722 0
8723 -8401 -8389 0
-8723 8401 0
-8723 8389 0
8724 -8394 -8389 0
-8724 8394 0
-8724 8389 0
8725 -8394 -8396 0
-8725 8394 0
-8725 8396 0
8726 -8401 -8396 -8437 0
-8726 8401 0
-8726 8396 0
-8726 8437 0
-2001 8382 8723 8724 8725 8726 0
2001 -8382 0
2001 -8723 0
2001 -8724 0
2001 -8725 0
2001 -8726 0
8727 -8401 -8392 0
-8727 8401 0
-8727 8392 0
8728 -8394 -8398 0
-8728 8394 0
-8728 8398 0
8729 -8394 -8392 0
-8729 8394 0
-8729 8392 0
8730 -8401 -8398 -8437 0
-8730 8401 0
-8730 8398 0
-8730 8437 0
-2000 8381 8727 8728 8729 8730 0
2000 -8381 0
2000 -8727 0
2000 -8728 0
2000 -8729 0
2000 -8730 0
8731 -8408 -8392 0
-8731 8408 0
-8731 8392 0
8732 -8432 -8392 0
-8732 8432 0
-8732 8392 0
8733 -8432 -8398 0
-8733 8432 0
-8733 8398 0
8734 -8408 -8398 -8437 0
-8734 8408 0
-8734 8398 0
-8734 8437 0
-1636 8403 8731 8732 8733 8734 0
1636 -8403 0
1636 -8731 0
1636 -8732 0
1636 -8733 0
1636 -8734 0
8735 -8401 -8442 0
-8735 8401 0
-8735 8442 0
8736 -8394 -8442 0
-8736 8394 0
-8736 8442 0
8737 -8394 -8462 0
-8737 8394 0
-8737 8462 0
8738 -8401 -8462 -8437 0
-8738 8401 0
-8738 8462 0
-8738 8437 0
-2011 8415 8735 8736 8737 8738 0
2011 -8415 0
2011 -8735 0
2011 -8736 0
2011 -8737 0
2011 -8738 0
8739 -8401 -8447 0
-8739 8401 0
-8739 8447 0
8740 -8394 -8452 0
-8740 8394 0
-8740 8452 0
8741 -8394 -8447 0
-8741 8394 0
-8741 8447 0
8742 -8401 -8452 -8437 0
-8742 8401 0
-8742 8452 0
-8742 8437 0
-2016 8422 8739 8740 8741 8742 0
2016 -8422 0
2016 -8739 0
2016 -8740 0
2016 -8741 0
2016 -8742 0
8743 -8408 -8447 0
-8743 8408 0
-8743 8447 0
8744 -8432 -8447 0
-8744 8432 0
-8744 8447 0
8745 -8432 -8452 0
-8745 8432 0
-8745 8452 0
8746 -8408 -8452 -8437 0
-8746 8408 0
-8746 8452 0
-8746 8437 0
-1633 8427 8743 8744 8745 8746 0
1633 -8427 0
1633 -8743 0
1633 -8744 0
1633 -8745 0
1633 -8746 0
8747 -8396 -8432 0
-8747 8396 0
-8747 8432 0
8748 -8389 -8408 0
-8748 8389 0
-8748 8408 0
8749 -8389 -8432 0
-8749 8389 0
-8749 8432 0
8750 -8396 -8408 -8437 0
-8750 8396 0
-8750 8408 0
-8750 8437 0
-1626 8405 8747 8748 8749 8750 0
1626 -8405 0
1626 -8747 0
1626 -8748 0
1626 -8749 0
1626 -8750 0
8751 -8396 -8389 0
-8751 8396 0
-8751 8389 0
8434 -8389 -8389 0
-8434 8389 0
-8434 8389 0
8752 -8389 -8396 0
-8752 8389 0
-8752 8396 0
8753 -8396 -8396 -8437 0
-8753 8396 0
-8753 8396 0
-8753 8437 0
-1628 8386 8751 8434 8752 8753 0
1628 -8386 0
1628 -8751 0
1628 -8434 0
1628 -8752 0
1628 -8753 0
8754 -8396 -8442 0
-8754 8396 0
-8754 8442 0
8755 -8389 -8442 0
-8755 8389 0
-8755 8442 0
8756 -8389 -8462 0
-8756 8389 0
-8756 8462 0
8757 -8396 -8462 -8437 0
-8757 8396 0
-8757 8462 0
-8757 8437 0
-1631 8410 8754 8755 8756 8757 0
1631 -8410 0
1631 -8754 0
1631 -8755 0
1631 -8756 0
1631 -8757 0
8758 -8396 -8447 0
-8758 8396 0
-8758 8447 0
8759 -8389 -8452 0
-8759 8389 0
-8759 8452 0
8760 -8389 -8447 0
-8760 8389 0
-8760 8447 0
8761 -8396 -8452 -8437 0
-8761 8396 0
-8761 8452 0
-8761 8437 0
-1634 8417 8758 8759 8760 8761 0
1634 -8417 0
1634 -8758 0
1634 -8759 0
1634 -8760 0
1634 -8761 0
8762 -8398 -8447 0
-8762 8398 0
-8762 8447 0
8763 -8392 -8447 0
-8763 8392 0
-8763 8447 0
8764 -8392 -8452 0
-8764 8392 0
-8764 8452 0
8765 -8398 -8452 -8437 0
-8765 8398 0
-8765 8452 0
-8765 8437 0
-1637 8419 8762 8763 8764 8765 0
1637 -8419 0
1637 -8762 0
1637 -8763 0
1637 -8764 0
1637 -8765 0
8766 -8462 -8432 0
-8766 8462 0
-8766 8432 0
8767 -8442 -8408 0
-8767 8442 0
-8767 8408 0
8768 -8442 -8432 0
-8768 8442 0
-8768 8432 0
8769 -8462 -8408 -8437 0
-8769 8462 0
-8769 8408 0
-8769 8437 0
-1630 8457 8766 8767 8768 8769 0
1630 -8457 0
1630 -8766 0
1630 -8767 0
1630 -8768 0
1630 -8769 0
8770 -8462 -8392 0
-8770 8462 0
-8770 8392 0
8771 -8442 -8398 0
-8771 8442 0
-8771 8398 0
8772 -8442 -8392 0
-8772 8442 0
-8772 8392 0
8773 -8462 -8398 -8437 0
-8773 8462 0
-8773 8398 0
-8773 8437 0
-1639 8413 8770 8771 8772 8773 0
1639 -8413 0
1639 -8770 0
1639 -8771 0
1639 -8772 0
1639 -8773 0
8774 -8462 -8442 0
-8774 8462 0
-8774 8442 0
8775 -8442 -8442 0
-8775 8442 0
-8775 8442 0
8776 -8442 -8462 0
-8776 8442 0
-8776 8462 0
8777 -8462 -8462 -8437 0
-8777 8462 0
-8777 8462 0
-8777 8437 0
-1642 8467 8774 8775 8776 8777 0
1642 -8467 0
1642 -8774 0
1642 -8775 0
1642 -8776 0
1642 -8777 0
8778 -6455 -7554 0
-8778 6455 0
-8778 7554 0
8779 -7554 -7554 0
-8779 7554 0
-8779 7554 0
8780 -7554 -6455 0
-8780 7554 0
-8780 6455 0
8781 -6455 -6455 -7568 0
-8781 6455 0
-8781 6455 0
-8781 7568 0
-3595 6456 8778 8779 8780 8781 0
3595 -6456 0
3595 -8778 0
3595 -8779 0
3595 -8780 0
3595 -8781 0
8782 -6455 -7560 0
-8782 6455 0
-8782 7560 0
8783 -7554 -7560 0
-8783 7554 0
-8783 7560 0
8784 -7554 -6458 0
-8784 7554 0
-8784 6458 0
8785 -6455 -6458 -7568 0
-8785 6455 0
-8785 6458 0
-8785 7568 0
-3591 6459 8782 8783 8784 8785 0
3591 -6459 0
3591 -8782 0
3591 -8783 0
3591 -8784 0
3591 -8785 0
8786 -6455 -7566 0
-8786 6455 0
-8786 7566 0
8787 -7554 -6461 0
-8787 7554 0
-8787 6461 0
8788 -7554 -7566 0
-8788 7554 0
-8788 7566 0
8789 -6455 -6461 -7568 0
-8789 6455 0
-8789 6461 0
-8789 7568 0
-3615 6462 8786 8787 8788 8789 0
3615 -6462 0
3615 -8786 0
3615 -8787 0
3615 -8788 0
3615 -8789 0
8790 -6464 -7566 0
-8790 6464 0
-8790 7566 0
8791 -7564 -7566 0
-8791 7564 0
-8791 7566 0
8792 -7564 -6461 0
-8792 7564 0
-8792 6461 0
8793 -6464 -6461 -7568 0
-8793 6464 0
-8793 6461 0
-8793 7568 0
-3613 6465 8790 8791 8792 8793 0
3613 -6465 0
3613 -8790 0
3613 -8791 0
3613 -8792 0
3613 -8793 0
8794 -6455 -7622 0
-8794 6455 0
-8794 7622 0
8795 -7554 -7622 0
-8795 7554 0
-8795 7622 0
8796 -7554 -6467 0
-8796 7554 0
-8796 6467 0
8797 -6455 -6467 -7568 0
-8797 6455 0
-8797 6467 0
-8797 7568 0
-3599 6468 8794 8795 8796 8797 0
3599 -6468 0
3599 -8794 0
3599 -8795 0
3599 -8796 0
3599 -8797 0
8798 -6455 -7553 0
-8798 6455 0
-8798 7553 0
8799 -7554 -6470 0
-8799 7554 0
-8799 6470 0
8800 -7554 -7553 0
-8800 7554 0
-8800 7553 0
8801 -6455 -6470 -7568 0
-8801 6455 0
-8801 6470 0
-8801 7568 0
-3606 6471 8798 8799 8800 8801 0
3606 -6471 0
3606 -8798 0
3606 -8799 0
3606 -8800 0
3606 -8801 0
8802 -6464 -7553 0
-8802 6464 0
-8802 7553 0
8803 -7564 -7553 0
-8803 7564 0
-8803 7553 0
8804 -7564 -6470 0
-8804 7564 0
-8804 6470 0
8805 -6464 -6470 -7568 0
-8805 6464 0
-8805 6470 0
-8805 7568 0
-3608 6473 8802 8803 8804 8805 0
3608 -6473 0
3608 -8802 0
3608 -8803 0
3608 -8804 0
3608 -8805 0
8806 -6458 -7564 0
-8806 6458 0
-8806 7564 0
8807 -7560 -6464 0
-8807 7560 0
-8807 6464 0
8808 -7560 -7564 0
-8808 7560 0
-8808 7564 0
8809 -6458 -6464 -7568 0
-8809 6458 0
-8809 6464 0
-8809 7568 0
-3590 6475 8806 8807 8808 8809 0
3590 -6475 0
3590 -8806 0
3590 -8807 0
3590 -8808 0
3590 -8809 0
8810 -6458 -7560 0
-8810 6458 0
-8810 7560 0
8693 -7560 -7560 0
-8693 7560 0
-8693 7560 0
8811 -7560 -6458 0
-8811 7560 0
-8811 6458 0
8812 -6458 -6458 -7568 0
-8812 6458 0
-8812 6458 0
-8812 7568 0
-3597 6477 8810 8693 8811 8812 0
3597 -6477 0
3597 -8810 0
3597 -8693 0
3597 -8811 0
3597 -8812 0
8813 -6458 -7622 0
-8813 6458 0
-8813 7622 0
8814 -7560 -7622 0
-8814 7560 0
-8814 7622 0
8815 -7560 -6467 0
-8815 7560 0
-8815 6467 0
8816 -6458 -6467 -7568 0
-8816 6458 0
-8816 6467 0
-8816 7568 0
-3604 6479 8813 8814 8815 8816 0
3604 -6479 0
3604 -8813 0
3604 -8814 0
3604 -8815 0
3604 -8816 0
8817 -6458 -7553 0
-8817 6458 0
-8817 7553 0
8818 -7560 -6470 0
-8818 7560 0
-8818 6470 0
8819 -7560 -7553 0
-8819 7560 0
-8819 7553 0
8820 -6458 -6470 -7568 0
-8820 6458 0
-8820 6470 0
-8820 7568 0
-3611 6481 8817 8818 8819 8820 0
3611 -6481 0
3611 -8817 0
3611 -8818 0
3611 -8819 0
3611 -8820 0
8821 -6461 -7553 0
-8821 6461 0
-8821 7553 0
8822 -7566 -7553 0
-8822 7566 0
-8822 7553 0
8823 -7566 -6470 0
-8823 7566 0
-8823 6470 0
8824 -6461 -6470 -7568 0
-8824 6461 0
-8824 6470 0
-8824 7568 0
-3618 6483 8821 8822 8823 8824 0
3618 -6483 0
3618 -8821 0
3618 -8822 0
3618 -8823 0
3618 -8824 0
8825 -6467 -7564 0
-8825 6467 0
-8825 7564 0
8826 -7622 -6464 0
-8826 7622 0
-8826 6464 0
8827 -7622 -7564 0
-8827 7622 0
-8827 7564 0
8828 -6467 -6464 -7568 0
-8828 6467 0
-8828 6464 0
-8828 7568 0
-3602 6485 8825 8826 8827 8828 0
3602 -6485 0
3602 -8825 0
3602 -8826 0
3602 -8827 0
3602 -8828 0
8829 -6467 -7566 0
-8829 6467 0
-8829 7566 0
8830 -7622 -6461 0
-8830 7622 0
-8830 6461 0
8831 -7622 -7566 0
-8831 7622 0
-8831 7566 0
8832 -6467 -6461 -7568 0
-8832 6467 0
-8832 6461 0
-8832 7568 0
-3623 6487 8829 8830 8831 8832 0
3623 -6487 0
3623 -8829 0
3623 -8830 0
3623 -8831 0
3623 -8832 0
8833 -6467 -7622 0
-8833 6467 0
-8833 7622 0
7663 -7622 -7622 0
-7663 7622 0
-7663 7622 0
8834 -7622 -6467 0
-8834 7622 0
-8834 6467 0
8835 -6467 -6467 -7568 0
-8835 6467 0
-8835 6467 0
-8835 7568 0
-3629 6489 8833 7663 8834 8835 0
3629 -6489 0
3629 -8833 0
3629 -7663 0
3629 -8834 0
3629 -8835 0
8836 -7900 -7900 0
-8836 7900 0
-8836 7900 0
-4699 7906 8836 0
4699 -7906 0
4699 -8836 0
8837 -7900 -7911 0
-8837 7900 0
-8837 7911 0
-4695 7913 8837 0
4695 -7913 0
4695 -8837 0
8838 -7900 -7917 0
-8838 7900 0
-8838 7917 0
-4713 7920 8838 0
4713 -7920 0
4713 -8838 0
8839 -7922 -7917 0
-8839 7922 0
-8839 7917 0
-3008 7927 8839 0
3008 -7927 0
3008 -8839 0
8840 -7900 -7932 0
-8840 7900 0
-8840 7932 0
-4702 7934 8840 0
4702 -7934 0
4702 -8840 0
8841 -7900 -7938 0
-8841 7900 0
-8841 7938 0
-4707 7941 8841 0
4707 -7941 0
4707 -8841 0
8842 -7922 -7938 0
-8842 7922 0
-8842 7938 0
-3005 7946 8842 0
3005 -7946 0
3005 -8842 0
8843 -7911 -7922 0
-8843 7911 0
-8843 7922 0
-2998 7951 8843 0
2998 -7951 0
2998 -8843 0
8844 -7911 -7911 0
-8844 7911 0
-8844 7911 0
-3000 7956 8844 0
3000 -7956 0
3000 -8844 0
8845 -7911 -7932 0
-8845 7911 0
-8845 7932 0
-3003 7961 8845 0
3003 -7961 0
3003 -8845 0
8846 -7911 -7938 0
-8846 7911 0
-8846 7938 0
-3006 7966 8846 0
3006 -7966 0
3006 -8846 0
8847 -7917 -7938 0
-8847 7917 0
-8847 7938 0
-3009 7971 8847 0
3009 -7971 0
3009 -8847 0
8848 -7932 -7922 0
-8848 7932 0
-8848 7922 0
-3002 7976 8848 0
3002 -7976 0
3002 -8848 0
8849 -7932 -7917 0
-8849 7932 0
-8849 7917 0
-3011 7981 8849 0
3011 -7981 0
3011 -8849 0
8850 -7932 -7932 0
-8850 7932 0
-8850 7932 0
-3014 7986 8850 0
3014 -7986 0
3014 -8850 0
8851 -8852 -8852 0
-8851 8852 0
-8851 8852 0
-5201 8853 8851 0
5201 -8853 0
5201 -8851 0
8854 -8852 -8855 0
-8854 8852 0
-8854 8855 0
-5197 8856 8854 0
5197 -8856 0
5197 -8854 0
8857 -8852 -8858 0
-8857 8852 0
-8857 8858 0
-5215 8859 8857 0
5215 -8859 0
5215 -8857 0
8860 -8861 -8858 0
-8860 8861 0
-8860 8858 0
-2708 8862 8860 0
2708 -8862 0
2708 -8860 0
8863 -8852 -8864 0
-8863 8852 0
-8863 8864 0
-5204 8865 8863 0
5204 -8865 0
5204 -8863 0
8866 -8852 -8867 0
-8866 8852 0
-8866 8867 0
-5209 8868 8866 0
5209 -8868 0
5209 -8866 0
8869 -8861 -8867 0
-8869 8861 0
-8869 8867 0
-2705 8870 8869 0
2705 -8870 0
2705 -8869 0
8871 -8855 -8861 0
-8871 8855 0
-8871 8861 0
-2698 8872 8871 0
2698 -8872 0
2698 -8871 0
8873 -8855 -8855 0
-8873 8855 0
-8873 8855 0
-2700 8874 8873 0
2700 -8874 0
2700 -8873 0
8875 -8855 -8864 0
-8875 8855 0
-8875 8864 0
-2703 8876 8875 0
2703 -8876 0
2703 -8875 0
8877 -8855 -8867 0
-8877 8855 0
-8877 8867 0
-2706 8878 8877 0
2706 -8878 0
2706 -8877 0
8879 -8858 -8867 0
-8879 8858 0
-8879 8867 0
-2709 8880 8879 0
2709 -8880 0
2709 -8879 0
8881 -8864 -8861 0
-8881 8864 0
-8881 8861 0
-2702 8882 8881 0
2702 -8882 0
2702 -8881 0
8883 -8864 -8858 0
-8883 8864 0
-8883 8858 0
-2711 8884 8883 0
2711 -8884 0
2711 -8883 0
8885 -8864 -8864 0
-8885 8864 0
-8885 8864 0
-2714 8886 8885 0
2714 -8886 0
2714 -8885 0
8887 -8381 -8381 0
-8887 8381 0
-8887 8381 0
-4859 8387 8887 0
4859 -8387 0
4859 -8887 0
8888 -8381 -8392 0
-8888 8381 0
-8888 8392 0
-4855 8394 8888 0
4855 -8394 0
4855 -8888 0
8889 -8381 -8398 0
-8889 8381 0
-8889 8398 0
-4873 8401 8889 0
4873 -8401 0
4873 -8889 0
8890 -8403 -8398 0
-8890 8403 0
-8890 8398 0
-4587 8408 8890 0
4587 -8408 0
4587 -8890 0
8891 -8381 -8413 0
-8891 8381 0
-8891 8413 0
-4862 8415 8891 0
4862 -8415 0
4862 -8891 0
8892 -8381 -8419 0
-8892 8381 0
-8892 8419 0
-4867 8422 8892 0
4867 -8422 0
4867 -8892 0
8893 -8403 -8419 0
-8893 8403 0
-8893 8419 0
-4584 8427 8893 0
4584 -8427 0
4584 -8893 0
8894 -8392 -8403 0
-8894 8392 0
-8894 8403 0
-4577 8432 8894 0
4577 -8432 0
4577 -8894 0
8895 -8392 -8392 0
-8895 8392 0
-8895 8392 0
-4579 8437 8895 0
4579 -8437 0
4579 -8895 0
8896 -8392 -8413 0
-8896 8392 0
-8896 8413 0
-4582 8442 8896 0
4582 -8442 0
4582 -8896 0
8897 -8392 -8419 0
-8897 8392 0
-8897 8419 0
-4585 8447 8897 0
4585 -8447 0
4585 -8897 0
8898 -8398 -8419 0
-8898 8398 0
-8898 8419 0
-4588 8452 8898 0
4588 -8452 0
4588 -8898 0
8899 -8413 -8403 0
-8899 8413 0
-8899 8403 0
-4581 8457 8899 0
4581 -8457 0
4581 -8899 0
8900 -8413 -8398 0
-8900 8413 0
-8900 8398 0
-4590 8462 8900 0
4590 -8462 0
4590 -8900 0
8901 -8413 -8413 0
-8901 8413 0
-8901 8413 0
-4593 8467 8901 0
4593 -8467 0
4593 -8901 0
8902 -7832 -7825 0
-8902 7832 0
-8902 7825 0
8903 -7825 -7825 0
-8903 7825 0
-8903 7825 0
8904 -7825 -7832 0
-8904 7825 0
-8904 7832 0
8905 -7832 -7832 -7877 0
-8905 7832 0
-8905 7832 0
-8905 7877 0
-1894 7797 8902 8903 8904 8905 0
1894 -7797 0
1894 -8902 0
1894 -8903 0
1894 -8904 0
1894 -8905 0
8906 -7832 -7820 0
-8906 7832 0
-8906 7820 0
8907 -7825 -7820 0
-8907 7825 0
-8907 7820 0
8908 -7825 -7827 0
-8908 7825 0
-8908 7827 0
8909 -7832 -7827 -7877 0
-8909 7832 0
-8909 7827 0
-8909 7877 0
-2519 7792 8906 8907 8908 8909 0
2519 -7792 0
2519 -8906 0
2519 -8907 0
2519 -8908 0
2519 -8909 0
8910 -7832 -7823 0
-8910 7832 0
-8910 7823 0
8911 -7825 -7829 0
-8911 7825 0
-8911 7829 0
8912 -7825 -7823 0
-8912 7825 0
-8912 7823 0
8913 -7832 -7829 -7877 0
-8913 7832 0
-8913 7829 0
-8913 7877 0
-1892 7791 8910 8911 8912 8913 0
1892 -7791 0
1892 -8910 0
1892 -8911 0
1892 -8912 0
1892 -8913 0
8914 -7837 -7823 0
-8914 7837 0
-8914 7823 0
8915 -7867 -7823 0
-8915 7867 0
-8915 7823 0
8916 -7867 -7829 0
-8916 7867 0
-8916 7829 0
8917 -7837 -7829 -7877 0
-8917 7837 0
-8917 7829 0
-8917 7877 0
-1902 7813 8914 8915 8916 8917 0
1902 -7813 0
1902 -8914 0
1902 -8915 0
1902 -8916 0
1902 -8917 0
8918 -7832 -7852 0
-8918 7832 0
-8918 7852 0
8919 -7825 -7852 0
-8919 7825 0
-8919 7852 0
8920 -7825 -7857 0
-8920 7825 0
-8920 7857 0
8921 -7832 -7857 -7877 0
-8921 7832 0
-8921 7857 0
-8921 7877 0
-1897 7804 8918 8919 8920 8921 0
1897 -7804 0
1897 -8918 0
1897 -8919 0
1897 -8920 0
1897 -8921 0
8922 -7832 -7872 0
-8922 7832 0
-8922 7872 0
8923 -7825 -7862 0
-8923 7825 0
-8923 7862 0
8924 -7825 -7872 0
-8924 7825 0
-8924 7872 0
8925 -7832 -7862 -7877 0
-8925 7832 0
-8925 7862 0
-8925 7877 0
-1900 7811 8922 8923 8924 8925 0
1900 -7811 0
1900 -8922 0
1900 -8923 0
1900 -8924 0
1900 -8925 0
8926 -7837 -7872 0
-8926 7837 0
-8926 7872 0
8927 -7867 -7872 0
-8927 7867 0
-8927 7872 0
8928 -7867 -7862 0
-8928 7867 0
-8928 7862 0
8929 -7837 -7862 -7877 0
-8929 7837 0
-8929 7862 0
-8929 7877 0
-1903 7818 8926 8927 8928 8929 0
1903 -7818 0
1903 -8926 0
1903 -8927 0
1903 -8928 0
1903 -8929 0
8930 -7827 -7867 0
-8930 7827 0
-8930 7867 0
8931 -7820 -7837 0
-8931 7820 0
-8931 7837 0
8932 -7820 -7867 0
-8932 7820 0
-8932 7867 0
8933 -7827 -7837 -7877 0
-8933 7827 0
-8933 7837 0
-8933 7877 0
-2523 7815 8930 8931 8932 8933 0
2523 -7815 0
2523 -8930 0
2523 -8931 0
2523 -8932 0
2523 -8933 0
8934 -7827 -7820 0
-8934 7827 0
-8934 7820 0
7874 -7820 -7820 0
-7874 7820 0
-7874 7820 0
8935 -7820 -7827 0
-8935 7820 0
-8935 7827 0
8936 -7827 -7827 -7877 0
-8936 7827 0
-8936 7827 0
-8936 7877 0
-2526 7796 8934 7874 8935 8936 0
2526 -7796 0
2526 -8934 0
2526 -7874 0
2526 -8935 0
2526 -8936 0
8937 -7827 -7852 0
-8937 7827 0
-8937 7852 0
8938 -7820 -7852 0
-8938 7820 0
-8938 7852 0
8939 -7820 -7857 0
-8939 7820 0
-8939 7857 0
8940 -7827 -7857 -7877 0
-8940 7827 0
-8940 7857 0
-8940 7877 0
-3556 7799 8937 8938 8939 8940 0
3556 -7799 0
3556 -8937 0
3556 -8938 0
3556 -8939 0
3556 -8940 0
8941 -7827 -7872 0
-8941 7827 0
-8941 7872 0
8942 -7820 -7862 0
-8942 7820 0
-8942 7862 0
8943 -7820 -7872 0
-8943 7820 0
-8943 7872 0
8944 -7827 -7862 -7877 0
-8944 7827 0
-8944 7862 0
-8944 7877 0
-2518 7806 8941 8942 8943 8944 0
2518 -7806 0
2518 -8941 0
2518 -8942 0
2518 -8943 0
2518 -8944 0
8945 -7829 -7872 0
-8945 7829 0
-8945 7872 0
8946 -7823 -7872 0
-8946 7823 0
-8946 7872 0
8947 -7823 -7862 0
-8947 7823 0
-8947 7862 0
8948 -7829 -7862 -7877 0
-8948 7829 0
-8948 7862 0
-8948 7877 0
-1899 7808 8945 8946 8947 8948 0
1899 -7808 0
1899 -8945 0
1899 -8946 0
1899 -8947 0
1899 -8948 0
8949 -7857 -7867 0
-8949 7857 0
-8949 7867 0
8950 -7852 -7837 0
-8950 7852 0
-8950 7837 0
8951 -7852 -7867 0
-8951 7852 0
-8951 7867 0
8952 -7857 -7837 -7877 0
-8952 7857 0
-8952 7837 0
-8952 7877 0
-1905 7842 8949 8950 8951 8952 0
1905 -7842 0
1905 -8949 0
1905 -8950 0
1905 -8951 0
1905 -8952 0
8953 -7857 -7823 0
-8953 7857 0
-8953 7823 0
8954 -7852 -7829 0
-8954 7852 0
-8954 7829 0
8955 -7852 -7823 0
-8955 7852 0
-8955 7823 0
8956 -7857 -7829 -7877 0
-8956 7857 0
-8956 7829 0
-8956 7877 0
-1896 7802 8953 8954 8955 8956 0
1896 -7802 0
1896 -8953 0
1896 -8954 0
1896 -8955 0
1896 -8956 0
8957 -7857 -7852 0
-8957 7857 0
-8957 7852 0
8171 -7852 -7852 0
-8171 7852 0
-8171 7852 0
8958 -7852 -7857 0
-8958 7852 0
-8958 7857 0
8959 -7857 -7857 -7877 0
-8959 7857 0
-8959 7857 0
-8959 7877 0
-1908 7847 8957 8171 8958 8959 0
1908 -7847 0
1908 -8957 0
1908 -8171 0
1908 -8958 0
1908 -8959 0
8960 -7577 -7577 0
-8960 7577 0
-8960 7577 0
-3425 7571 8960 0
3425 -7571 0
3425 -8960 0
8961 -7577 -7999 0
-8961 7577 0
-8961 7999 0
-3421 7988 8961 0
3421 -7988 0
3421 -8961 0
8962 -7577 -7576 0
-8962 7577 0
-8962 7576 0
-3445 7570 8962 0
3445 -7570 0
3445 -8962 0
8963 -7580 -7576 0
-8963 7580 0
-8963 7576 0
-3443 7579 8963 0
3443 -7579 0
3443 -8963 0
8964 -7577 -7602 0
-8964 7577 0
-8964 7602 0
-3429 7583 8964 0
3429 -7583 0
3429 -8964 0
8965 -7577 -7598 0
-8965 7577 0
-8965 7598 0
-3436 7586 8965 0
3436 -7586 0
3436 -8965 0
8966 -7580 -7598 0
-8966 7580 0
-8966 7598 0
-3438 7588 8966 0
3438 -7588 0
3438 -8966 0
8967 -7999 -7580 0
-8967 7999 0
-8967 7580 0
-3420 8005 8967 0
3420 -8005 0
3420 -8967 0
8968 -7999 -7999 0
-8968 7999 0
-8968 7999 0
-3427 7992 8968 0
3427 -7992 0
3427 -8968 0
8969 -7999 -7602 0
-8969 7999 0
-8969 7602 0
-3434 8009 8969 0
3434 -8009 0
3434 -8969 0
8970 -7999 -7598 0
-8970 7999 0
-8970 7598 0
-3441 8014 8970 0
3441 -8014 0
3441 -8970 0
8971 -7576 -7598 0
-8971 7576 0
-8971 7598 0
-3448 7585 8971 0
3448 -7585 0
3448 -8971 0
8972 -7602 -7580 0
-8972 7602 0
-8972 7580 0
-3432 7600 8972 0
3432 -7600 0
3432 -8972 0
8973 -7602 -7576 0
-8973 7602 0
-8973 7576 0
-3453 7582 8973 0
3453 -7582 0
3453 -8973 0
8974 -7602 -7602 0
-8974 7602 0
-8974 7602 0
-3459 7604 8974 0
3459 -7604 0
3459 -8974 0
8975 -6878 -6916 0
-8975 6878 0
-8975 6916 0
8976 -6916 -6916 0
-8976 6916 0
-8976 6916 0
8977 -6916 -6878 0
-8977 6916 0
-8977 6878 0
8978 -6878 -6878 -6925 0
-8978 6878 0
-8978 6878 0
-8978 6925 0
-3991 6879 8975 8976 8977 8978 0
3991 -6879 0
3991 -8975 0
3991 -8976 0
3991 -8977 0
3991 -8978 0
8979 -6878 -7189 0
-8979 6878 0
-8979 7189 0
8980 -6916 -7189 0
-8980 6916 0
-8980 7189 0
8981 -6916 -6881 0
-8981 6916 0
-8981 6881 0
8982 -6878 -6881 -6925 0
-8982 6878 0
-8982 6881 0
-8982 6925 0
-4595 6882 8979 8980 8981 8982 0
4595 -6882 0
4595 -8979 0
4595 -8980 0
4595 -8981 0
4595 -8982 0
8983 -6878 -6915 0
-8983 6878 0
-8983 6915 0
8984 -6916 -6884 0
-8984 6916 0
-8984 6884 0
8985 -6916 -6915 0
-8985 6916 0
-8985 6915 0
8986 -6878 -6884 -6925 0
-8986 6878 0
-8986 6884 0
-8986 6925 0
-3989 6885 8983 8984 8985 8986 0
3989 -6885 0
3989 -8983 0
3989 -8984 0
3989 -8985 0
3989 -8986 0
8987 -6887 -6915 0
-8987 6887 0
-8987 6915 0
8988 -6923 -6915 0
-8988 6923 0
-8988 6915 0
8989 -6923 -6884 0
-8989 6923 0
-8989 6884 0
8990 -6887 -6884 -6925 0
-8990 6887 0
-8990 6884 0
-8990 6925 0
-1428 6888 8987 8988 8989 8990 0
1428 -6888 0
1428 -8987 0
1428 -8988 0
1428 -8989 0
1428 -8990 0
8991 -6878 -6927 0
-8991 6878 0
-8991 6927 0
8992 -6916 -6927 0
-8992 6916 0
-8992 6927 0
8993 -6916 -6890 0
-8993 6916 0
-8993 6890 0
8994 -6878 -6890 -6925 0
-8994 6878 0
-8994 6890 0
-8994 6925 0
-3993 6891 8991 8992 8993 8994 0
3993 -6891 0
3993 -8991 0
3993 -8992 0
3993 -8993 0
3993 -8994 0
8995 -6878 -6929 0
-8995 6878 0
-8995 6929 0
8996 -6916 -6893 0
-8996 6916 0
-8996 6893 0
8997 -6916 -6929 0
-8997 6916 0
-8997 6929 0
8998 -6878 -6893 -6925 0
-8998 6878 0
-8998 6893 0
-8998 6925 0
-3995 6894 8995 8996 8997 8998 0
3995 -6894 0
3995 -8995 0
3995 -8996 0
3995 -8997 0
3995 -8998 0
8999 -6887 -6929 0
-8999 6887 0
-8999 6929 0
9000 -6923 -6929 0
-9000 6923 0
-9000 6929 0
9001 -6923 -6893 0
-9001 6923 0
-9001 6893 0
9002 -6887 -6893 -6925 0
-9002 6887 0
-9002 6893 0
-9002 6925 0
-1425 6896 8999 9000 9001 9002 0
1425 -6896 0
1425 -8999 0
1425 -9000 0
1425 -9001 0
1425 -9002 0
9003 -6881 -6923 0
-9003 6881 0
-9003 6923 0
9004 -7189 -6887 0
-9004 7189 0
-9004 6887 0
9005 -7189 -6923 0
-9005 7189 0
-9005 6923 0
9006 -6881 -6887 -6925 0
-9006 6881 0
-9006 6887 0
-9006 6925 0
-1418 6898 9003 9004 9005 9006 0
1418 -6898 0
1418 -9003 0
1418 -9004 0
1418 -9005 0
1418 -9006 0
9007 -6881 -7189 0
-9007 6881 0
-9007 7189 0
7218 -7189 -7189 0
-7218 7189 0
-7218 7189 0
9008 -7189 -6881 0
-9008 7189 0
-9008 6881 0
9009 -6881 -6881 -6925 0
-9009 6881 0
-9009 6881 0
-9009 6925 0
-1420 6900 9007 7218 9008 9009 0
1420 -6900 0
1420 -9007 0
1420 -7218 0
1420 -9008 0
1420 -9009 0
9010 -6881 -6927 0
-9010 6881 0
-9010 6927 0
9011 -7189 -6927 0
-9011 7189 0
-9011 6927 0
9012 -7189 -6890 0
-9012 7189 0
-9012 6890 0
9013 -6881 -6890 -6925 0
-9013 6881 0
-9013 6890 0
-9013 6925 0
-1423 6902 9010 9011 9012 9013 0
1423 -6902 0
1423 -9010 0
1423 -9011 0
1423 -9012 0
1423 -9013 0
9014 -6881 -6929 0
-9014 6881 0
-9014 6929 0
9015 -7189 -6893 0
-9015 7189 0
-9015 6893 0
9016 -7189 -6929 0
-9016 7189 0
-9016 6929 0
9017 -6881 -6893 -6925 0
-9017 6881 0
-9017 6893 0
-9017 6925 0
-1426 6904 9014 9015 9016 9017 0
1426 -6904 0
1426 -9014 0
1426 -9015 0
1426 -9016 0
1426 -9017 0
9018 -6884 -6929 0
-9018 6884 0
-9018 6929 0
9019 -6915 -6929 0
-9019 6915 0
-9019 6929 0
9020 -6915 -6893 0
-9020 6915 0
-9020 6893 0
9021 -6884 -6893 -6925 0
-9021 6884 0
-9021 6893 0
-9021 6925 0
-1429 6906 9018 9019 9020 9021 0
1429 -6906 0
1429 -9018 0
1429 -9019 0
1429 -9020 0
1429 -9021 0
9022 -6890 -6923 0
-9022 6890 0
-9022 6923 0
9023 -6927 -6887 0
-9023 6927 0
-9023 6887 0
9024 -6927 -6923 0
-9024 6927 0
-9024 6923 0
9025 -6890 -6887 -6925 0
-9025 6890 0
-9025 6887 0
-9025 6925 0
-1422 6908 9022 9023 9024 9025 0
1422 -6908 0
1422 -9022 0
1422 -9023 0
1422 -9024 0
1422 -9025 0
9026 -6890 -6915 0
-9026 6890 0
-9026 6915 0
9027 -6927 -6884 0
-9027 6927 0
-9027 6884 0
9028 -6927 -6915 0
-9028 6927 0
-9028 6915 0
9029 -6890 -6884 -6925 0
-9029 6890 0
-9029 6884 0
-9029 6925 0
-1431 6910 9026 9027 9028 9029 0
1431 -6910 0
1431 -9026 0
1431 -9027 0
1431 -9028 0
1431 -9029 0
9030 -6890 -6927 0
-9030 6890 0
-9030 6927 0
9031 -6927 -6927 0
-9031 6927 0
-9031 6927 0
9032 -6927 -6890 0
-9032 6927 0
-9032 6890 0
9033 -6890 -6890 -6925 0
-9033 6890 0
-9033 6890 0
-9033 6925 0
-1434 6912 9030 9031 9032 9033 0
1434 -6912 0
1434 -9030 0
1434 -9031 0
1434 -9032 0
1434 -9033 0
9034 -7687 -7687 0
-9034 7687 0
-9034 7687 0
-1681 7673 9034 0
1681 -7673 0
1681 -9034 0
9035 -7687 -7682 0
-9035 7687 0
-9035 7682 0
-1675 7668 9035 0
1675 -7668 0
1675 -9035 0
9036 -7687 -7684 0
-9036 7687 0
-9036 7684 0
-1674 7667 9036 0
1674 -7667 0
1674 -9036 0
9037 -7694 -7684 0
-9037 7694 0
-9037 7684 0
-1697 7689 9037 0
1697 -7689 0
1697 -9037 0
9038 -7687 -7748 0
-9038 7687 0
-9038 7748 0
-1688 7701 9038 0
1688 -7701 0
1688 -9038 0
9039 -7687 -7738 0
-9039 7687 0
-9039 7738 0
-1695 7708 9039 0
1695 -7708 0
1695 -9039 0
9040 -7694 -7738 0
-9040 7694 0
-9040 7738 0
-1702 7713 9040 0
1702 -7713 0
1702 -9040 0
9041 -7682 -7694 0
-9041 7682 0
-9041 7694 0
-1699 7691 9041 0
1699 -7691 0
1699 -9041 0
9042 -7682 -7682 0
-9042 7682 0
-9042 7682 0
-1679 7672 9042 0
1679 -7672 0
1679 -9042 0
9043 -7682 -7748 0
-9043 7682 0
-9043 7748 0
-1683 7696 9043 0
1683 -7696 0
1683 -9043 0
9044 -7682 -7738 0
-9044 7682 0
-9044 7738 0
-1690 7703 9044 0
1690 -7703 0
1690 -9044 0
9045 -7684 -7738 0
-9045 7684 0
-9045 7738 0
-1692 7705 9045 0
1692 -7705 0
1692 -9045 0
9046 -7748 -7694 0
-9046 7748 0
-9046 7694 0
-1707 7743 9046 0
1707 -7743 0
1707 -9046 0
9047 -7748 -7684 0
-9047 7748 0
-9047 7684 0
-1686 7699 9047 0
1686 -7699 0
1686 -9047 0
9048 -7748 -7748 0
-9048 7748 0
-9048 7748 0
-1713 7753 9048 0
1713 -7753 0
1713 -9048 0
9049 -7762 -7759 0
-9049 7762 0
-9049 7759 0
9050 -7759 -7759 0
-9050 7759 0
-9050 7759 0
9051 -7759 -7762 0
-9051 7759 0
-9051 7762 0
9052 -7762 -7762 -7777 0
-9052 7762 0
-9052 7762 0
-9052 7777 0
-2491 7756 9049 9050 9051 9052 0
2491 -7756 0
2491 -9049 0
2491 -9050 0
2491 -9051 0
2491 -9052 0
9053 -7762 -8059 0
-9053 7762 0
-9053 8059 0
9054 -7759 -8059 0
-9054 7759 0
-9054 8059 0
9055 -7759 -7880 0
-9055 7759 0
-9055 7880 0
9056 -7762 -7880 -7777 0
-9056 7762 0
-9056 7880 0
-9056 7777 0
-2486 7881 9053 9054 9055 9056 0
2486 -7881 0
2486 -9053 0
2486 -9054 0
2486 -9055 0
2486 -9056 0
9057 -7762 -7758 0
-9057 7762 0
-9057 7758 0
9058 -7759 -7761 0
-9058 7759 0
-9058 7761 0
9059 -7759 -7758 0
-9059 7759 0
-9059 7758 0
9060 -7762 -7761 -7777 0
-9060 7762 0
-9060 7761 0
-9060 7777 0
-2485 7755 9057 9058 9059 9060 0
2485 -7755 0
2485 -9057 0
2485 -9058 0
2485 -9059 0
2485 -9060 0
9061 -7765 -7758 0
-9061 7765 0
-9061 7758 0
9062 -7775 -7758 0
-9062 7775 0
-9062 7758 0
9063 -7775 -7761 0
-9063 7775 0
-9063 7761 0
9064 -7765 -7761 -7777 0
-9064 7765 0
-9064 7761 0
-9064 7777 0
-1884 7764 9061 9062 9063 9064 0
1884 -7764 0
1884 -9061 0
1884 -9062 0
1884 -9063 0
1884 -9064 0
9065 -7762 -7779 0
-9065 7762 0
-9065 7779 0
9066 -7759 -7779 0
-9066 7759 0
-9066 7779 0
9067 -7759 -7787 0
-9067 7759 0
-9067 7787 0
9068 -7762 -7787 -7777 0
-9068 7762 0
-9068 7787 0
-9068 7777 0
-2496 7768 9065 9066 9067 9068 0
2496 -7768 0
2496 -9065 0
2496 -9066 0
2496 -9067 0
2496 -9068 0
9069 -7762 -7781 0
-9069 7762 0
-9069 7781 0
9070 -7759 -7783 0
-9070 7759 0
-9070 7783 0
9071 -7759 -7781 0
-9071 7759 0
-9071 7781 0
9072 -7762 -7783 -7777 0
-9072 7762 0
-9072 7783 0
-9072 7777 0
-2501 7771 9069 9070 9071 9072 0
2501 -7771 0
2501 -9069 0
2501 -9070 0
2501 -9071 0
2501 -9072 0
9073 -7765 -7781 0
-9073 7765 0
-9073 7781 0
9074 -7775 -7781 0
-9074 7775 0
-9074 7781 0
9075 -7775 -7783 0
-9075 7775 0
-9075 7783 0
9076 -7765 -7783 -7777 0
-9076 7765 0
-9076 7783 0
-9076 7777 0
-1881 7773 9073 9074 9075 9076 0
1881 -7773 0
1881 -9073 0
1881 -9074 0
1881 -9075 0
1881 -9076 0
9077 -7880 -7775 0
-9077 7880 0
-9077 7775 0
9078 -8059 -7765 0
-9078 8059 0
-9078 7765 0
9079 -8059 -7775 0
-9079 8059 0
-9079 7775 0
9080 -7880 -7765 -7777 0
-9080 7880 0
-9080 7765 0
-9080 7777 0
-1874 7888 9077 9078 9079 9080 0
1874 -7888 0
1874 -9077 0
1874 -9078 0
1874 -9079 0
1874 -9080 0
9081 -7880 -8059 0
-9081 7880 0
-9081 8059 0
8088 -8059 -8059 0
-8088 8059 0
-8088 8059 0
9082 -8059 -7880 0
-9082 8059 0
-9082 7880 0
9083 -7880 -7880 -7777 0
-9083 7880 0
-9083 7880 0
-9083 7777 0
-1876 7890 9081 8088 9082 9083 0
1876 -7890 0
1876 -9081 0
1876 -8088 0
1876 -9082 0
1876 -9083 0
9084 -7880 -7779 0
-9084 7880 0
-9084 7779 0
9085 -8059 -7779 0
-9085 8059 0
-9085 7779 0
9086 -8059 -7787 0
-9086 8059 0
-9086 7787 0
9087 -7880 -7787 -7777 0
-9087 7880 0
-9087 7787 0
-9087 7777 0
-1879 7892 9084 9085 9086 9087 0
1879 -7892 0
1879 -9084 0
1879 -9085 0
1879 -9086 0
1879 -9087 0
9088 -7880 -7781 0
-9088 7880 0
-9088 7781 0
9089 -8059 -7783 0
-9089 8059 0
-9089 7783 0
9090 -8059 -7781 0
-9090 8059 0
-9090 7781 0
9091 -7880 -7783 -7777 0
-9091 7880 0
-9091 7783 0
-9091 7777 0
-1882 7894 9088 9089 9090 9091 0
1882 -7894 0
1882 -9088 0
1882 -9089 0
1882 -9090 0
1882 -9091 0
9092 -7761 -7781 0
-9092 7761 0
-9092 7781 0
9093 -7758 -7781 0
-9093 7758 0
-9093 7781 0
9094 -7758 -7783 0
-9094 7758 0
-9094 7783 0
9095 -7761 -7783 -7777 0
-9095 7761 0
-9095 7783 0
-9095 7777 0
-1885 7770 9092 9093 9094 9095 0
1885 -7770 0
1885 -9092 0
1885 -9093 0
1885 -9094 0
1885 -9095 0
9096 -7787 -7775 0
-9096 7787 0
-9096 7775 0
9097 -7779 -7765 0
-9097 7779 0
-9097 7765 0
9098 -7779 -7775 0
-9098 7779 0
-9098 7775 0
9099 -7787 -7765 -7777 0
-9099 7787 0
-9099 7765 0
-9099 7777 0
-1878 7785 9096 9097 9098 9099 0
1878 -7785 0
1878 -9096 0
1878 -9097 0
1878 -9098 0
1878 -9099 0
9100 -7787 -7758 0
-9100 7787 0
-9100 7758 0
9101 -7779 -7761 0
-9101 7779 0
-9101 7761 0
9102 -7779 -7758 0
-9102 7779 0
-9102 7758 0
9103 -7787 -7761 -7777 0
-9103 7787 0
-9103 7761 0
-9103 7777 0
-1887 7767 9100 9101 9102 9103 0
1887 -7767 0
1887 -9100 0
1887 -9101 0
1887 -9102 0
1887 -9103 0
9104 -7787 -7779 0
-9104 7787 0
-9104 7779 0
9105 -7779 -7779 0
-9105 7779 0
-9105 7779 0
9106 -7779 -7787 0
-9106 7779 0
-9106 7787 0
9107 -7787 -7787 -7777 0
-9107 7787 0
-9107 7787 0
-9107 7777 0
-1890 7789 9104 9105 9106 9107 0
1890 -7789 0
1890 -9104 0
1890 -9105 0
1890 -9106 0
1890 -9107 0
9108 -6491 -6491 0
-9108 6491 0
-9108 6491 0
-2080 6497 9108 0
2080 -6497 0
2080 -9108 0
9109 -6491 -6502 0
-9109 6491 0
-9109 6502 0
-2076 6504 9109 0
2076 -6504 0
2076 -9109 0
9110 -6491 -6508 0
-9110 6491 0
-9110 6508 0
-2100 6511 9110 0
2100 -6511 0
2100 -9110 0
9111 -6513 -6508 0
-9111 6513 0
-9111 6508 0
-2098 6518 9111 0
2098 -6518 0
2098 -9111 0
9112 -6491 -6523 0
-9112 6491 0
-9112 6523 0
-2084 6525 9112 0
2084 -6525 0
2084 -9112 0
9113 -6491 -6529 0
-9113 6491 0
-9113 6529 0
-2091 6532 9113 0
2091 -6532 0
2091 -9113 0
9114 -6513 -6529 0
-9114 6513 0
-9114 6529 0
-2093 6537 9114 0
2093 -6537 0
2093 -9114 0
9115 -6502 -6513 0
-9115 6502 0
-9115 6513 0
-2075 6542 9115 0
2075 -6542 0
2075 -9115 0
9116 -6502 -6502 0
-9116 6502 0
-9116 6502 0
-2082 6547 9116 0
2082 -6547 0
2082 -9116 0
9117 -6502 -6523 0
-9117 6502 0
-9117 6523 0
-2089 6552 9117 0
2089 -6552 0
2089 -9117 0
9118 -6502 -6529 0
-9118 6502 0
-9118 6529 0
-2096 6557 9118 0
2096 -6557 0
2096 -9118 0
9119 -6508 -6529 0
-9119 6508 0
-9119 6529 0
-2103 6562 9119 0
2103 -6562 0
2103 -9119 0
9120 -6523 -6513 0
-9120 6523 0
-9120 6513 0
-2087 6567 9120 0
2087 -6567 0
2087 -9120 0
9121 -6523 -6508 0
-9121 6523 0
-9121 6508 0
-2108 6572 9121 0
2108 -6572 0
2108 -9121 0
9122 -6523 -6523 0
-9122 6523 0
-9122 6523 0
-2114 6577 9122 0
2114 -6577 0
2114 -9122 0
9123 -7811 -7811 0
-9123 7811 0
-9123 7811 0
-4319 7797 9123 0
4319 -7797 0
4319 -9123 0
9124 -7811 -7806 0
-9124 7811 0
-9124 7806 0
-4313 7792 9124 0
4313 -7792 0
4313 -9124 0
9125 -7811 -7808 0
-9125 7811 0
-9125 7808 0
-4312 7791 9125 0
4312 -7791 0
4312 -9125 0
9126 -7818 -7808 0
-9126 7818 0
-9126 7808 0
-4335 7813 9126 0
4335 -7813 0
4335 -9126 0
9127 -7811 -7872 0
-9127 7811 0
-9127 7872 0
-4326 7825 9127 0
4326 -7825 0
4326 -9127 0
9128 -7811 -7862 0
-9128 7811 0
-9128 7862 0
-4333 7832 9128 0
4333 -7832 0
4333 -9128 0
9129 -7818 -7862 0
-9129 7818 0
-9129 7862 0
-4340 7837 9129 0
4340 -7837 0
4340 -9129 0
9130 -7806 -7818 0
-9130 7806 0
-9130 7818 0
-4337 7815 9130 0
4337 -7815 0
4337 -9130 0
9131 -7806 -7806 0
-9131 7806 0
-9131 7806 0
-4317 7796 9131 0
4317 -7796 0
4317 -9131 0
9132 -7806 -7872 0
-9132 7806 0
-9132 7872 0
-4321 7820 9132 0
4321 -7820 0
4321 -9132 0
9133 -7806 -7862 0
-9133 7806 0
-9133 7862 0
-4328 7827 9133 0
4328 -7827 0
4328 -9133 0
9134 -7808 -7862 0
-9134 7808 0
-9134 7862 0
-4330 7829 9134 0
4330 -7829 0
4330 -9134 0
9135 -7872 -7818 0
-9135 7872 0
-9135 7818 0
-4345 7867 9135 0
4345 -7867 0
4345 -9135 0
9136 -7872 -7808 0
-9136 7872 0
-9136 7808 0
-4324 7823 9136 0
4324 -7823 0
4324 -9136 0
9137 -7872 -7872 0
-9137 7872 0
-9137 7872 0
-4351 7877 9137 0
4351 -7877 0
4351 -9137 0
9138 -6774 -6774 0
-9138 6774 0
-9138 6774 0
-3913 6760 9138 0
3913 -6760 0
3913 -9138 0
9139 -6774 -6769 0
-9139 6774 0
-9139 6769 0
-3909 6755 9139 0
3909 -6755 0
3909 -9139 0
9140 -6774 -6771 0
-9140 6774 0
-9140 6771 0
-3927 6754 9140 0
3927 -6754 0
3927 -9140 0
9141 -6781 -6771 0
-9141 6781 0
-9141 6771 0
-1666 6776 9141 0
1666 -6776 0
1666 -9141 0
9142 -6774 -6835 0
-9142 6774 0
-9142 6835 0
-3916 6788 9142 0
3916 -6788 0
3916 -9142 0
9143 -6774 -6825 0
-9143 6774 0
-9143 6825 0
-3921 6795 9143 0
3921 -6795 0
3921 -9143 0
9144 -6781 -6825 0
-9144 6781 0
-9144 6825 0
-1663 6800 9144 0
1663 -6800 0
1663 -9144 0
9145 -6769 -6781 0
-9145 6769 0
-9145 6781 0
-1656 6778 9145 0
1656 -6778 0
1656 -9145 0
9146 -6769 -6769 0
-9146 6769 0
-9146 6769 0
-1658 6759 9146 0
1658 -6759 0
1658 -9146 0
9147 -6769 -6835 0
-9147 6769 0
-9147 6835 0
-1661 6783 9147 0
1661 -6783 0
1661 -9147 0
9148 -6769 -6825 0
-9148 6769 0
-9148 6825 0
-1664 6790 9148 0
1664 -6790 0
1664 -9148 0
9149 -6771 -6825 0
-9149 6771 0
-9149 6825 0
-1667 6792 9149 0
1667 -6792 0
1667 -9149 0
9150 -6835 -6781 0
-9150 6835 0
-9150 6781 0
-1660 6830 9150 0
1660 -6830 0
1660 -9150 0
9151 -6835 -6771 0
-9151 6835 0
-9151 6771 0
-1669 6786 9151 0
1669 -6786 0
1669 -9151 0
9152 -6835 -6835 0
-9152 6835 0
-9152 6835 0
-1672 6840 9152 0
1672 -6840 0
1672 -9152 0
9153 -9154 -9154 0
-9153 9154 0
-9153 9154 0
-2198 9155 9153 0
2198 -9155 0
2198 -9153 0
9156 -9154 -9157 0
-9156 9154 0
-9156 9157 0
-2194 9158 9156 0
2194 -9158 0
2194 -9156 0
9159 -9154 -9160 0
-9159 9154 0
-9159 9160 0
-2218 9161 9159 0
2218 -9161 0
2218 -9159 0
9162 -9163 -9160 0
-9162 9163 0
-9162 9160 0
-2216 9164 9162 0
2216 -9164 0
2216 -9162 0
9165 -9154 -9166 0
-9165 9154 0
-9165 9166 0
-2202 9167 9165 0
2202 -9167 0
2202 -9165 0
9168 -9154 -9169 0
-9168 9154 0
-9168 9169 0
-2209 9170 9168 0
2209 -9170 0
2209 -9168 0
9171 -9163 -9169 0
-9171 9163 0
-9171 9169 0
-2211 9172 9171 0
2211 -9172 0
2211 -9171 0
9173 -9157 -9163 0
-9173 9157 0
-9173 9163 0
-2193 9174 9173 0
2193 -9174 0
2193 -9173 0
9175 -9157 -9157 0
-9175 9157 0
-9175 9157 0
-2200 9176 9175 0
2200 -9176 0
2200 -9175 0
9177 -9157 -9166 0
-9177 9157 0
-9177 9166 0
-2207 9178 9177 0
2207 -9178 0
2207 -9177 0
9179 -9157 -9169 0
-9179 9157 0
-9179 9169 0
-2214 9180 9179 0
2214 -9180 0
2214 -9179 0
9181 -9160 -9169 0
-9181 9160 0
-9181 9169 0
-2221 9182 9181 0
2221 -9182 0
2221 -9181 0
9183 -9166 -9163 0
-9183 9166 0
-9183 9163 0
-2205 9184 9183 0
2205 -9184 0
2205 -9183 0
9185 -9166 -9160 0
-9185 9166 0
-9185 9160 0
-2226 9186 9185 0
2226 -9186 0
2226 -9185 0
9187 -9166 -9166 0
-9187 9166 0
-9187 9166 0
-2232 9188 9187 0
2232 -9188 0
2232 -9187 0
9189 -7461 -7461 0
-9189 7461 0
-9189 7461 0
-5303 7467 9189 0
5303 -7467 0
5303 -9189 0
9190 -7461 -7472 0
-9190 7461 0
-9190 7472 0
-5299 7474 9190 0
5299 -7474 0
5299 -9190 0
9191 -7461 -7478 0
-9191 7461 0
-9191 7478 0
-5317 7481 9191 0
5317 -7481 0
5317 -9191 0
9192 -7483 -7478 0
-9192 7483 0
-9192 7478 0
-2990 7488 9192 0
2990 -7488 0
2990 -9192 0
9193 -7461 -7493 0
-9193 7461 0
-9193 7493 0
-5306 7495 9193 0
5306 -7495 0
5306 -9193 0
9194 -7461 -7499 0
-9194 7461 0
-9194 7499 0
-5311 7502 9194 0
5311 -7502 0
5311 -9194 0
9195 -7483 -7499 0
-9195 7483 0
-9195 7499 0
-2987 7507 9195 0
2987 -7507 0
2987 -9195 0
9196 -7472 -7483 0
-9196 7472 0
-9196 7483 0
-2980 7512 9196 0
2980 -7512 0
2980 -9196 0
9197 -7472 -7472 0
-9197 7472 0
-9197 7472 0
-2982 7517 9197 0
2982 -7517 0
2982 -9197 0
9198 -7472 -7493 0
-9198 7472 0
-9198 7493 0
-2985 7522 9198 0
2985 -7522 0
2985 -9198 0
9199 -7472 -7499 0
-9199 7472 0
-9199 7499 0
-2988 7527 9199 0
2988 -7527 0
2988 -9199 0
9200 -7478 -7499 0
-9200 7478 0
-9200 7499 0
-2991 7532 9200 0
2991 -7532 0
2991 -9200 0
9201 -7493 -7483 0
-9201 7493 0
-9201 7483 0
-2984 7537 9201 0
2984 -7537 0
2984 -9201 0
9202 -7493 -7478 0
-9202 7493 0
-9202 7478 0
-2993 7542 9202 0
2993 -7542 0
2993 -9202 0
9203 -7493 -7493 0
-9203 7493 0
-9203 7493 0
-2996 7547 9203 0
2996 -7547 0
2996 -9203 0
9204 -7791 -7791 0
-9204 7791 0
-9204 7791 0
-2157 7797 9204 0
2157 -7797 0
2157 -9204 0
9205 -7791 -7802 0
-9205 7791 0
-9205 7802 0
-2153 7804 9205 0
2153 -7804 0
2153 -9205 0
9206 -7791 -7808 0
-9206 7791 0
-9206 7808 0
-2177 7811 9206 0
2177 -7811 0
2177 -9206 0
9207 -7813 -7808 0
-9207 7813 0
-9207 7808 0
-2175 7818 9207 0
2175 -7818 0
2175 -9207 0
9208 -7791 -7823 0
-9208 7791 0
-9208 7823 0
-2161 7825 9208 0
2161 -7825 0
2161 -9208 0
9209 -7791 -7829 0
-9209 7791 0
-9209 7829 0
-2168 7832 9209 0
2168 -7832 0
2168 -9209 0
9210 -7813 -7829 0
-9210 7813 0
-9210 7829 0
-2170 7837 9210 0
2170 -7837 0
2170 -9210 0
9211 -7802 -7813 0
-9211 7802 0
-9211 7813 0
-2152 7842 9211 0
2152 -7842 0
2152 -9211 0
9212 -7802 -7802 0
-9212 7802 0
-9212 7802 0
-2159 7847 9212 0
2159 -7847 0
2159 -9212 0
9213 -7802 -7823 0
-9213 7802 0
-9213 7823 0
-2166 7852 9213 0
2166 -7852 0
2166 -9213 0
9214 -7802 -7829 0
-9214 7802 0
-9214 7829 0
-2173 7857 9214 0
2173 -7857 0
2173 -9214 0
9215 -7808 -7829 0
-9215 7808 0
-9215 7829 0
-2180 7862 9215 0
2180 -7862 0
2180 -9215 0
9216 -7823 -7813 0
-9216 7823 0
-9216 7813 0
-2164 7867 9216 0
2164 -7867 0
2164 -9216 0
9217 -7823 -7808 0
-9217 7823 0
-9217 7808 0
-2185 7872 9217 0
2185 -7872 0
2185 -9217 0
9218 -7823 -7823 0
-9218 7823 0
-9218 7823 0
-2191 7877 9218 0
2191 -7877 0
2191 -9218 0
9219 -6651 -6696 0
-9219 6651 0
-9219 6696 0
9220 -6696 -6696 0
-9220 6696 0
-9220 6696 0
9221 -6696 -6651 0
-9221 6696 0
-9221 6651 0
9222 -6651 -6651 -6726 0
-9222 6651 0
-9222 6651 0
-9222 6726 0
-1925 6652 9219 9220 9221 9222 0
1925 -6652 0
1925 -9219 0
1925 -9220 0
1925 -9221 0
1925 -9222 0
9223 -6651 -6691 0
-9223 6651 0
-9223 6691 0
9224 -6696 -6691 0
-9224 6696 0
-9224 6691 0
9225 -6696 -6654 0
-9225 6696 0
-9225 6654 0
9226 -6651 -6654 -6726 0
-9226 6651 0
-9226 6654 0
-9226 6726 0
-1919 6655 9223 9224 9225 9226 0
1919 -6655 0
1919 -9223 0
1919 -9224 0
1919 -9225 0
1919 -9226 0
9227 -6651 -6694 0
-9227 6651 0
-9227 6694 0
9228 -6696 -6657 0
-9228 6696 0
-9228 6657 0
9229 -6696 -6694 0
-9229 6696 0
-9229 6694 0
9230 -6651 -6657 -6726 0
-9230 6651 0
-9230 6657 0
-9230 6726 0
-1918 6658 9227 9228 9229 9230 0
1918 -6658 0
1918 -9227 0
1918 -9228 0
1918 -9229 0
1918 -9230 0
9231 -6660 -6694 0
-9231 6660 0
-9231 6694 0
9232 -6721 -6694 0
-9232 6721 0
-9232 6694 0
9233 -6721 -6657 0
-9233 6721 0
-9233 6657 0
9234 -6660 -6657 -6726 0
-9234 6660 0
-9234 6657 0
-9234 6726 0
-1941 6661 9231 9232 9233 9234 0
1941 -6661 0
1941 -9231 0
1941 -9232 0
1941 -9233 0
1941 -9234 0
9235 -6651 -6731 0
-9235 6651 0
-9235 6731 0
9236 -6696 -6731 0
-9236 6696 0
-9236 6731 0
9237 -6696 -6663 0
-9237 6696 0
-9237 6663 0
9238 -6651 -6663 -6726 0
-9238 6651 0
-9238 6663 0
-9238 6726 0
-1932 6664 9235 9236 9237 9238 0
1932 -6664 0
1932 -9235 0
1932 -9236 0
1932 -9237 0
1932 -9238 0
9239 -6651 -6736 0
-9239 6651 0
-9239 6736 0
9240 -6696 -6666 0
-9240 6696 0
-9240 6666 0
9241 -6696 -6736 0
-9241 6696 0
-9241 6736 0
9242 -6651 -6666 -6726 0
-9242 6651 0
-9242 6666 0
-9242 6726 0
-1939 6667 9239 9240 9241 9242 0
1939 -6667 0
1939 -9239 0
1939 -9240 0
1939 -9241 0
1939 -9242 0
9243 -6660 -6736 0
-9243 6660 0
-9243 6736 0
9244 -6721 -6736 0
-9244 6721 0
-9244 6736 0
9245 -6721 -6666 0
-9245 6721 0
-9245 6666 0
9246 -6660 -6666 -6726 0
-9246 6660 0
-9246 6666 0
-9246 6726 0
-1946 6669 9243 9244 9245 9246 0
1946 -6669 0
1946 -9243 0
1946 -9244 0
1946 -9245 0
1946 -9246 0
9247 -6654 -6721 0
-9247 6654 0
-9247 6721 0
9248 -6691 -6660 0
-9248 6691 0
-9248 6660 0
9249 -6691 -6721 0
-9249 6691 0
-9249 6721 0
9250 -6654 -6660 -6726 0
-9250 6654 0
-9250 6660 0
-9250 6726 0
-1943 6671 9247 9248 9249 9250 0
1943 -6671 0
1943 -9247 0
1943 -9248 0
1943 -9249 0
1943 -9250 0
9251 -6654 -6691 0
-9251 6654 0
-9251 6691 0
6723 -6691 -6691 0
-6723 6691 0
-6723 6691 0
9252 -6691 -6654 0
-9252 6691 0
-9252 6654 0
9253 -6654 -6654 -6726 0
-9253 6654 0
-9253 6654 0
-9253 6726 0
-1923 6673 9251 6723 9252 9253 0
1923 -6673 0
1923 -9251 0
1923 -6723 0
1923 -9252 0
1923 -9253 0
9254 -6654 -6731 0
-9254 6654 0
-9254 6731 0
9255 -6691 -6731 0
-9255 6691 0
-9255 6731 0
9256 -6691 -6663 0
-9256 6691 0
-9256 6663 0
9257 -6654 -6663 -6726 0
-9257 6654 0
-9257 6663 0
-9257 6726 0
-1927 6675 9254 9255 9256 9257 0
1927 -6675 0
1927 -9254 0
1927 -9255 0
1927 -9256 0
1927 -9257 0
9258 -6654 -6736 0
-9258 6654 0
-9258 6736 0
9259 -6691 -6666 0
-9259 6691 0
-9259 6666 0
9260 -6691 -6736 0
-9260 6691 0
-9260 6736 0
9261 -6654 -6666 -6726 0
-9261 6654 0
-9261 6666 0
-9261 6726 0
-1934 6677 9258 9259 9260 9261 0
1934 -6677 0
1934 -9258 0
1934 -9259 0
1934 -9260 0
1934 -9261 0
9262 -6657 -6736 0
-9262 6657 0
-9262 6736 0
9263 -6694 -6736 0
-9263 6694 0
-9263 6736 0
9264 -6694 -6666 0
-9264 6694 0
-9264 6666 0
9265 -6657 -6666 -6726 0
-9265 6657 0
-9265 6666 0
-9265 6726 0
-1936 6679 9262 9263 9264 9265 0
1936 -6679 0
1936 -9262 0
1936 -9263 0
1936 -9264 0
1936 -9265 0
9266 -6663 -6721 0
-9266 6663 0
-9266 6721 0
9267 -6731 -6660 0
-9267 6731 0
-9267 6660 0
9268 -6731 -6721 0
-9268 6731 0
-9268 6721 0
9269 -6663 -6660 -6726 0
-9269 6663 0
-9269 6660 0
-9269 6726 0
-1951 6681 9266 9267 9268 9269 0
1951 -6681 0
1951 -9266 0
1951 -9267 0
1951 -9268 0
1951 -9269 0
9270 -6663 -6694 0
-9270 6663 0
-9270 6694 0
9271 -6731 -6657 0
-9271 6731 0
-9271 6657 0
9272 -6731 -6694 0
-9272 6731 0
-9272 6694 0
9273 -6663 -6657 -6726 0
-9273 6663 0
-9273 6657 0
-9273 6726 0
-1930 6683 9270 9271 9272 9273 0
1930 -6683 0
1930 -9270 0
1930 -9271 0
1930 -9272 0
1930 -9273 0
9274 -6663 -6731 0
-9274 6663 0
-9274 6731 0
9275 -6731 -6731 0
-9275 6731 0
-9275 6731 0
9276 -6731 -6663 0
-9276 6731 0
-9276 6663 0
9277 -6663 -6663 -6726 0
-9277 6663 0
-9277 6663 0
-9277 6726 0
-1957 6685 9274 9275 9276 9277 0
1957 -6685 0
1957 -9274 0
1957 -9275 0
1957 -9276 0
1957 -9277 0
9278 -9279 -9280 0
-9278 9279 0
-9278 9280 0
9281 -9280 -9280 0
-9281 9280 0
-9281 9280 0
9282 -9280 -9279 0
-9282 9280 0
-9282 9279 0
9283 -9279 -9279 -9284 0
-9283 9279 0
-9283 9279 0
-9283 9284 0
-3483 9285 9278 9281 9282 9283 0
3483 -9285 0
3483 -9278 0
3483 -9281 0
3483 -9282 0
3483 -9283 0
9286 -9279 -9287 0
-9286 9279 0
-9286 9287 0
9288 -9280 -9287 0
-9288 9280 0
-9288 9287 0
9289 -9280 -9290 0
-9289 9280 0
-9289 9290 0
9291 -9279 -9290 -9284 0
-9291 9279 0
-9291 9290 0
-9291 9284 0
-3479 9292 9286 9288 9289 9291 0
3479 -9292 0
3479 -9286 0
3479 -9288 0
3479 -9289 0
3479 -9291 0
9293 -9279 -9294 0
-9293 9279 0
-9293 9294 0
9295 -9280 -9296 0
-9295 9280 0
-9295 9296 0
9297 -9280 -9294 0
-9297 9280 0
-9297 9294 0
9298 -9279 -9296 -9284 0
-9298 9279 0
-9298 9296 0
-9298 9284 0
-3497 9299 9293 9295 9297 9298 0
3497 -9299 0
3497 -9293 0
3497 -9295 0
3497 -9297 0
3497 -9298 0
9300 -9301 -9294 0
-9300 9301 0
-9300 9294 0
9302 -9303 -9294 0
-9302 9303 0
-9302 9294 0
9304 -9303 -9296 0
-9304 9303 0
-9304 9296 0
9305 -9301 -9296 -9284 0
-9305 9301 0
-9305 9296 0
-9305 9284 0
-2067 9306 9300 9302 9304 9305 0
2067 -9306 0
2067 -9300 0
2067 -9302 0
2067 -9304 0
2067 -9305 0
9307 -9279 -9308 0
-9307 9279 0
-9307 9308 0
9309 -9280 -9308 0
-9309 9280 0
-9309 9308 0
9310 -9280 -9311 0
-9310 9280 0
-9310 9311 0
9312 -9279 -9311 -9284 0
-9312 9279 0
-9312 9311 0
-9312 9284 0
-3486 9313 9307 9309 9310 9312 0
3486 -9313 0
3486 -9307 0
3486 -9309 0
3486 -9310 0
3486 -9312 0
9314 -9279 -9315 0
-9314 9279 0
-9314 9315 0
9316 -9280 -9317 0
-9316 9280 0
-9316 9317 0
9318 -9280 -9315 0
-9318 9280 0
-9318 9315 0
9319 -9279 -9317 -9284 0
-9319 9279 0
-9319 9317 0
-9319 9284 0
-3491 9320 9314 9316 9318 9319 0
3491 -9320 0
3491 -9314 0
3491 -9316 0
3491 -9318 0
3491 -9319 0
9321 -9301 -9315 0
-9321 9301 0
-9321 9315 0
9322 -9303 -9315 0
-9322 9303 0
-9322 9315 0
9323 -9303 -9317 0
-9323 9303 0
-9323 9317 0
9324 -9301 -9317 -9284 0
-9324 9301 0
-9324 9317 0
-9324 9284 0
-2064 9325 9321 9322 9323 9324 0
2064 -9325 0
2064 -9321 0
2064 -9322 0
2064 -9323 0
2064 -9324 0
9326 -9290 -9303 0
-9326 9290 0
-9326 9303 0
9327 -9287 -9301 0
-9327 9287 0
-9327 9301 0
9328 -9287 -9303 0
-9328 9287 0
-9328 9303 0
9329 -9290 -9301 -9284 0
-9329 9290 0
-9329 9301 0
-9329 9284 0
-2057 9330 9326 9327 9328 9329 0
2057 -9330 0
2057 -9326 0
2057 -9327 0
2057 -9328 0
2057 -9329 0
9331 -9290 -9287 0
-9331 9290 0
-9331 9287 0
9332 -9287 -9287 0
-9332 9287 0
-9332 9287 0
9333 -9287 -9290 0
-9333 9287 0
-9333 9290 0
9334 -9290 -9290 -9284 0
-9334 9290 0
-9334 9290 0
-9334 9284 0
-2059 9335 9331 9332 9333 9334 0
2059 -9335 0
2059 -9331 0
2059 -9332 0
2059 -9333 0
2059 -9334 0
9336 -9290 -9308 0
-9336 9290 0
-9336 9308 0
9337 -9287 -9308 0
-9337 9287 0
-9337 9308 0
9338 -9287 -9311 0
-9338 9287 0
-9338 9311 0
9339 -9290 -9311 -9284 0
-9339 9290 0
-9339 9311 0
-9339 9284 0
-2062 9340 9336 9337 9338 9339 0
2062 -9340 0
2062 -9336 0
2062 -9337 0
2062 -9338 0
2062 -9339 0
9341 -9290 -9315 0
-9341 9290 0
-9341 9315 0
9342 -9287 -9317 0
-9342 9287 0
-9342 9317 0
9343 -9287 -9315 0
-9343 9287 0
-9343 9315 0
9344 -9290 -9317 -9284 0
-9344 9290 0
-9344 9317 0
-9344 9284 0
-2065 9345 9341 9342 9343 9344 0
2065 -9345 0
2065 -9341 0
2065 -9342 0
2065 -9343 0
2065 -9344 0
9346 -9296 -9315 0
-9346 9296 0
-9346 9315 0
9347 -9294 -9315 0
-9347 9294 0
-9347 9315 0
9348 -9294 -9317 0
-9348 9294 0
-9348 9317 0
9349 -9296 -9317 -9284 0
-9349 9296 0
-9349 9317 0
-9349 9284 0
-2068 9350 9346 9347 9348 9349 0
2068 -9350 0
2068 -9346 0
2068 -9347 0
2068 -9348 0
2068 -9349 0
9351 -9311 -9303 0
-9351 9311 0
-9351 9303 0
9352 -9308 -9301 0
-9352 9308 0
-9352 9301 0
9353 -9308 -9303 0
-9353 9308 0
-9353 9303 0
9354 -9311 -9301 -9284 0
-9354 9311 0
-9354 9301 0
-9354 9284 0
-2061 9355 9351 9352 9353 9354 0
2061 -9355 0
2061 -9351 0
2061 -9352 0
2061 -9353 0
2061 -9354 0
9356 -9311 -9294 0
-9356 9311 0
-9356 9294 0
9357 -9308 -9296 0
-9357 9308 0
-9357 9296 0
9358 -9308 -9294 0
-9358 9308 0
-9358 9294 0
9359 -9311 -9296 -9284 0
-9359 9311 0
-9359 9296 0
-9359 9284 0
-2070 9360 9356 9357 9358 9359 0
2070 -9360 0
2070 -9356 0
2070 -9357 0
2070 -9358 0
2070 -9359 0
9361 -9311 -9308 0
-9361 9311 0
-9361 9308 0
9362 -9308 -9308 0
-9362 9308 0
-9362 9308 0
9363 -9308 -9311 0
-9363 9308 0
-9363 9311 0
9364 -9311 -9311 -9284 0
-9364 9311 0
-9364 9311 0
-9364 9284 0
-2073 9365 9361 9362 9363 9364 0
2073 -9365 0
2073 -9361 0
2073 -9362 0
2073 -9363 0
2073 -9364 0
9366 -6579 -9367 0
-9366 6579 0
-9366 9367 0
9368 -9367 -9367 0
-9368 9367 0
-9368 9367 0
9369 -9367 -6579 0
-9369 9367 0
-9369 6579 0
9370 -6579 -6579 -9371 0
-9370 6579 0
-9370 6579 0
-9370 9371 0
-2458 6580 9366 9368 9369 9370 0
2458 -6580 0
2458 -9366 0
2458 -9368 0
2458 -9369 0
2458 -9370 0
9372 -6579 -9373 0
-9372 6579 0
-9372 9373 0
9374 -9367 -9373 0
-9374 9367 0
-9374 9373 0
9375 -9367 -6582 0
-9375 9367 0
-9375 6582 0
9376 -6579 -6582 -9371 0
-9376 6579 0
-9376 6582 0
-9376 9371 0
-2454 6583 9372 9374 9375 9376 0
2454 -6583 0
2454 -9372 0
2454 -9374 0
2454 -9375 0
2454 -9376 0
9377 -6579 -9378 0
-9377 6579 0
-9377 9378 0
9379 -9367 -6585 0
-9379 9367 0
-9379 6585 0
9380 -9367 -9378 0
-9380 9367 0
-9380 9378 0
9381 -6579 -6585 -9371 0
-9381 6579 0
-9381 6585 0
-9381 9371 0
-2472 6586 9377 9379 9380 9381 0
2472 -6586 0
2472 -9377 0
2472 -9379 0
2472 -9380 0
2472 -9381 0
9382 -6588 -9378 0
-9382 6588 0
-9382 9378 0
9383 -9384 -9378 0
-9383 9384 0
-9383 9378 0
9385 -9384 -6585 0
-9385 9384 0
-9385 6585 0
9386 -6588 -6585 -9371 0
-9386 6588 0
-9386 6585 0
-9386 9371 0
-1233 6589 9382 9383 9385 9386 0
1233 -6589 0
1233 -9382 0
1233 -9383 0
1233 -9385 0
1233 -9386 0
9387 -6579 -9388 0
-9387 6579 0
-9387 9388 0
9389 -9367 -9388 0
-9389 9367 0
-9389 9388 0
9390 -9367 -6591 0
-9390 9367 0
-9390 6591 0
9391 -6579 -6591 -9371 0
-9391 6579 0
-9391 6591 0
-9391 9371 0
-2461 6592 9387 9389 9390 9391 0
2461 -6592 0
2461 -9387 0
2461 -9389 0
2461 -9390 0
2461 -9391 0
9392 -6579 -9393 0
-9392 6579 0
-9392 9393 0
9394 -9367 -6594 0
-9394 9367 0
-9394 6594 0
9395 -9367 -9393 0
-9395 9367 0
-9395 9393 0
9396 -6579 -6594 -9371 0
-9396 6579 0
-9396 6594 0
-9396 9371 0
-2466 6595 9392 9394 9395 9396 0
2466 -6595 0
2466 -9392 0
2466 -9394 0
2466 -9395 0
2466 -9396 0
9397 -6588 -9393 0
-9397 6588 0
-9397 9393 0
9398 -9384 -9393 0
-9398 9384 0
-9398 9393 0
9399 -9384 -6594 0
-9399 9384 0
-9399 6594 0
9400 -6588 -6594 -9371 0
-9400 6588 0
-9400 6594 0
-9400 9371 0
-1230 6597 9397 9398 9399 9400 0
1230 -6597 0
1230 -9397 0
1230 -9398 0
1230 -9399 0
1230 -9400 0
9401 -6582 -9384 0
-9401 6582 0
-9401 9384 0
9402 -9373 -6588 0
-9402 9373 0
-9402 6588 0
9403 -9373 -9384 0
-9403 9373 0
-9403 9384 0
9404 -6582 -6588 -9371 0
-9404 6582 0
-9404 6588 0
-9404 9371 0
-1223 6599 9401 9402 9403 9404 0
1223 -6599 0
1223 -9401 0
1223 -9402 0
1223 -9403 0
1223 -9404 0
9405 -6582 -9373 0
-9405 6582 0
-9405 9373 0
9406 -9373 -9373 0
-9406 9373 0
-9406 9373 0
9407 -9373 -6582 0
-9407 9373 0
-9407 6582 0
9408 -6582 -6582 -9371 0
-9408 6582 0
-9408 6582 0
-9408 9371 0
-1225 6601 9405 9406 9407 9408 0
1225 -6601 0
1225 -9405 0
1225 -9406 0
1225 -9407 0
1225 -9408 0
9409 -6582 -9388 0
-9409 6582 0
-9409 9388 0
9410 -9373 -9388 0
-9410 9373 0
-9410 9388 0
9411 -9373 -6591 0
-9411 9373 0
-9411 6591 0
9412 -6582 -6591 -9371 0
-9412 6582 0
-9412 6591 0
-9412 9371 0
-1228 6603 9409 9410 9411 9412 0
1228 -6603 0
1228 -9409 0
1228 -9410 0
1228 -9411 0
1228 -9412 0
9413 -6582 -9393 0
-9413 6582 0
-9413 9393 0
9414 -9373 -6594 0
-9414 9373 0
-9414 6594 0
9415 -9373 -9393 0
-9415 9373 0
-9415 9393 0
9416 -6582 -6594 -9371 0
-9416 6582 0
-9416 6594 0
-9416 9371 0
-1231 6605 9413 9414 9415 9416 0
1231 -6605 0
1231 -9413 0
1231 -9414 0
1231 -9415 0
1231 -9416 0
9417 -6585 -9393 0
-9417 6585 0
-9417 9393 0
9418 -9378 -9393 0
-9418 9378 0
-9418 9393 0
9419 -9378 -6594 0
-9419 9378 0
-9419 6594 0
9420 -6585 -6594 -9371 0
-9420 6585 0
-9420 6594 0
-9420 9371 0
-1234 6607 9417 9418 9419 9420 0
1234 -6607 0
1234 -9417 0
1234 -9418 0
1234 -9419 0
1234 -9420 0
9421 -6591 -9384 0
-9421 6591 0
-9421 9384 0
9422 -9388 -6588 0
-9422 9388 0
-9422 6588 0
9423 -9388 -9384 0
-9423 9388 0
-9423 9384 0
9424 -6591 -6588 -9371 0
-9424 6591 0
-9424 6588 0
-9424 9371 0
-1227 6609 9421 9422 9423 9424 0
1227 -6609 0
1227 -9421 0
1227 -9422 0
1227 -9423 0
1227 -9424 0
9425 -6591 -9378 0
-9425 6591 0
-9425 9378 0
9426 -9388 -6585 0
-9426 9388 0
-9426 6585 0
9427 -9388 -9378 0
-9427 9388 0
-9427 9378 0
9428 -6591 -6585 -9371 0
-9428 6591 0
-9428 6585 0
-9428 9371 0
-1236 6611 9425 9426 9427 9428 0
1236 -6611 0
1236 -9425 0
1236 -9426 0
1236 -9427 0
1236 -9428 0
9429 -6591 -9388 0
-9429 6591 0
-9429 9388 0
9430 -9388 -9388 0
-9430 9388 0
-9430 9388 0
9431 -9388 -6591 0
-9431 9388 0
-9431 6591 0
9432 -6591 -6591 -9371 0
-9432 6591 0
-9432 6591 0
-9432 9371 0
-1239 6613 9429 9430 9431 9432 0
1239 -6613 0
1239 -9429 0
1239 -9430 0
1239 -9431 0
1239 -9432 0
9433 -7771 -7771 0
-9433 7771 0
-9433 7771 0
-1510 7756 9433 0
1510 -7756 0
1510 -9433 0
9434 -7771 -7894 0
-9434 7771 0
-9434 7894 0
-1517 7881 9434 0
1517 -7881 0
1517 -9434 0
9435 -7771 -7770 0
-9435 7771 0
-9435 7770 0
-1524 7755 9435 0
1524 -7755 0
1524 -9435 0
9436 -7773 -7770 0
-9436 7773 0
-9436 7770 0
-1531 7764 9436 0
1531 -7764 0
1531 -9436 0
9437 -7771 -7781 0
-9437 7771 0
-9437 7781 0
-1504 7759 9437 0
1504 -7759 0
1504 -9437 0
9438 -7771 -7783 0
-9438 7771 0
-9438 7783 0
-1503 7762 9438 0
1503 -7762 0
1503 -9438 0
9439 -7773 -7783 0
-9439 7773 0
-9439 7783 0
-1526 7765 9439 0
1526 -7765 0
1526 -9439 0
9440 -7894 -7773 0
-9440 7894 0
-9440 7773 0
-1536 7888 9440 0
1536 -7888 0
1536 -9440 0
9441 -7894 -7894 0
-9441 7894 0
-9441 7894 0
-1542 7890 9441 0
1542 -7890 0
1542 -9441 0
9442 -7894 -7781 0
-9442 7894 0
-9442 7781 0
-1512 8059 9442 0
1512 -8059 0
1512 -9442 0
9443 -7894 -7783 0
-9443 7894 0
-9443 7783 0
-1515 7880 9443 0
1515 -7880 0
1515 -9443 0
9444 -7770 -7783 0
-9444 7770 0
-9444 7783 0
-1521 7761 9444 0
1521 -7761 0
1521 -9444 0
9445 -7781 -7773 0
-9445 7781 0
-9445 7773 0
-1528 7775 9445 0
1528 -7775 0
1528 -9445 0
9446 -7781 -7770 0
-9446 7781 0
-9446 7770 0
-1519 7758 9446 0
1519 -7758 0
1519 -9446 0
9447 -7781 -7781 0
-9447 7781 0
-9447 7781 0
-1508 7777 9447 0
1508 -7777 0
1508 -9447 0
9448 -8401 -8401 0
-9448 8401 0
-9448 8401 0
-4820 8387 9448 0
4820 -8387 0
4820 -9448 0
9449 -8401 -8396 0
-9449 8401 0
-9449 8396 0
-4816 8382 9449 0
4816 -8382 0
4816 -9449 0
9450 -8401 -8398 0
-9450 8401 0
-9450 8398 0
-4834 8381 9450 0
4834 -8381 0
4834 -9450 0
9451 -8408 -8398 0
-9451 8408 0
-9451 8398 0
-4210 8403 9451 0
4210 -8403 0
4210 -9451 0
9452 -8401 -8462 0
-9452 8401 0
-9452 8462 0
-4823 8415 9452 0
4823 -8415 0
4823 -9452 0
9453 -8401 -8452 0
-9453 8401 0
-9453 8452 0
-4828 8422 9453 0
4828 -8422 0
4828 -9453 0
9454 -8408 -8452 0
-9454 8408 0
-9454 8452 0
-4207 8427 9454 0
4207 -8427 0
4207 -9454 0
9455 -8396 -8408 0
-9455 8396 0
-9455 8408 0
-4200 8405 9455 0
4200 -8405 0
4200 -9455 0
9456 -8396 -8396 0
-9456 8396 0
-9456 8396 0
-4202 8386 9456 0
4202 -8386 0
4202 -9456 0
9457 -8396 -8462 0
-9457 8396 0
-9457 8462 0
-4205 8410 9457 0
4205 -8410 0
4205 -9457 0
9458 -8396 -8452 0
-9458 8396 0
-9458 8452 0
-4208 8417 9458 0
4208 -8417 0
4208 -9458 0
9459 -8398 -8452 0
-9459 8398 0
-9459 8452 0
-4211 8419 9459 0
4211 -8419 0
4211 -9459 0
9460 -8462 -8408 0
-9460 8462 0
-9460 8408 0
-4204 8457 9460 0
4204 -8457 0
4204 -9460 0
9461 -8462 -8398 0
-9461 8462 0
-9461 8398 0
-4213 8413 9461 0
4213 -8413 0
4213 -9461 0
9462 -8462 -8462 0
-9462 8462 0
-9462 8462 0
-4216 8467 9462 0
4216 -8467 0
4216 -9462 0
9463 -6462 -6462 0
-9463 6462 0
-9463 6462 0
-5264 6456 9463 0
5264 -6456 0
5264 -9463 0
9464 -6462 -7566 0
-9464 6462 0
-9464 7566 0
-5260 7554 9464 0
5260 -7554 0
5260 -9464 0
9465 -6462 -6461 0
-9465 6462 0
-9465 6461 0
-5278 6455 9465 0
5278 -6455 0
5278 -9465 0
9466 -6465 -6461 0
-9466 6465 0
-9466 6461 0
-4363 6464 9466 0
4363 -6464 0
4363 -9466 0
9467 -6462 -6487 0
-9467 6462 0
-9467 6487 0
-5267 6468 9467 0
5267 -6468 0
5267 -9467 0
9468 -6462 -6483 0
-9468 6462 0
-9468 6483 0
-5272 6471 9468 0
5272 -6471 0
5272 -9468 0
9469 -6465 -6483 0
-9469 6465 0
-9469 6483 0
-4360 6473 9469 0
4360 -6473 0
4360 -9469 0
9470 -7566 -6465 0
-9470 7566 0
-9470 6465 0
-4353 7564 9470 0
4353 -7564 0
4353 -9470 0
9471 -7566 -7566 0
-9471 7566 0
-9471 7566 0
-4355 7568 9471 0
4355 -7568 0
4355 -9471 0
9472 -7566 -6487 0
-9472 7566 0
-9472 6487 0
-4358 7622 9472 0
4358 -7622 0
4358 -9472 0
9473 -7566 -6483 0
-9473 7566 0
-9473 6483 0
-4361 7553 9473 0
4361 -7553 0
4361 -9473 0
9474 -6461 -6483 0
-9474 6461 0
-9474 6483 0
-4364 6470 9474 0
4364 -6470 0
4364 -9474 0
9475 -6487 -6465 0
-9475 6487 0
-9475 6465 0
-4357 6485 9475 0
4357 -6485 0
4357 -9475 0
9476 -6487 -6461 0
-9476 6487 0
-9476 6461 0
-4366 6467 9476 0
4366 -6467 0
4366 -9476 0
9477 -6487 -6487 0
-9477 6487 0
-9477 6487 0
-4369 6489 9477 0
4369 -6489 0
4369 -9477 0
9478 -9279 -9279 0
-9478 9279 0
-9478 9279 0
-2662 9285 9478 0
2662 -9285 0
2662 -9478 0
9479 -9279 -9290 0
-9479 9279 0
-9479 9290 0
-2658 9292 9479 0
2658 -9292 0
2658 -9479 0
9480 -9279 -9296 0
-9480 9279 0
-9480 9296 0
-2682 9299 9480 0
2682 -9299 0
2682 -9480 0
9481 -9301 -9296 0
-9481 9301 0
-9481 9296 0
-2680 9306 9481 0
2680 -9306 0
2680 -9481 0
9482 -9279 -9311 0
-9482 9279 0
-9482 9311 0
-2666 9313 9482 0
2666 -9313 0
2666 -9482 0
9483 -9279 -9317 0
-9483 9279 0
-9483 9317 0
-2673 9320 9483 0
2673 -9320 0
2673 -9483 0
9484 -9301 -9317 0
-9484 9301 0
-9484 9317 0
-2675 9325 9484 0
2675 -9325 0
2675 -9484 0
9485 -9290 -9301 0
-9485 9290 0
-9485 9301 0
-2657 9330 9485 0
2657 -9330 0
2657 -9485 0
9486 -9290 -9290 0
-9486 9290 0
-9486 9290 0
-2664 9335 9486 0
2664 -9335 0
2664 -9486 0
9487 -9290 -9311 0
-9487 9290 0
-9487 9311 0
-2671 9340 9487 0
2671 -9340 0
2671 -9487 0
9488 -9290 -9317 0
-9488 9290 0
-9488 9317 0
-2678 9345 9488 0
2678 -9345 0
2678 -9488 0
9489 -9296 -9317 0
-9489 9296 0
-9489 9317 0
-2685 9350 9489 0
2685 -9350 0
2685 -9489 0
9490 -9311 -9301 0
-9490 9311 0
-9490 9301 0
-2669 9355 9490 0
2669 -9355 0
2669 -9490 0
9491 -9311 -9296 0
-9491 9311 0
-9491 9296 0
-2690 9360 9491 0
2690 -9360 0
2690 -9491 0
9492 -9311 -9311 0
-9492 9311 0
-9492 9311 0
-2696 9365 9492 0
2696 -9365 0
2696 -9492 0
9493 -6622 -6619 0
-9493 6622 0
-9493 6619 0
9494 -6619 -6619 0
-9494 6619 0
-9494 6619 0
9495 -6619 -6622 0
-9495 6619 0
-9495 6622 0
9496 -6622 -6622 -6637 0
-9496 6622 0
-9496 6622 0
-9496 6637 0
-3945 6616 9493 9494 9495 9496 0
3945 -6616 0
3945 -9493 0
3945 -9494 0
3945 -9495 0
3945 -9496 0
9497 -6622 -7400 0
-9497 6622 0
-9497 7400 0
9498 -6619 -7400 0
-9498 6619 0
-9498 7400 0
9499 -6619 -7405 0
-9499 6619 0
-9499 7405 0
9500 -6622 -7405 -6637 0
-9500 6622 0
-9500 7405 0
-9500 6637 0
-3941 7394 9497 9498 9499 9500 0
3941 -7394 0
3941 -9497 0
3941 -9498 0
3941 -9499 0
3941 -9500 0
9501 -6622 -6618 0
-9501 6622 0
-9501 6618 0
9502 -6619 -6621 0
-9502 6619 0
-9502 6621 0
9503 -6619 -6618 0
-9503 6619 0
-9503 6618 0
9504 -6622 -6621 -6637 0
-9504 6622 0
-9504 6621 0
-9504 6637 0
-3965 6615 9501 9502 9503 9504 0
3965 -6615 0
3965 -9501 0
3965 -9502 0
3965 -9503 0
3965 -9504 0
9505 -6625 -6618 0
-9505 6625 0
-9505 6618 0
9506 -6635 -6618 0
-9506 6635 0
-9506 6618 0
9507 -6635 -6621 0
-9507 6635 0
-9507 6621 0
9508 -6625 -6621 -6637 0
-9508 6625 0
-9508 6621 0
-9508 6637 0
-3963 6624 9505 9506 9507 9508 0
3963 -6624 0
3963 -9505 0
3963 -9506 0
3963 -9507 0
3963 -9508 0
9509 -6622 -6639 0
-9509 6622 0
-9509 6639 0
9510 -6619 -6639 0
-9510 6619 0
-9510 6639 0
9511 -6619 -6647 0
-9511 6619 0
-9511 6647 0
9512 -6622 -6647 -6637 0
-9512 6622 0
-9512 6647 0
-9512 6637 0
-3949 6628 9509 9510 9511 9512 0
3949 -6628 0
3949 -9509 0
3949 -9510 0
3949 -9511 0
3949 -9512 0
9513 -6622 -6641 0
-9513 6622 0
-9513 6641 0
9514 -6619 -6643 0
-9514 6619 0
-9514 6643 0
9515 -6619 -6641 0
-9515 6619 0
-9515 6641 0
9516 -6622 -6643 -6637 0
-9516 6622 0
-9516 6643 0
-9516 6637 0
-3956 6631 9513 9514 9515 9516 0
3956 -6631 0
3956 -9513 0
3956 -9514 0
3956 -9515 0
3956 -9516 0
9517 -6625 -6641 0
-9517 6625 0
-9517 6641 0
9518 -6635 -6641 0
-9518 6635 0
-9518 6641 0
9519 -6635 -6643 0
-9519 6635 0
-9519 6643 0
9520 -6625 -6643 -6637 0
-9520 6625 0
-9520 6643 0
-9520 6637 0
-3958 6633 9517 9518 9519 9520 0
3958 -6633 0
3958 -9517 0
3958 -9518 0
3958 -9519 0
3958 -9520 0
9521 -7405 -6635 0
-9521 7405 0
-9521 6635 0
9522 -7400 -6625 0
-9522 7400 0
-9522 6625 0
9523 -7400 -6635 0
-9523 7400 0
-9523 6635 0
9524 -7405 -6625 -6637 0
-9524 7405 0
-9524 6625 0
-9524 6637 0
-3940 7411 9521 9522 9523 9524 0
3940 -7411 0
3940 -9521 0
3940 -9522 0
3940 -9523 0
3940 -9524 0
9525 -7405 -7400 0
-9525 7405 0
-9525 7400 0
7433 -7400 -7400 0
-7433 7400 0
-7433 7400 0
9526 -7400 -7405 0
-9526 7400 0
-9526 7405 0
9527 -7405 -7405 -6637 0
-9527 7405 0
-9527 7405 0
-9527 6637 0
-3947 7398 9525 7433 9526 9527 0
3947 -7398 0
3947 -9525 0
3947 -7433 0
3947 -9526 0
3947 -9527 0
9528 -7405 -6639 0
-9528 7405 0
-9528 6639 0
9529 -7400 -6639 0
-9529 7400 0
-9529 6639 0
9530 -7400 -6647 0
-9530 7400 0
-9530 6647 0
9531 -7405 -6647 -6637 0
-9531 7405 0
-9531 6647 0
-9531 6637 0
-3954 7415 9528 9529 9530 9531 0
3954 -7415 0
3954 -9528 0
3954 -9529 0
3954 -9530 0
3954 -9531 0
9532 -7405 -6641 0
-9532 7405 0
-9532 6641 0
9533 -7400 -6643 0
-9533 7400 0
-9533 6643 0
9534 -7400 -6641 0
-9534 7400 0
-9534 6641 0
9535 -7405 -6643 -6637 0
-9535 7405 0
-9535 6643 0
-9535 6637 0
-3961 7420 9532 9533 9534 9535 0
3961 -7420 0
3961 -9532 0
3961 -9533 0
3961 -9534 0
3961 -9535 0
9536 -6621 -6641 0
-9536 6621 0
-9536 6641 0
9537 -6618 -6641 0
-9537 6618 0
-9537 6641 0
9538 -6618 -6643 0
-9538 6618 0
-9538 6643 0
9539 -6621 -6643 -6637 0
-9539 6621 0
-9539 6643 0
-9539 6637 0
-3968 6630 9536 9537 9538 9539 0
3968 -6630 0
3968 -9536 0
3968 -9537 0
3968 -9538 0
3968 -9539 0
9540 -6647 -6635 0
-9540 6647 0
-9540 6635 0
9541 -6639 -6625 0
-9541 6639 0
-9541 6625 0
9542 -6639 -6635 0
-9542 6639 0
-9542 6635 0
9543 -6647 -6625 -6637 0
-9543 6647 0
-9543 6625 0
-9543 6637 0
-3952 6645 9540 9541 9542 9543 0
3952 -6645 0
3952 -9540 0
3952 -9541 0
3952 -9542 0
3952 -9543 0
9544 -6647 -6618 0
-9544 6647 0
-9544 6618 0
9545 -6639 -6621 0
-9545 6639 0
-9545 6621 0
9546 -6639 -6618 0
-9546 6639 0
-9546 6618 0
9547 -6647 -6621 -6637 0
-9547 6647 0
-9547 6621 0
-9547 6637 0
-3973 6627 9544 9545 9546 9547 0
3973 -6627 0
3973 -9544 0
3973 -9545 0
3973 -9546 0
3973 -9547 0
9548 -6647 -6639 0
-9548 6647 0
-9548 6639 0
9549 -6639 -6639 0
-9549 6639 0
-9549 6639 0
9550 -6639 -6647 0
-9550 6639 0
-9550 6647 0
9551 -6647 -6647 -6637 0
-9551 6647 0
-9551 6647 0
-9551 6637 0
-3979 6649 9548 9549 9550 9551 0
3979 -6649 0
3979 -9548 0
3979 -9549 0
3979 -9550 0
3979 -9551 0
9552 -9154 -9553 0
-9552 9154 0
-9552 9553 0
9554 -9553 -9553 0
-9554 9553 0
-9554 9553 0
9555 -9553 -9154 0
-9555 9553 0
-9555 9154 0
9556 -9154 -9154 -9557 0
-9556 9154 0
-9556 9154 0
-9556 9557 0
-5674 9155 9552 9554 9555 9556 0
5674 -9155 0
5674 -9552 0
5674 -9554 0
5674 -9555 0
5674 -9556 0
9558 -9154 -9559 0
-9558 9154 0
-9558 9559 0
9560 -9553 -9559 0
-9560 9553 0
-9560 9559 0
9561 -9553 -9157 0
-9561 9553 0
-9561 9157 0
9562 -9154 -9157 -9557 0
-9562 9154 0
-9562 9157 0
-9562 9557 0
-5670 9158 9558 9560 9561 9562 0
5670 -9158 0
5670 -9558 0
5670 -9560 0
5670 -9561 0
5670 -9562 0
9563 -9154 -9564 0
-9563 9154 0
-9563 9564 0
9565 -9553 -9160 0
-9565 9553 0
-9565 9160 0
9566 -9553 -9564 0
-9566 9553 0
-9566 9564 0
9567 -9154 -9160 -9557 0
-9567 9154 0
-9567 9160 0
-9567 9557 0
-5688 9161 9563 9565 9566 9567 0
5688 -9161 0
5688 -9563 0
5688 -9565 0
5688 -9566 0
5688 -9567 0
9568 -9163 -9564 0
-9568 9163 0
-9568 9564 0
9569 -9570 -9564 0
-9569 9570 0
-9569 9564 0
9571 -9570 -9160 0
-9571 9570 0
-9571 9160 0
9572 -9163 -9160 -9557 0
-9572 9163 0
-9572 9160 0
-9572 9557 0
-3026 9164 9568 9569 9571 9572 0
3026 -9164 0
3026 -9568 0
3026 -9569 0
3026 -9571 0
3026 -9572 0
9573 -9154 -9574 0
-9573 9154 0
-9573 9574 0
9575 -9553 -9574 0
-9575 9553 0
-9575 9574 0
9576 -9553 -9166 0
-9576 9553 0
-9576 9166 0
9577 -9154 -9166 -9557 0
-9577 9154 0
-9577 9166 0
-9577 9557 0
-5677 9167 9573 9575 9576 9577 0
5677 -9167 0
5677 -9573 0
5677 -9575 0
5677 -9576 0
5677 -9577 0
9578 -9154 -9579 0
-9578 9154 0
-9578 9579 0
9580 -9553 -9169 0
-9580 9553 0
-9580 9169 0
9581 -9553 -9579 0
-9581 9553 0
-9581 9579 0
9582 -9154 -9169 -9557 0
-9582 9154 0
-9582 9169 0
-9582 9557 0
-5682 9170 9578 9580 9581 9582 0
5682 -9170 0
5682 -9578 0
5682 -9580 0
5682 -9581 0
5682 -9582 0
9583 -9163 -9579 0
-9583 9163 0
-9583 9579 0
9584 -9570 -9579 0
-9584 9570 0
-9584 9579 0
9585 -9570 -9169 0
-9585 9570 0
-9585 9169 0
9586 -9163 -9169 -9557 0
-9586 9163 0
-9586 9169 0
-9586 9557 0
-3023 9172 9583 9584 9585 9586 0
3023 -9172 0
3023 -9583 0
3023 -9584 0
3023 -9585 0
3023 -9586 0
9587 -9157 -9570 0
-9587 9157 0
-9587 9570 0
9588 -9559 -9163 0
-9588 9559 0
-9588 9163 0
9589 -9559 -9570 0
-9589 9559 0
-9589 9570 0
9590 -9157 -9163 -9557 0
-9590 9157 0
-9590 9163 0
-9590 9557 0
-3016 9174 9587 9588 9589 9590 0
3016 -9174 0
3016 -9587 0
3016 -9588 0
3016 -9589 0
3016 -9590 0
9591 -9157 -9559 0
-9591 9157 0
-9591 9559 0
9592 -9559 -9559 0
-9592 9559 0
-9592 9559 0
9593 -9559 -9157 0
-9593 9559 0
-9593 9157 0
9594 -9157 -9157 -9557 0
-9594 9157 0
-9594 9157 0
-9594 9557 0
-3018 9176 9591 9592 9593 9594 0
3018 -9176 0
3018 -9591 0
3018 -9592 0
3018 -9593 0
3018 -9594 0
9595 -9157 -9574 0
-9595 9157 0
-9595 9574 0
9596 -9559 -9574 0
-9596 9559 0
-9596 9574 0
9597 -9559 -9166 0
-9597 9559 0
-9597 9166 0
9598 -9157 -9166 -9557 0
-9598 9157 0
-9598 9166 0
-9598 9557 0
-3021 9178 9595 9596 9597 9598 0
3021 -9178 0
3021 -9595 0
3021 -9596 0
3021 -9597 0
3021 -9598 0
9599 -9157 -9579 0
-9599 9157 0
-9599 9579 0
9600 -9559 -9169 0
-9600 9559 0
-9600 9169 0
9601 -9559 -9579 0
-9601 9559 0
-9601 9579 0
9602 -9157 -9169 -9557 0
-9602 9157 0
-9602 9169 0
-9602 9557 0
-3024 9180 9599 9600 9601 9602 0
3024 -9180 0
3024 -9599 0
3024 -9600 0
3024 -9601 0
3024 -9602 0
9603 -9160 -9579 0
-9603 9160 0
-9603 9579 0
9604 -9564 -9579 0
-9604 9564 0
-9604 9579 0
9605 -9564 -9169 0
-9605 9564 0
-9605 9169 0
9606 -9160 -9169 -9557 0
-9606 9160 0
-9606 9169 0
-9606 9557 0
-3027 9182 9603 9604 9605 9606 0
3027 -9182 0
3027 -9603 0
3027 -9604 0
3027 -9605 0
3027 -9606 0
9607 -9166 -9570 0
-9607 9166 0
-9607 9570 0
9608 -9574 -9163 0
-9608 9574 0
-9608 9163 0
9609 -9574 -9570 0
-9609 9574 0
-9609 9570 0
9610 -9166 -9163 -9557 0
-9610 9166 0
-9610 9163 0
-9610 9557 0
-3020 9184 9607 9608 9609 9610 0
3020 -9184 0
3020 -9607 0
3020 -9608 0
3020 -9609 0
3020 -9610 0
9611 -9166 -9564 0
-9611 9166 0
-9611 9564 0
9612 -9574 -9160 0
-9612 9574 0
-9612 9160 0
9613 -9574 -9564 0
-9613 9574 0
-9613 9564 0
9614 -9166 -9160 -9557 0
-9614 9166 0
-9614 9160 0
-9614 9557 0
-3029 9186 9611 9612 9613 9614 0
3029 -9186 0
3029 -9611 0
3029 -9612 0
3029 -9613 0
3029 -9614 0
9615 -9166 -9574 0
-9615 9166 0
-9615 9574 0
9616 -9574 -9574 0
-9616 9574 0
-9616 9574 0
9617 -9574 -9166 0
-9617 9574 0
-9617 9166 0
9618 -9166 -9166 -9557 0
-9618 9166 0
-9618 9166 0
-9618 9557 0
-3032 9188 9615 9616 9617 9618 0
3032 -9188 0
3032 -9615 0
3032 -9616 0
3032 -9617 0
3032 -9618 0
9619 -9620 -9621 0
-9619 9620 0
-9619 9621 0
9622 -9621 -9621 0
-9622 9621 0
-9622 9621 0
9623 -9621 -9620 0
-9623 9621 0
-9623 9620 0
9624 -9620 -9620 -9625 0
-9624 9620 0
-9624 9620 0
-9624 9625 0
-4173 9626 9619 9622 9623 9624 0
4173 -9626 0
4173 -9619 0
4173 -9622 0
4173 -9623 0
4173 -9624 0
9627 -9620 -9628 0
-9627 9620 0
-9627 9628 0
9629 -9621 -9628 0
-9629 9621 0
-9629 9628 0
9630 -9621 -9631 0
-9630 9621 0
-9630 9631 0
9632 -9620 -9631 -9625 0
-9632 9620 0
-9632 9631 0
-9632 9625 0
-4169 9633 9627 9629 9630 9632 0
4169 -9633 0
4169 -9627 0
4169 -9629 0
4169 -9630 0
4169 -9632 0
9634 -9620 -9635 0
-9634 9620 0
-9634 9635 0
9636 -9621 -9637 0
-9636 9621 0
-9636 9637 0
9638 -9621 -9635 0
-9638 9621 0
-9638 9635 0
9639 -9620 -9637 -9625 0
-9639 9620 0
-9639 9637 0
-9639 9625 0
-4187 9640 9634 9636 9638 9639 0
4187 -9640 0
4187 -9634 0
4187 -9636 0
4187 -9638 0
4187 -9639 0
9641 -9642 -9635 0
-9641 9642 0
-9641 9635 0
9643 -9644 -9635 0
-9643 9644 0
-9643 9635 0
9645 -9644 -9637 0
-9645 9644 0
-9645 9637 0
9646 -9642 -9637 -9625 0
-9646 9642 0
-9646 9637 0
-9646 9625 0
-3412 9647 9641 9643 9645 9646 0
3412 -9647 0
3412 -9641 0
3412 -9643 0
3412 -9645 0
3412 -9646 0
9648 -9620 -9649 0
-9648 9620 0
-9648 9649 0
9650 -9621 -9649 0
-9650 9621 0
-9650 9649 0
9651 -9621 -9652 0
-9651 9621 0
-9651 9652 0
9653 -9620 -9652 -9625 0
-9653 9620 0
-9653 9652 0
-9653 9625 0
-4176 9654 9648 9650 9651 9653 0
4176 -9654 0
4176 -9648 0
4176 -9650 0
4176 -9651 0
4176 -9653 0
9655 -9620 -9656 0
-9655 9620 0
-9655 9656 0
9657 -9621 -9658 0
-9657 9621 0
-9657 9658 0
9659 -9621 -9656 0
-9659 9621 0
-9659 9656 0
9660 -9620 -9658 -9625 0
-9660 9620 0
-9660 9658 0
-9660 9625 0
-4181 9661 9655 9657 9659 9660 0
4181 -9661 0
4181 -9655 0
4181 -9657 0
4181 -9659 0
4181 -9660 0
9662 -9642 -9656 0
-9662 9642 0
-9662 9656 0
9663 -9644 -9656 0
-9663 9644 0
-9663 9656 0
9664 -9644 -9658 0
-9664 9644 0
-9664 9658 0
9665 -9642 -9658 -9625 0
-9665 9642 0
-9665 9658 0
-9665 9625 0
-3409 9666 9662 9663 9664 9665 0
3409 -9666 0
3409 -9662 0
3409 -9663 0
3409 -9664 0
3409 -9665 0
9667 -9631 -9644 0
-9667 9631 0
-9667 9644 0
9668 -9628 -9642 0
-9668 9628 0
-9668 9642 0
9669 -9628 -9644 0
-9669 9628 0
-9669 9644 0
9670 -9631 -9642 -9625 0
-9670 9631 0
-9670 9642 0
-9670 9625 0
-3402 9671 9667 9668 9669 9670 0
3402 -9671 0
3402 -9667 0
3402 -9668 0
3402 -9669 0
3402 -9670 0
9672 -9631 -9628 0
-9672 9631 0
-9672 9628 0
9673 -9628 -9628 0
-9673 9628 0
-9673 9628 0
9674 -9628 -9631 0
-9674 9628 0
-9674 9631 0
9675 -9631 -9631 -9625 0
-9675 9631 0
-9675 9631 0
-9675 9625 0
-3404 9676 9672 9673 9674 9675 0
3404 -9676 0
3404 -9672 0
3404 -9673 0
3404 -9674 0
3404 -9675 0
9677 -9631 -9649 0
-9677 9631 0
-9677 9649 0
9678 -9628 -9649 0
-9678 9628 0
-9678 9649 0
9679 -9628 -9652 0
-9679 9628 0
-9679 9652 0
9680 -9631 -9652 -9625 0
-9680 9631 0
-9680 9652 0
-9680 9625 0
-3407 9681 9677 9678 9679 9680 0
3407 -9681 0
3407 -9677 0
3407 -9678 0
3407 -9679 0
3407 -9680 0
9682 -9631 -9656 0
-9682 9631 0
-9682 9656 0
9683 -9628 -9658 0
-9683 9628 0
-9683 9658 0
9684 -9628 -9656 0
-9684 9628 0
-9684 9656 0
9685 -9631 -9658 -9625 0
-9685 9631 0
-9685 9658 0
-9685 9625 0
-3410 9686 9682 9683 9684 9685 0
3410 -9686 0
3410 -9682 0
3410 -9683 0
3410 -9684 0
3410 -9685 0
9687 -9637 -9656 0
-9687 9637 0
-9687 9656 0
9688 -9635 -9656 0
-9688 9635 0
-9688 9656 0
9689 -9635 -9658 0
-9689 9635 0
-9689 9658 0
9690 -9637 -9658 -9625 0
-9690 9637 0
-9690 9658 0
-9690 9625 0
-3413 9691 9687 9688 9689 9690 0
3413 -9691 0
3413 -9687 0
3413 -9688 0
3413 -9689 0
3413 -9690 0
9692 -9652 -9644 0
-9692 9652 0
-9692 9644 0
9693 -9649 -9642 0
-9693 9649 0
-9693 9642 0
9694 -9649 -9644 0
-9694 9649 0
-9694 9644 0
9695 -9652 -9642 -9625 0
-9695 9652 0
-9695 9642 0
-9695 9625 0
-3406 9696 9692 9693 9694 9695 0
3406 -9696 0
3406 -9692 0
3406 -9693 0
3406 -9694 0
3406 -9695 0
9697 -9652 -9635 0
-9697 9652 0
-9697 9635 0
9698 -9649 -9637 0
-9698 9649 0
-9698 9637 0
9699 -9649 -9635 0
-9699 9649 0
-9699 9635 0
9700 -9652 -9637 -9625 0
-9700 9652 0
-9700 9637 0
-9700 9625 0
-3415 9701 9697 9698 9699 9700 0
3415 -9701 0
3415 -9697 0
3415 -9698 0
3415 -9699 0
3415 -9700 0
9702 -9652 -9649 0
-9702 9652 0
-9702 9649 0
9703 -9649 -9649 0
-9703 9649 0
-9703 9649 0
9704 -9649 -9652 0
-9704 9649 0
-9704 9652 0
9705 -9652 -9652 -9625 0
-9705 9652 0
-9705 9652 0
-9705 9625 0
-3418 9706 9702 9703 9704 9705 0
3418 -9706 0
3418 -9702 0
3418 -9703 0
3418 -9704 0
3418 -9705 0
9707 -6842 -9708 0
-9707 6842 0
-9707 9708 0
9709 -9708 -9708 0
-9709 9708 0
-9709 9708 0
9710 -9708 -6842 0
-9710 9708 0
-9710 6842 0
9711 -6842 -6842 -9712 0
-9711 6842 0
-9711 6842 0
-9711 9712 0
-4043 6843 9707 9709 9710 9711 0
4043 -6843 0
4043 -9707 0
4043 -9709 0
4043 -9710 0
4043 -9711 0
9713 -6842 -9714 0
-9713 6842 0
-9713 9714 0
9715 -9708 -9714 0
-9715 9708 0
-9715 9714 0
9716 -9708 -6845 0
-9716 9708 0
-9716 6845 0
9717 -6842 -6845 -9712 0
-9717 6842 0
-9717 6845 0
-9717 9712 0
-4039 6846 9713 9715 9716 9717 0
4039 -6846 0
4039 -9713 0
4039 -9715 0
4039 -9716 0
4039 -9717 0
9718 -6842 -9719 0
-9718 6842 0
-9718 9719 0
9720 -9708 -6848 0
-9720 9708 0
-9720 6848 0
9721 -9708 -9719 0
-9721 9708 0
-9721 9719 0
9722 -6842 -6848 -9712 0
-9722 6842 0
-9722 6848 0
-9722 9712 0
-4063 6849 9718 9720 9721 9722 0
4063 -6849 0
4063 -9718 0
4063 -9720 0
4063 -9721 0
4063 -9722 0
9723 -6851 -9719 0
-9723 6851 0
-9723 9719 0
9724 -9725 -9719 0
-9724 9725 0
-9724 9719 0
9726 -9725 -6848 0
-9726 9725 0
-9726 6848 0
9727 -6851 -6848 -9712 0
-9727 6851 0
-9727 6848 0
-9727 9712 0
-4061 6852 9723 9724 9726 9727 0
4061 -6852 0
4061 -9723 0
4061 -9724 0
4061 -9726 0
4061 -9727 0
9728 -6842 -9729 0
-9728 6842 0
-9728 9729 0
9730 -9708 -9729 0
-9730 9708 0
-9730 9729 0
9731 -9708 -6854 0
-9731 9708 0
-9731 6854 0
9732 -6842 -6854 -9712 0
-9732 6842 0
-9732 6854 0
-9732 9712 0
-4047 6855 9728 9730 9731 9732 0
4047 -6855 0
4047 -9728 0
4047 -9730 0
4047 -9731 0
4047 -9732 0
9733 -6842 -9734 0
-9733 6842 0
-9733 9734 0
9735 -9708 -6857 0
-9735 9708 0
-9735 6857 0
9736 -9708 -9734 0
-9736 9708 0
-9736 9734 0
9737 -6842 -6857 -9712 0
-9737 6842 0
-9737 6857 0
-9737 9712 0
-4054 6858 9733 9735 9736 9737 0
4054 -6858 0
4054 -9733 0
4054 -9735 0
4054 -9736 0
4054 -9737 0
9738 -6851 -9734 0
-9738 6851 0
-9738 9734 0
9739 -9725 -9734 0
-9739 9725 0
-9739 9734 0
9740 -9725 -6857 0
-9740 9725 0
-9740 6857 0
9741 -6851 -6857 -9712 0
-9741 6851 0
-9741 6857 0
-9741 9712 0
-4056 6860 9738 9739 9740 9741 0
4056 -6860 0
4056 -9738 0
4056 -9739 0
4056 -9740 0
4056 -9741 0
9742 -6845 -9725 0
-9742 6845 0
-9742 9725 0
9743 -9714 -6851 0
-9743 9714 0
-9743 6851 0
9744 -9714 -9725 0
-9744 9714 0
-9744 9725 0
9745 -6845 -6851 -9712 0
-9745 6845 0
-9745 6851 0
-9745 9712 0
-4038 6862 9742 9743 9744 9745 0
4038 -6862 0
4038 -9742 0
4038 -9743 0
4038 -9744 0
4038 -9745 0
9746 -6845 -9714 0
-9746 6845 0
-9746 9714 0
9747 -9714 -9714 0
-9747 9714 0
-9747 9714 0
9748 -9714 -6845 0
-9748 9714 0
-9748 6845 0
9749 -6845 -6845 -9712 0
-9749 6845 0
-9749 6845 0
-9749 9712 0
-4045 6864 9746 9747 9748 9749 0
4045 -6864 0
4045 -9746 0
4045 -9747 0
4045 -9748 0
4045 -9749 0
9750 -6845 -9729 0
-9750 6845 0
-9750 9729 0
9751 -9714 -9729 0
-9751 9714 0
-9751 9729 0
9752 -9714 -6854 0
-9752 9714 0
-9752 6854 0
9753 -6845 -6854 -9712 0
-9753 6845 0
-9753 6854 0
-9753 9712 0
-4052 6866 9750 9751 9752 9753 0
4052 -6866 0
4052 -9750 0
4052 -9751 0
4052 -9752 0
4052 -9753 0
9754 -6845 -9734 0
-9754 6845 0
-9754 9734 0
9755 -9714 -6857 0
-9755 9714 0
-9755 6857 0
9756 -9714 -9734 0
-9756 9714 0
-9756 9734 0
9757 -6845 -6857 -9712 0
-9757 6845 0
-9757 6857 0
-9757 9712 0
-4059 6868 9754 9755 9756 9757 0
4059 -6868 0
4059 -9754 0
4059 -9755 0
4059 -9756 0
4059 -9757 0
9758 -6848 -9734 0
-9758 6848 0
-9758 9734 0
9759 -9719 -9734 0
-9759 9719 0
-9759 9734 0
9760 -9719 -6857 0
-9760 9719 0
-9760 6857 0
9761 -6848 -6857 -9712 0
-9761 6848 0
-9761 6857 0
-9761 9712 0
-4066 6870 9758 9759 9760 9761 0
4066 -6870 0
4066 -9758 0
4066 -9759 0
4066 -9760 0
4066 -9761 0
9762 -6854 -9725 0
-9762 6854 0
-9762 9725 0
9763 -9729 -6851 0
-9763 9729 0
-9763 6851 0
9764 -9729 -9725 0
-9764 9729 0
-9764 9725 0
9765 -6854 -6851 -9712 0
-9765 6854 0
-9765 6851 0
-9765 9712 0
-4050 6872 9762 9763 9764 9765 0
4050 -6872 0
4050 -9762 0
4050 -9763 0
4050 -9764 0
4050 -9765 0
9766 -6854 -9719 0
-9766 6854 0
-9766 9719 0
9767 -9729 -6848 0
-9767 9729 0
-9767 6848 0
9768 -9729 -9719 0
-9768 9729 0
-9768 9719 0
9769 -6854 -6848 -9712 0
-9769 6854 0
-9769 6848 0
-9769 9712 0
-4071 6874 9766 9767 9768 9769 0
4071 -6874 0
4071 -9766 0
4071 -9767 0
4071 -9768 0
4071 -9769 0
9770 -6854 -9729 0
-9770 6854 0
-9770 9729 0
9771 -9729 -9729 0
-9771 9729 0
-9771 9729 0
9772 -9729 -6854 0
-9772 9729 0
-9772 6854 0
9773 -6854 -6854 -9712 0
-9773 6854 0
-9773 6854 0
-9773 9712 0
-4077 6876 9770 9771 9772 9773 0
4077 -6876 0
4077 -9770 0
4077 -9771 0
4077 -9772 0
4077 -9773 0
9774 -7667 -7667 0
-9774 7667 0
-9774 7667 0
-6052 7673 9774 0
6052 -7673 0
6052 -9774 0
9775 -7667 -7678 0
-9775 7667 0
-9775 7678 0
-6048 7680 9775 0
6048 -7680 0
6048 -9775 0
9776 -7667 -7684 0
-9776 7667 0
-9776 7684 0
-6066 7687 9776 0
6066 -7687 0
6066 -9776 0
9777 -7689 -7684 0
-9777 7689 0
-9777 7684 0
-5373 7694 9777 0
5373 -7694 0
5373 -9777 0
9778 -7667 -7699 0
-9778 7667 0
-9778 7699 0
-6055 7701 9778 0
6055 -7701 0
6055 -9778 0
9779 -7667 -7705 0
-9779 7667 0
-9779 7705 0
-6060 7708 9779 0
6060 -7708 0
6060 -9779 0
9780 -7689 -7705 0
-9780 7689 0
-9780 7705 0
-5370 7713 9780 0
5370 -7713 0
5370 -9780 0
9781 -7678 -7689 0
-9781 7678 0
-9781 7689 0
-5363 7718 9781 0
5363 -7718 0
5363 -9781 0
9782 -7678 -7678 0
-9782 7678 0
-9782 7678 0
-5365 7723 9782 0
5365 -7723 0
5365 -9782 0
9783 -7678 -7699 0
-9783 7678 0
-9783 7699 0
-5368 7728 9783 0
5368 -7728 0
5368 -9783 0
9784 -7678 -7705 0
-9784 7678 0
-9784 7705 0
-5371 7733 9784 0
5371 -7733 0
5371 -9784 0
9785 -7684 -7705 0
-9785 7684 0
-9785 7705 0
-5374 7738 9785 0
5374 -7738 0
5374 -9785 0
9786 -7699 -7689 0
-9786 7699 0
-9786 7689 0
-5367 7743 9786 0
5367 -7743 0
5367 -9786 0
9787 -7699 -7684 0
-9787 7699 0
-9787 7684 0
-5376 7748 9787 0
5376 -7748 0
5376 -9787 0
9788 -7699 -7699 0
-9788 7699 0
-9788 7699 0
-5379 7753 9788 0
5379 -7753 0
5379 -9788 0
9789 -7577 -7574 0
-9789 7577 0
-9789 7574 0
9790 -7574 -7574 0
-9790 7574 0
-9790 7574 0
9791 -7574 -7577 0
-9791 7574 0
-9791 7577 0
9792 -7577 -7577 -7592 0
-9792 7577 0
-9792 7577 0
-9792 7592 0
-1590 7571 9789 9790 9791 9792 0
1590 -7571 0
1590 -9789 0
1590 -9790 0
1590 -9791 0
1590 -9792 0
9793 -7577 -7994 0
-9793 7577 0
-9793 7994 0
9794 -7574 -7994 0
-9794 7574 0
-9794 7994 0
9795 -7574 -7999 0
-9795 7574 0
-9795 7999 0
9796 -7577 -7999 -7592 0
-9796 7577 0
-9796 7999 0
-9796 7592 0
-1586 7988 9793 9794 9795 9796 0
1586 -7988 0
1586 -9793 0
1586 -9794 0
1586 -9795 0
1586 -9796 0
9797 -7577 -7573 0
-9797 7577 0
-9797 7573 0
9798 -7574 -7576 0
-9798 7574 0
-9798 7576 0
9799 -7574 -7573 0
-9799 7574 0
-9799 7573 0
9800 -7577 -7576 -7592 0
-9800 7577 0
-9800 7576 0
-9800 7592 0
-1610 7570 9797 9798 9799 9800 0
1610 -7570 0
1610 -9797 0
1610 -9798 0
1610 -9799 0
1610 -9800 0
9801 -7580 -7573 0
-9801 7580 0
-9801 7573 0
9802 -7590 -7573 0
-9802 7590 0
-9802 7573 0
9803 -7590 -7576 0
-9803 7590 0
-9803 7576 0
9804 -7580 -7576 -7592 0
-9804 7580 0
-9804 7576 0
-9804 7592 0
-1608 7579 9801 9802 9803 9804 0
1608 -7579 0
1608 -9801 0
1608 -9802 0
1608 -9803 0
1608 -9804 0
9805 -7577 -7594 0
-9805 7577 0
-9805 7594 0
9806 -7574 -7594 0
-9806 7574 0
-9806 7594 0
9807 -7574 -7602 0
-9807 7574 0
-9807 7602 0
9808 -7577 -7602 -7592 0
-9808 7577 0
-9808 7602 0
-9808 7592 0
-1594 7583 9805 9806 9807 9808 0
1594 -7583 0
1594 -9805 0
1594 -9806 0
1594 -9807 0
1594 -9808 0
9809 -7577 -7596 0
-9809 7577 0
-9809 7596 0
9810 -7574 -7598 0
-9810 7574 0
-9810 7598 0
9811 -7574 -7596 0
-9811 7574 0
-9811 7596 0
9812 -7577 -7598 -7592 0
-9812 7577 0
-9812 7598 0
-9812 7592 0
-1601 7586 9809 9810 9811 9812 0
1601 -7586 0
1601 -9809 0
1601 -9810 0
1601 -9811 0
1601 -9812 0
9813 -7580 -7596 0
-9813 7580 0
-9813 7596 0
9814 -7590 -7596 0
-9814 7590 0
-9814 7596 0
9815 -7590 -7598 0
-9815 7590 0
-9815 7598 0
9816 -7580 -7598 -7592 0
-9816 7580 0
-9816 7598 0
-9816 7592 0
-1603 7588 9813 9814 9815 9816 0
1603 -7588 0
1603 -9813 0
1603 -9814 0
1603 -9815 0
1603 -9816 0
9817 -7999 -7590 0
-9817 7999 0
-9817 7590 0
9818 -7994 -7580 0
-9818 7994 0
-9818 7580 0
9819 -7994 -7590 0
-9819 7994 0
-9819 7590 0
9820 -7999 -7580 -7592 0
-9820 7999 0
-9820 7580 0
-9820 7592 0
-1585 8005 9817 9818 9819 9820 0
1585 -8005 0
1585 -9817 0
1585 -9818 0
1585 -9819 0
1585 -9820 0
9821 -7999 -7994 0
-9821 7999 0
-9821 7994 0
8027 -7994 -7994 0
-8027 7994 0
-8027 7994 0
9822 -7994 -7999 0
-9822 7994 0
-9822 7999 0
9823 -7999 -7999 -7592 0
-9823 7999 0
-9823 7999 0
-9823 7592 0
-1592 7992 9821 8027 9822 9823 0
1592 -7992 0
1592 -9821 0
1592 -8027 0
1592 -9822 0
1592 -9823 0
9824 -7999 -7594 0
-9824 7999 0
-9824 7594 0
9825 -7994 -7594 0
-9825 7994 0
-9825 7594 0
9826 -7994 -7602 0
-9826 7994 0
-9826 7602 0
9827 -7999 -7602 -7592 0
-9827 7999 0
-9827 7602 0
-9827 7592 0
-1599 8009 9824 9825 9826 9827 0
1599 -8009 0
1599 -9824 0
1599 -9825 0
1599 -9826 0
1599 -9827 0
9828 -7999 -7596 0
-9828 7999 0
-9828 7596 0
9829 -7994 -7598 0
-9829 7994 0
-9829 7598 0
9830 -7994 -7596 0
-9830 7994 0
-9830 7596 0
9831 -7999 -7598 -7592 0
-9831 7999 0
-9831 7598 0
-9831 7592 0
-1606 8014 9828 9829 9830 9831 0
1606 -8014 0
1606 -9828 0
1606 -9829 0
1606 -9830 0
1606 -9831 0
9832 -7576 -7596 0
-9832 7576 0
-9832 7596 0
9833 -7573 -7596 0
-9833 7573 0
-9833 7596 0
9834 -7573 -7598 0
-9834 7573 0
-9834 7598 0
9835 -7576 -7598 -7592 0
-9835 7576 0
-9835 7598 0
-9835 7592 0
-1613 7585 9832 9833 9834 9835 0
1613 -7585 0
1613 -9832 0
1613 -9833 0
1613 -9834 0
1613 -9835 0
9836 -7602 -7590 0
-9836 7602 0
-9836 7590 0
9837 -7594 -7580 0
-9837 7594 0
-9837 7580 0
9838 -7594 -7590 0
-9838 7594 0
-9838 7590 0
9839 -7602 -7580 -7592 0
-9839 7602 0
-9839 7580 0
-9839 7592 0
-1597 7600 9836 9837 9838 9839 0
1597 -7600 0
1597 -9836 0
1597 -9837 0
1597 -9838 0
1597 -9839 0
9840 -7602 -7573 0
-9840 7602 0
-9840 7573 0
9841 -7594 -7576 0
-9841 7594 0
-9841 7576 0
9842 -7594 -7573 0
-9842 7594 0
-9842 7573 0
9843 -7602 -7576 -7592 0
-9843 7602 0
-9843 7576 0
-9843 7592 0
-1618 7582 9840 9841 9842 9843 0
1618 -7582 0
1618 -9840 0
1618 -9841 0
1618 -9842 0
1618 -9843 0
9844 -7602 -7594 0
-9844 7602 0
-9844 7594 0
9845 -7594 -7594 0
-9845 7594 0
-9845 7594 0
9846 -7594 -7602 0
-9846 7594 0
-9846 7602 0
9847 -7602 -7602 -7592 0
-9847 7602 0
-9847 7602 0
-9847 7592 0
-1624 7604 9844 9845 9846 9847 0
1624 -7604 0
1624 -9844 0
1624 -9845 0
1624 -9846 0
1624 -9847 0
9848 -8852 -9849 0
-9848 8852 0
-9848 9849 0
9850 -9849 -9849 0
-9850 9849 0
-9850 9849 0
9851 -9849 -8852 0
-9851 9849 0
-9851 8852 0
9852 -8852 -8852 -9853 0
-9852 8852 0
-9852 8852 0
-9852 9853 0
-5761 8853 9848 9850 9851 9852 0
5761 -8853 0
5761 -9848 0
5761 -9850 0
5761 -9851 0
5761 -9852 0
9854 -8852 -9855 0
-9854 8852 0
-9854 9855 0
9856 -9849 -9855 0
-9856 9849 0
-9856 9855 0
9857 -9849 -8855 0
-9857 9849 0
-9857 8855 0
9858 -8852 -8855 -9853 0
-9858 8852 0
-9858 8855 0
-9858 9853 0
-5757 8856 9854 9856 9857 9858 0
5757 -8856 0
5757 -9854 0
5757 -9856 0
5757 -9857 0
5757 -9858 0
9859 -8852 -9860 0
-9859 8852 0
-9859 9860 0
9861 -9849 -8858 0
-9861 9849 0
-9861 8858 0
9862 -9849 -9860 0
-9862 9849 0
-9862 9860 0
9863 -8852 -8858 -9853 0
-9863 8852 0
-9863 8858 0
-9863 9853 0
-5775 8859 9859 9861 9862 9863 0
5775 -8859 0
5775 -9859 0
5775 -9861 0
5775 -9862 0
5775 -9863 0
9864 -8861 -9860 0
-9864 8861 0
-9864 9860 0
9865 -9866 -9860 0
-9865 9866 0
-9865 9860 0
9867 -9866 -8858 0
-9867 9866 0
-9867 8858 0
9868 -8861 -8858 -9853 0
-9868 8861 0
-9868 8858 0
-9868 9853 0
-5477 8862 9864 9865 9867 9868 0
5477 -8862 0
5477 -9864 0
5477 -9865 0
5477 -9867 0
5477 -9868 0
9869 -8852 -9870 0
-9869 8852 0
-9869 9870 0
9871 -9849 -9870 0
-9871 9849 0
-9871 9870 0
9872 -9849 -8864 0
-9872 9849 0
-9872 8864 0
9873 -8852 -8864 -9853 0
-9873 8852 0
-9873 8864 0
-9873 9853 0
-5764 8865 9869 9871 9872 9873 0
5764 -8865 0
5764 -9869 0
5764 -9871 0
5764 -9872 0
5764 -9873 0
9874 -8852 -9875 0
-9874 8852 0
-9874 9875 0
9876 -9849 -8867 0
-9876 9849 0
-9876 8867 0
9877 -9849 -9875 0
-9877 9849 0
-9877 9875 0
9878 -8852 -8867 -9853 0
-9878 8852 0
-9878 8867 0
-9878 9853 0
-5769 8868 9874 9876 9877 9878 0
5769 -8868 0
5769 -9874 0
5769 -9876 0
5769 -9877 0
5769 -9878 0
9879 -8861 -9875 0
-9879 8861 0
-9879 9875 0
9880 -9866 -9875 0
-9880 9866 0
-9880 9875 0
9881 -9866 -8867 0
-9881 9866 0
-9881 8867 0
9882 -8861 -8867 -9853 0
-9882 8861 0
-9882 8867 0
-9882 9853 0
-5474 8870 9879 9880 9881 9882 0
5474 -8870 0
5474 -9879 0
5474 -9880 0
5474 -9881 0
5474 -9882 0
9883 -8855 -9866 0
-9883 8855 0
-9883 9866 0
9884 -9855 -8861 0
-9884 9855 0
-9884 8861 0
9885 -9855 -9866 0
-9885 9855 0
-9885 9866 0
9886 -8855 -8861 -9853 0
-9886 8855 0
-9886 8861 0
-9886 9853 0
-5467 8872 9883 9884 9885 9886 0
5467 -8872 0
5467 -9883 0
5467 -9884 0
5467 -9885 0
5467 -9886 0
9887 -8855 -9855 0
-9887 8855 0
-9887 9855 0
9888 -9855 -9855 0
-9888 9855 0
-9888 9855 0
9889 -9855 -8855 0
-9889 9855 0
-9889 8855 0
9890 -8855 -8855 -9853 0
-9890 8855 0
-9890 8855 0
-9890 9853 0
-5469 8874 9887 9888 9889 9890 0
5469 -8874 0
5469 -9887 0
5469 -9888 0
5469 -9889 0
5469 -9890 0
9891 -8855 -9870 0
-9891 8855 0
-9891 9870 0
9892 -9855 -9870 0
-9892 9855 0
-9892 9870 0
9893 -9855 -8864 0
-9893 9855 0
-9893 8864 0
9894 -8855 -8864 -9853 0
-9894 8855 0
-9894 8864 0
-9894 9853 0
-5472 8876 9891 9892 9893 9894 0
5472 -8876 0
5472 -9891 0
5472 -9892 0
5472 -9893 0
5472 -9894 0
9895 -8855 -9875 0
-9895 8855 0
-9895 9875 0
9896 -9855 -8867 0
-9896 9855 0
-9896 8867 0
9897 -9855 -9875 0
-9897 9855 0
-9897 9875 0
9898 -8855 -8867 -9853 0
-9898 8855 0
-9898 8867 0
-9898 9853 0
-5475 8878 9895 9896 9897 9898 0
5475 -8878 0
5475 -9895 0
5475 -9896 0
5475 -9897 0
5475 -9898 0
9899 -8858 -9875 0
-9899 8858 0
-9899 9875 0
9900 -9860 -9875 0
-9900 9860 0
-9900 9875 0
9901 -9860 -8867 0
-9901 9860 0
-9901 8867 0
9902 -8858 -8867 -9853 0
-9902 8858 0
-9902 8867 0
-9902 9853 0
-5478 8880 9899 9900 9901 9902 0
5478 -8880 0
5478 -9899 0
5478 -9900 0
5478 -9901 0
5478 -9902 0
9903 -8864 -9866 0
-9903 8864 0
-9903 9866 0
9904 -9870 -8861 0
-9904 9870 0
-9904 8861 0
9905 -9870 -9866 0
-9905 9870 0
-9905 9866 0
9906 -8864 -8861 -9853 0
-9906 8864 0
-9906 8861 0
-9906 9853 0
-5471 8882 9903 9904 9905 9906 0
5471 -8882 0
5471 -9903 0
5471 -9904 0
5471 -9905 0
5471 -9906 0
9907 -8864 -9860 0
-9907 8864 0
-9907 9860 0
9908 -9870 -8858 0
-9908 9870 0
-9908 8858 0
9909 -9870 -9860 0
-9909 9870 0
-9909 9860 0
9910 -8864 -8858 -9853 0
-9910 8864 0
-9910 8858 0
-9910 9853 0
-5480 8884 9907 9908 9909 9910 0
5480 -8884 0
5480 -9907 0
5480 -9908 0
5480 -9909 0
5480 -9910 0
9911 -8864 -9870 0
-9911 8864 0
-9911 9870 0
9912 -9870 -9870 0
-9912 9870 0
-9912 9870 0
9913 -9870 -8864 0
-9913 9870 0
-9913 8864 0
9914 -8864 -8864 -9853 0
-9914 8864 0
-9914 8864 0
-9914 9853 0
-5483 8886 9911 9912 9913 9914 0
5483 -8886 0
5483 -9911 0
5483 -9912 0
5483 -9913 0
5483 -9914 0
9915 -8278 -8278 0
-9915 8278 0
-9915 8278 0
-3234 8284 9915 0
3234 -8284 0
3234 -9915 0
9916 -8278 -8289 0
-9916 8278 0
-9916 8289 0
-3230 8291 9916 0
3230 -8291 0
3230 -9916 0
9917 -8278 -8295 0
-9917 8278 0
-9917 8295 0
-3254 8298 9917 0
3254 -8298 0
3254 -9917 0
9918 -8300 -8295 0
-9918 8300 0
-9918 8295 0
-3252 8305 9918 0
3252 -8305 0
3252 -9918 0
9919 -8278 -8310 0
-9919 8278 0
-9919 8310 0
-3238 8312 9919 0
3238 -8312 0
3238 -9919 0
9920 -8278 -8316 0
-9920 8278 0
-9920 8316 0
-3245 8319 9920 0
3245 -8319 0
3245 -9920 0
9921 -8300 -8316 0
-9921 8300 0
-9921 8316 0
-3247 8324 9921 0
3247 -8324 0
3247 -9921 0
9922 -8289 -8300 0
-9922 8289 0
-9922 8300 0
-3229 8329 9922 0
3229 -8329 0
3229 -9922 0
9923 -8289 -8289 0
-9923 8289 0
-9923 8289 0
-3236 8334 9923 0
3236 -8334 0
3236 -9923 0
9924 -8289 -8310 0
-9924 8289 0
-9924 8310 0
-3243 8339 9924 0
3243 -8339 0
3243 -9924 0
9925 -8289 -8316 0
-9925 8289 0
-9925 8316 0
-3250 8344 9925 0
3250 -8344 0
3250 -9925 0
9926 -8295 -8316 0
-9926 8295 0
-9926 8316 0
-3257 8349 9926 0
3257 -8349 0
3257 -9926 0
9927 -8310 -8300 0
-9927 8310 0
-9927 8300 0
-3241 8354 9927 0
3241 -8354 0
3241 -9927 0
9928 -8310 -8295 0
-9928 8310 0
-9928 8295 0
-3262 8359 9928 0
3262 -8359 0
3262 -9928 0
9929 -8310 -8310 0
-9929 8310 0
-9929 8310 0
-3268 8364 9929 0
3268 -8364 0
3268 -9929 0
9930 -7050 -7043 0
-9930 7050 0
-9930 7043 0
9931 -7043 -7043 0
-9931 7043 0
-9931 7043 0
9932 -7043 -7050 0
-9932 7043 0
-9932 7050 0
9933 -7050 -7050 -7095 0
-9933 7050 0
-9933 7050 0
-9933 7095 0
-2548 7015 9930 9931 9932 9933 0
2548 -7015 0
2548 -9930 0
2548 -9931 0
2548 -9932 0
2548 -9933 0
9934 -7050 -7038 0
-9934 7050 0
-9934 7038 0
9935 -7043 -7038 0
-9935 7043 0
-9935 7038 0
9936 -7043 -7045 0
-9936 7043 0
-9936 7045 0
9937 -7050 -7045 -7095 0
-9937 7050 0
-9937 7045 0
-9937 7095 0
-2544 7010 9934 9935 9936 9937 0
2544 -7010 0
2544 -9934 0
2544 -9935 0
2544 -9936 0
2544 -9937 0
9938 -7050 -7041 0
-9938 7050 0
-9938 7041 0
9939 -7043 -7047 0
-9939 7043 0
-9939 7047 0
9940 -7043 -7041 0
-9940 7043 0
-9940 7041 0
9941 -7050 -7047 -7095 0
-9941 7050 0
-9941 7047 0
-9941 7095 0
-2562 7009 9938 9939 9940 9941 0
2562 -7009 0
2562 -9938 0
2562 -9939 0
2562 -9940 0
2562 -9941 0
9942 -7055 -7041 0
-9942 7055 0
-9942 7041 0
9943 -7085 -7041 0
-9943 7085 0
-9943 7041 0
9944 -7085 -7047 0
-9944 7085 0
-9944 7047 0
9945 -7055 -7047 -7095 0
-9945 7055 0
-9945 7047 0
-9945 7095 0
-1866 7031 9942 9943 9944 9945 0
1866 -7031 0
1866 -9942 0
1866 -9943 0
1866 -9944 0
1866 -9945 0
9946 -7050 -7070 0
-9946 7050 0
-9946 7070 0
9947 -7043 -7070 0
-9947 7043 0
-9947 7070 0
9948 -7043 -7075 0
-9948 7043 0
-9948 7075 0
9949 -7050 -7075 -7095 0
-9949 7050 0
-9949 7075 0
-9949 7095 0
-2551 7022 9946 9947 9948 9949 0
2551 -7022 0
2551 -9946 0
2551 -9947 0
2551 -9948 0
2551 -9949 0
9950 -7050 -7090 0
-9950 7050 0
-9950 7090 0
9951 -7043 -7080 0
-9951 7043 0
-9951 7080 0
9952 -7043 -7090 0
-9952 7043 0
-9952 7090 0
9953 -7050 -7080 -7095 0
-9953 7050 0
-9953 7080 0
-9953 7095 0
-2556 7029 9950 9951 9952 9953 0
2556 -7029 0
2556 -9950 0
2556 -9951 0
2556 -9952 0
2556 -9953 0
9954 -7055 -7090 0
-9954 7055 0
-9954 7090 0
9955 -7085 -7090 0
-9955 7085 0
-9955 7090 0
9956 -7085 -7080 0
-9956 7085 0
-9956 7080 0
9957 -7055 -7080 -7095 0
-9957 7055 0
-9957 7080 0
-9957 7095 0
-1863 7036 9954 9955 9956 9957 0
1863 -7036 0
1863 -9954 0
1863 -9955 0
1863 -9956 0
1863 -9957 0
9958 -7045 -7085 0
-9958 7045 0
-9958 7085 0
9959 -7038 -7055 0
-9959 7038 0
-9959 7055 0
9960 -7038 -7085 0
-9960 7038 0
-9960 7085 0
9961 -7045 -7055 -7095 0
-9961 7045 0
-9961 7055 0
-9961 7095 0
-1856 7033 9958 9959 9960 9961 0
1856 -7033 0
1856 -9958 0
1856 -9959 0
1856 -9960 0
1856 -9961 0
9962 -7045 -7038 0
-9962 7045 0
-9962 7038 0
7092 -7038 -7038 0
-7092 7038 0
-7092 7038 0
9963 -7038 -7045 0
-9963 7038 0
-9963 7045 0
9964 -7045 -7045 -7095 0
-9964 7045 0
-9964 7045 0
-9964 7095 0
-1858 7014 9962 7092 9963 9964 0
1858 -7014 0
1858 -9962 0
1858 -7092 0
1858 -9963 0
1858 -9964 0
9965 -7045 -7070 0
-9965 7045 0
-9965 7070 0
9966 -7038 -7070 0
-9966 7038 0
-9966 7070 0
9967 -7038 -7075 0
-9967 7038 0
-9967 7075 0
9968 -7045 -7075 -7095 0
-9968 7045 0
-9968 7075 0
-9968 7095 0
-1861 7017 9965 9966 9967 9968 0
1861 -7017 0
1861 -9965 0
1861 -9966 0
1861 -9967 0
1861 -9968 0
9969 -7045 -7090 0
-9969 7045 0
-9969 7090 0
9970 -7038 -7080 0
-9970 7038 0
-9970 7080 0
9971 -7038 -7090 0
-9971 7038 0
-9971 7090 0
9972 -7045 -7080 -7095 0
-9972 7045 0
-9972 7080 0
-9972 7095 0
-1864 7024 9969 9970 9971 9972 0
1864 -7024 0
1864 -9969 0
1864 -9970 0
1864 -9971 0
1864 -9972 0
9973 -7047 -7090 0
-9973 7047 0
-9973 7090 0
9974 -7041 -7090 0
-9974 7041 0
-9974 7090 0
9975 -7041 -7080 0
-9975 7041 0
-9975 7080 0
9976 -7047 -7080 -7095 0
-9976 7047 0
-9976 7080 0
-9976 7095 0
-1867 7026 9973 9974 9975 9976 0
1867 -7026 0
1867 -9973 0
1867 -9974 0
1867 -9975 0
1867 -9976 0
9977 -7075 -7085 0
-9977 7075 0
-9977 7085 0
9978 -7070 -7055 0
-9978 7070 0
-9978 7055 0
9979 -7070 -7085 0
-9979 7070 0
-9979 7085 0
9980 -7075 -7055 -7095 0
-9980 7075 0
-9980 7055 0
-9980 7095 0
-1860 7060 9977 9978 9979 9980 0
1860 -7060 0
1860 -9977 0
1860 -9978 0
1860 -9979 0
1860 -9980 0
9981 -7075 -7041 0
-9981 7075 0
-9981 7041 0
9982 -7070 -7047 0
-9982 7070 0
-9982 7047 0
9983 -7070 -7041 0
-9983 7070 0
-9983 7041 0
9984 -7075 -7047 -7095 0
-9984 7075 0
-9984 7047 0
-9984 7095 0
-1869 7020 9981 9982 9983 9984 0
1869 -7020 0
1869 -9981 0
1869 -9982 0
1869 -9983 0
1869 -9984 0
9985 -7075 -7070 0
-9985 7075 0
-9985 7070 0
7301 -7070 -7070 0
-7301 7070 0
-7301 7070 0
9986 -7070 -7075 0
-9986 7070 0
-9986 7075 0
9987 -7075 -7075 -7095 0
-9987 7075 0
-9987 7075 0
-9987 7095 0
-1872 7065 9985 7301 9986 9987 0
1872 -7065 0
1872 -9985 0
1872 -7301 0
1872 -9986 0
1872 -9987 0
9988 -6622 -6622 0
-9988 6622 0
-9988 6622 0
-3515 6616 9988 0
3515 -6616 0
3515 -9988 0
9989 -6622 -7405 0
-9989 6622 0
-9989 7405 0
-3511 7394 9989 0
3511 -7394 0
3511 -9989 0
9990 -6622 -6621 0
-9990 6622 0
-9990 6621 0
-3535 6615 9990 0
3535 -6615 0
3535 -9990 0
9991 -6625 -6621 0
-9991 6625 0
-9991 6621 0
-3533 6624 9991 0
3533 -6624 0
3533 -9991 0
9992 -6622 -6647 0
-9992 6622 0
-9992 6647 0
-3519 6628 9992 0
3519 -6628 0
3519 -9992 0
9993 -6622 -6643 0
-9993 6622 0
-9993 6643 0
-3526 6631 9993 0
3526 -6631 0
3526 -9993 0
9994 -6625 -6643 0
-9994 6625 0
-9994 6643 0
-3528 6633 9994 0
3528 -6633 0
3528 -9994 0
9995 -7405 -6625 0
-9995 7405 0
-9995 6625 0
-3510 7411 9995 0
3510 -7411 0
3510 -9995 0
9996 -7405 -7405 0
-9996 7405 0
-9996 7405 0
-3517 7398 9996 0
3517 -7398 0
3517 -9996 0
9997 -7405 -6647 0
-9997 7405 0
-9997 6647 0
-3524 7415 9997 0
3524 -7415 0
3524 -9997 0
9998 -7405 -6643 0
-9998 7405 0
-9998 6643 0
-3531 7420 9998 0
3531 -7420 0
3531 -9998 0
9999 -6621 -6643 0
-9999 6621 0
-9999 6643 0
-3538 6630 9999 0
3538 -6630 0
3538 -9999 0
10000 -6647 -6625 0
-10000 6647 0
-10000 6625 0
-3522 6645 10000 0
3522 -6645 0
3522 -10000 0
10001 -6647 -6621 0
-10001 6647 0
-10001 6621 0
-3543 6627 10001 0
3543 -6627 0
3543 -10001 0
10002 -6647 -6647 0
-10002 6647 0
-10002 6647 0
-3549 6649 10002 0
3549 -6649 0
3549 -10002 0
10003 -7771 -7768 0
-10003 7771 0
-10003 7768 0
10004 -7768 -7768 0
-10004 7768 0
-10004 7768 0
10005 -7768 -7771 0
-10005 7768 0
-10005 7771 0
10006 -7771 -7771 -7789 0
-10006 7771 0
-10006 7771 0
-10006 7789 0
-3195 7756 10003 10004 10005 10006 0
3195 -7756 0
3195 -10003 0
3195 -10004 0
3195 -10005 0
3195 -10006 0
10007 -7771 -7892 0
-10007 7771 0
-10007 7892 0
10008 -7768 -7892 0
-10008 7768 0
-10008 7892 0
10009 -7768 -7894 0
-10009 7768 0
-10009 7894 0
10010 -7771 -7894 -7789 0
-10010 7771 0
-10010 7894 0
-10010 7789 0
-3202 7881 10007 10008 10009 10010 0
3202 -7881 0
3202 -10007 0
3202 -10008 0
3202 -10009 0
3202 -10010 0
10011 -7771 -7767 0
-10011 7771 0
-10011 7767 0
10012 -7768 -7770 0
-10012 7768 0
-10012 7770 0
10013 -7768 -7767 0
-10013 7768 0
-10013 7767 0
10014 -7771 -7770 -7789 0
-10014 7771 0
-10014 7770 0
-10014 7789 0
-3209 7755 10011 10012 10013 10014 0
3209 -7755 0
3209 -10011 0
3209 -10012 0
3209 -10013 0
3209 -10014 0
10015 -7773 -7767 0
-10015 7773 0
-10015 7767 0
10016 -7785 -7767 0
-10016 7785 0
-10016 7767 0
10017 -7785 -7770 0
-10017 7785 0
-10017 7770 0
10018 -7773 -7770 -7789 0
-10018 7773 0
-10018 7770 0
-10018 7789 0
-3216 7764 10015 10016 10017 10018 0
3216 -7764 0
3216 -10015 0
3216 -10016 0
3216 -10017 0
3216 -10018 0
10019 -7771 -7779 0
-10019 7771 0
-10019 7779 0
10020 -7768 -7779 0
-10020 7768 0
-10020 7779 0
10021 -7768 -7781 0
-10021 7768 0
-10021 7781 0
10022 -7771 -7781 -7789 0
-10022 7771 0
-10022 7781 0
-10022 7789 0
-3189 7759 10019 10020 10021 10022 0
3189 -7759 0
3189 -10019 0
3189 -10020 0
3189 -10021 0
3189 -10022 0
10023 -7771 -7787 0
-10023 7771 0
-10023 7787 0
10024 -7768 -7783 0
-10024 7768 0
-10024 7783 0
10025 -7768 -7787 0
-10025 7768 0
-10025 7787 0
10026 -7771 -7783 -7789 0
-10026 7771 0
-10026 7783 0
-10026 7789 0
-3188 7762 10023 10024 10025 10026 0
3188 -7762 0
3188 -10023 0
3188 -10024 0
3188 -10025 0
3188 -10026 0
10027 -7773 -7787 0
-10027 7773 0
-10027 7787 0
10028 -7785 -7787 0
-10028 7785 0
-10028 7787 0
10029 -7785 -7783 0
-10029 7785 0
-10029 7783 0
10030 -7773 -7783 -7789 0
-10030 7773 0
-10030 7783 0
-10030 7789 0
-3211 7765 10027 10028 10029 10030 0
3211 -7765 0
3211 -10027 0
3211 -10028 0
3211 -10029 0
3211 -10030 0
10031 -7894 -7785 0
-10031 7894 0
-10031 7785 0
10032 -7892 -7773 0
-10032 7892 0
-10032 7773 0
10033 -7892 -7785 0
-10033 7892 0
-10033 7785 0
10034 -7894 -7773 -7789 0
-10034 7894 0
-10034 7773 0
-10034 7789 0
-3221 7888 10031 10032 10033 10034 0
3221 -7888 0
3221 -10031 0
3221 -10032 0
3221 -10033 0
3221 -10034 0
10035 -7894 -7892 0
-10035 7894 0
-10035 7892 0
8112 -7892 -7892 0
-8112 7892 0
-8112 7892 0
10036 -7892 -7894 0
-10036 7892 0
-10036 7894 0
10037 -7894 -7894 -7789 0
-10037 7894 0
-10037 7894 0
-10037 7789 0
-3227 7890 10035 8112 10036 10037 0
3227 -7890 0
3227 -10035 0
3227 -8112 0
3227 -10036 0
3227 -10037 0
10038 -7894 -7779 0
-10038 7894 0
-10038 7779 0
10039 -7892 -7779 0
-10039 7892 0
-10039 7779 0
10040 -7892 -7781 0
-10040 7892 0
-10040 7781 0
10041 -7894 -7781 -7789 0
-10041 7894 0
-10041 7781 0
-10041 7789 0
-3197 8059 10038 10039 10040 10041 0
3197 -8059 0
3197 -10038 0
3197 -10039 0
3197 -10040 0
3197 -10041 0
10042 -7894 -7787 0
-10042 7894 0
-10042 7787 0
10043 -7892 -7783 0
-10043 7892 0
-10043 7783 0
10044 -7892 -7787 0
-10044 7892 0
-10044 7787 0
10045 -7894 -7783 -7789 0
-10045 7894 0
-10045 7783 0
-10045 7789 0
-3200 7880 10042 10043 10044 10045 0
3200 -7880 0
3200 -10042 0
3200 -10043 0
3200 -10044 0
3200 -10045 0
10046 -7770 -7787 0
-10046 7770 0
-10046 7787 0
10047 -7767 -7787 0
-10047 7767 0
-10047 7787 0
10048 -7767 -7783 0
-10048 7767 0
-10048 7783 0
10049 -7770 -7783 -7789 0
-10049 7770 0
-10049 7783 0
-10049 7789 0
-3206 7761 10046 10047 10048 10049 0
3206 -7761 0
3206 -10046 0
3206 -10047 0
3206 -10048 0
3206 -10049 0
10050 -7781 -7785 0
-10050 7781 0
-10050 7785 0
10051 -7779 -7773 0
-10051 7779 0
-10051 7773 0
10052 -7779 -7785 0
-10052 7779 0
-10052 7785 0
10053 -7781 -7773 -7789 0
-10053 7781 0
-10053 7773 0
-10053 7789 0
-3213 7775 10050 10051 10052 10053 0
3213 -7775 0
3213 -10050 0
3213 -10051 0
3213 -10052 0
3213 -10053 0
10054 -7781 -7767 0
-10054 7781 0
-10054 7767 0
10055 -7779 -7770 0
-10055 7779 0
-10055 7770 0
10056 -7779 -7767 0
-10056 7779 0
-10056 7767 0
10057 -7781 -7770 -7789 0
-10057 7781 0
-10057 7770 0
-10057 7789 0
-3204 7758 10054 10055 10056 10057 0
3204 -7758 0
3204 -10054 0
3204 -10055 0
3204 -10056 0
3204 -10057 0
10058 -7781 -7779 0
-10058 7781 0
-10058 7779 0
9105 -7779 -7779 0
-9105 7779 0
-9105 7779 0
10059 -7779 -7781 0
-10059 7779 0
-10059 7781 0
10060 -7781 -7781 -7789 0
-10060 7781 0
-10060 7781 0
-10060 7789 0
-3193 7777 10058 9105 10059 10060 0
3193 -7777 0
3193 -10058 0
3193 -9105 0
3193 -10059 0
3193 -10060 0
10061 -7832 -7832 0
-10061 7832 0
-10061 7832 0
-1717 7797 10061 0
1717 -7797 0
1717 -10061 0
10062 -7832 -7827 0
-10062 7832 0
-10062 7827 0
-1720 7792 10062 0
1720 -7792 0
1720 -10062 0
10063 -7832 -7829 0
-10063 7832 0
-10063 7829 0
-1723 7791 10063 0
1723 -7791 0
1723 -10063 0
10064 -7837 -7829 0
-10064 7837 0
-10064 7829 0
-1726 7813 10064 0
1726 -7813 0
1726 -10064 0
10065 -7832 -7857 0
-10065 7832 0
-10065 7857 0
-2855 7804 10065 0
2855 -7804 0
2855 -10065 0
10066 -7832 -7862 0
-10066 7832 0
-10066 7862 0
-1715 7811 10066 0
1715 -7811 0
1715 -10066 0
10067 -7837 -7862 0
-10067 7837 0
-10067 7862 0
-1725 7818 10067 0
1725 -7818 0
1725 -10067 0
10068 -7827 -7837 0
-10068 7827 0
-10068 7837 0
-1728 7815 10068 0
1728 -7815 0
1728 -10068 0
10069 -7827 -7827 0
-10069 7827 0
-10069 7827 0
-1731 7796 10069 0
1731 -7796 0
1731 -10069 0
10070 -7827 -7857 0
-10070 7827 0
-10070 7857 0
-3306 7799 10070 0
3306 -7799 0
3306 -10070 0
10071 -7827 -7862 0
-10071 7827 0
-10071 7862 0
-1719 7806 10071 0
1719 -7806 0
1719 -10071 0
10072 -7829 -7862 0
-10072 7829 0
-10072 7862 0
-1722 7808 10072 0
1722 -7808 0
1722 -10072 0
10073 -7857 -7837 0
-10073 7857 0
-10073 7837 0
-2859 7842 10073 0
2859 -7842 0
2859 -10073 0
10074 -7857 -7829 0
-10074 7857 0
-10074 7829 0
-2854 7802 10074 0
2854 -7802 0
2854 -10074 0
10075 -7857 -7857 0
-10075 7857 0
-10075 7857 0
-2862 7847 10075 0
2862 -7847 0
2862 -10075 0
10076 -8175 -8175 0
-10076 8175 0
-10076 8175 0
-4627 8181 10076 0
4627 -8181 0
4627 -10076 0
10077 -8175 -8186 0
-10077 8175 0
-10077 8186 0
-4623 8188 10077 0
4623 -8188 0
4623 -10077 0
10078 -8175 -8192 0
-10078 8175 0
-10078 8192 0
-4647 8195 10078 0
4647 -8195 0
4647 -10078 0
10079 -8197 -8192 0
-10079 8197 0
-10079 8192 0
-4645 8202 10079 0
4645 -8202 0
4645 -10079 0
10080 -8175 -8207 0
-10080 8175 0
-10080 8207 0
-4631 8209 10080 0
4631 -8209 0
4631 -10080 0
10081 -8175 -8213 0
-10081 8175 0
-10081 8213 0
-4638 8216 10081 0
4638 -8216 0
4638 -10081 0
10082 -8197 -8213 0
-10082 8197 0
-10082 8213 0
-4640 8221 10082 0
4640 -8221 0
4640 -10082 0
10083 -8186 -8197 0
-10083 8186 0
-10083 8197 0
-4622 8226 10083 0
4622 -8226 0
4622 -10083 0
10084 -8186 -8186 0
-10084 8186 0
-10084 8186 0
-4629 8231 10084 0
4629 -8231 0
4629 -10084 0
10085 -8186 -8207 0
-10085 8186 0
-10085 8207 0
-4636 8236 10085 0
4636 -8236 0
4636 -10085 0
10086 -8186 -8213 0
-10086 8186 0
-10086 8213 0
-4643 8241 10086 0
4643 -8241 0
4643 -10086 0
10087 -8192 -8213 0
-10087 8192 0
-10087 8213 0
-4650 8246 10087 0
4650 -8246 0
4650 -10087 0
10088 -8207 -8197 0
-10088 8207 0
-10088 8197 0
-4634 8251 10088 0
4634 -8251 0
4634 -10088 0
10089 -8207 -8192 0
-10089 8207 0
-10089 8192 0
-4655 8256 10089 0
4655 -8256 0
4655 -10089 0
10090 -8207 -8207 0
-10090 8207 0
-10090 8207 0
-4661 8261 10090 0
4661 -8261 0
4661 -10090 0
10091 -9620 -9620 0
-10091 9620 0
-10091 9620 0
-2308 9626 10091 0
2308 -9626 0
2308 -10091 0
10092 -9620 -9631 0
-10092 9620 0
-10092 9631 0
-2304 9633 10092 0
2304 -9633 0
2304 -10092 0
10093 -9620 -9637 0
-10093 9620 0
-10093 9637 0
-2328 9640 10093 0
2328 -9640 0
2328 -10093 0
10094 -9642 -9637 0
-10094 9642 0
-10094 9637 0
-2326 9647 10094 0
2326 -9647 0
2326 -10094 0
10095 -9620 -9652 0
-10095 9620 0
-10095 9652 0
-2312 9654 10095 0
2312 -9654 0
2312 -10095 0
10096 -9620 -9658 0
-10096 9620 0
-10096 9658 0
-2319 9661 10096 0
2319 -9661 0
2319 -10096 0
10097 -9642 -9658 0
-10097 9642 0
-10097 9658 0
-2321 9666 10097 0
2321 -9666 0
2321 -10097 0
10098 -9631 -9642 0
-10098 9631 0
-10098 9642 0
-2303 9671 10098 0
2303 -9671 0
2303 -10098 0
10099 -9631 -9631 0
-10099 9631 0
-10099 9631 0
-2310 9676 10099 0
2310 -9676 0
2310 -10099 0
10100 -9631 -9652 0
-10100 9631 0
-10100 9652 0
-2317 9681 10100 0
2317 -9681 0
2317 -10100 0
10101 -9631 -9658 0
-10101 9631 0
-10101 9658 0
-2324 9686 10101 0
2324 -9686 0
2324 -10101 0
10102 -9637 -9658 0
-10102 9637 0
-10102 9658 0
-2331 9691 10102 0
2331 -9691 0
2331 -10102 0
10103 -9652 -9642 0
-10103 9652 0
-10103 9642 0
-2315 9696 10103 0
2315 -9696 0
2315 -10103 0
10104 -9652 -9637 0
-10104 9652 0
-10104 9637 0
-2336 9701 10104 0
2336 -9701 0
2336 -10104 0
10105 -9652 -9652 0
-10105 9652 0
-10105 9652 0
-2342 9706 10105 0
2342 -9706 0
2342 -10105 0
10106 -10107 -10107 0
-10106 10107 0
-10106 10107 0
-7467 10108 10106 0
7467 -10108 0
7467 -10106 0
10109 -10107 -10110 0
-10109 10107 0
-10109 10110 0
-7462 10111 10109 0
7462 -10111 0
7462 -10109 0
10112 -10107 -10113 0
-10112 10107 0
-10112 10113 0
-7461 10114 10112 0
7461 -10114 0
7461 -10112 0
10115 -10116 -10113 0
-10115 10116 0
-10115 10113 0
-7483 10117 10115 0
7483 -10117 0
7483 -10115 0
10118 -10107 -10119 0
-10118 10107 0
-10118 10119 0
-7474 10120 10118 0
7474 -10120 0
7474 -10118 0
10121 -10107 -10122 0
-10121 10107 0
-10121 10122 0
-7481 10123 10121 0
7481 -10123 0
7481 -10121 0
10124 -10116 -10122 0
-10124 10116 0
-10124 10122 0
-7488 10125 10124 0
7488 -10125 0
7488 -10124 0
10126 -10107 -10127 0
-10126 10107 0
-10126 10127 0
-7495 10128 10126 0
7495 -10128 0
7495 -10126 0
10129 -10107 -10130 0
-10129 10107 0
-10129 10130 0
-7502 10131 10129 0
7502 -10131 0
7502 -10129 0
10132 -10116 -10130 0
-10132 10116 0
-10132 10130 0
-7507 10133 10132 0
7507 -10133 0
7507 -10132 0
10134 -10110 -10116 0
-10134 10110 0
-10134 10116 0
-7485 10135 10134 0
7485 -10135 0
7485 -10134 0
10136 -10110 -10110 0
-10136 10110 0
-10136 10110 0
-7466 10137 10136 0
7466 -10137 0
7466 -10136 0
10138 -10110 -10119 0
-10138 10110 0
-10138 10119 0
-7469 10139 10138 0
7469 -10139 0
7469 -10138 0
10140 -10110 -10122 0
-10140 10110 0
-10140 10122 0
-7476 10141 10140 0
7476 -10141 0
7476 -10140 0
10142 -10113 -10122 0
-10142 10113 0
-10142 10122 0
-7478 10143 10142 0
7478 -10143 0
7478 -10142 0
10144 -10110 -10127 0
-10144 10110 0
-10144 10127 0
-7490 10145 10144 0
7490 -10145 0
7490 -10144 0
10146 -10110 -10130 0
-10146 10110 0
-10146 10130 0
-7497 10147 10146 0
7497 -10147 0
7497 -10146 0
10148 -10113 -10130 0
-10148 10113 0
-10148 10130 0
-7499 10149 10148 0
7499 -10149 0
7499 -10148 0
10150 -10119 -10116 0
-10150 10119 0
-10150 10116 0
-7512 10151 10150 0
7512 -10151 0
7512 -10150 0
10152 -10119 -10113 0
-10152 10119 0
-10152 10113 0
-7472 10153 10152 0
7472 -10153 0
7472 -10152 0
10154 -10119 -10119 0
-10154 10119 0
-10154 10119 0
-7517 10155 10154 0
7517 -10155 0
7517 -10154 0
10156 -10119 -10127 0
-10156 10119 0
-10156 10127 0
-7522 10157 10156 0
7522 -10157 0
7522 -10156 0
10158 -10119 -10130 0
-10158 10119 0
-10158 10130 0
-7527 10159 10158 0
7527 -10159 0
7527 -10158 0
10160 -10122 -10130 0
-10160 10122 0
-10160 10130 0
-7532 10161 10160 0
7532 -10161 0
7532 -10160 0
10162 -10127 -10116 0
-10162 10127 0
-10162 10116 0
-7537 10163 10162 0
7537 -10163 0
7537 -10162 0
10164 -10127 -10113 0
-10164 10127 0
-10164 10113 0
-7493 10165 10164 0
7493 -10165 0
7493 -10164 0
10166 -10127 -10122 0
-10166 10127 0
-10166 10122 0
-7542 10167 10166 0
7542 -10167 0
7542 -10166 0
10168 -10127 -10127 0
-10168 10127 0
-10168 10127 0
-7547 10169 10168 0
7547 -10169 0
7547 -10168 0
10170 -10171 -10171 0
-10170 10171 0
-10170 10171 0
-8853 10172 10170 0
8853 -10172 0
8853 -10170 0
10173 -10171 -10174 0
-10173 10171 0
-10173 10174 0
-9849 10175 10173 0
9849 -10175 0
9849 -10173 0
10176 -10171 -10177 0
-10176 10171 0
-10176 10177 0
-8852 10178 10176 0
8852 -10178 0
8852 -10176 0
10179 -10180 -10177 0
-10179 10180 0
-10179 10177 0
-8861 10181 10179 0
8861 -10181 0
8861 -10179 0
10182 -10171 -10183 0
-10182 10171 0
-10182 10183 0
-8856 10184 10182 0
8856 -10184 0
8856 -10182 0
10185 -10171 -10186 0
-10185 10171 0
-10185 10186 0
-8859 10187 10185 0
8859 -10187 0
8859 -10185 0
10188 -10180 -10186 0
-10188 10180 0
-10188 10186 0
-8862 10189 10188 0
8862 -10189 0
8862 -10188 0
10190 -10171 -10191 0
-10190 10171 0
-10190 10191 0
-8865 10192 10190 0
8865 -10192 0
8865 -10190 0
10193 -10171 -10194 0
-10193 10171 0
-10193 10194 0
-8868 10195 10193 0
8868 -10195 0
8868 -10193 0
10196 -10180 -10194 0
-10196 10180 0
-10196 10194 0
-8870 10197 10196 0
8870 -10197 0
8870 -10196 0
10198 -10174 -10180 0
-10198 10174 0
-10198 10180 0
-9866 10199 10198 0
9866 -10199 0
9866 -10198 0
10200 -10174 -10174 0
-10200 10174 0
-10200 10174 0
-9853 10201 10200 0
9853 -10201 0
9853 -10200 0
10202 -10174 -10183 0
-10202 10174 0
-10202 10183 0
-9855 10203 10202 0
9855 -10203 0
9855 -10202 0
10204 -10174 -10186 0
-10204 10174 0
-10204 10186 0
-9860 10205 10204 0
9860 -10205 0
9860 -10204 0
10206 -10177 -10186 0
-10206 10177 0
-10206 10186 0
-8858 10207 10206 0
8858 -10207 0
8858 -10206 0
10208 -10174 -10191 0
-10208 10174 0
-10208 10191 0
-9870 10209 10208 0
9870 -10209 0
9870 -10208 0
10210 -10174 -10194 0
-10210 10174 0
-10210 10194 0
-9875 10211 10210 0
9875 -10211 0
9875 -10210 0
10212 -10177 -10194 0
-10212 10177 0
-10212 10194 0
-8867 10213 10212 0
8867 -10213 0
8867 -10212 0
10214 -10183 -10180 0
-10214 10183 0
-10214 10180 0
-8872 10215 10214 0
8872 -10215 0
8872 -10214 0
10216 -10183 -10177 0
-10216 10183 0
-10216 10177 0
-8855 10217 10216 0
8855 -10217 0
8855 -10216 0
10218 -10183 -10183 0
-10218 10183 0
-10218 10183 0
-8874 10219 10218 0
8874 -10219 0
8874 -10218 0
10220 -10183 -10191 0
-10220 10183 0
-10220 10191 0
-8876 10221 10220 0
8876 -10221 0
8876 -10220 0
10222 -10183 -10194 0
-10222 10183 0
-10222 10194 0
-8878 10223 10222 0
8878 -10223 0
8878 -10222 0
10224 -10186 -10194 0
-10224 10186 0
-10224 10194 0
-8880 10225 10224 0
8880 -10225 0
8880 -10224 0
10226 -10191 -10180 0
-10226 10191 0
-10226 10180 0
-8882 10227 10226 0
8882 -10227 0
8882 -10226 0
10228 -10191 -10177 0
-10228 10191 0
-10228 10177 0
-8864 10229 10228 0
8864 -10229 0
8864 -10228 0
10230 -10191 -10186 0
-10230 10191 0
-10230 10186 0
-8884 10231 10230 0
8884 -10231 0
8884 -10230 0
10232 -10191 -10191 0
-10232 10191 0
-10232 10191 0
-8886 10233 10232 0
8886 -10233 0
8886 -10232 0
10234 -10131 -10128 0
-10234 10131 0
-10234 10128 0
10235 -10128 -10128 0
-10235 10128 0
-10235 10128 0
10236 -10128 -10131 0
-10236 10128 0
-10236 10131 0
10237 -10131 -10131 -10169 0
-10237 10131 0
-10237 10131 0
-10237 10169 0
-6456 10108 10234 10235 10236 10237 0
6456 -10108 0
6456 -10234 0
6456 -10235 0
6456 -10236 0
6456 -10237 0
10238 -10131 -10145 0
-10238 10131 0
-10238 10145 0
10239 -10128 -10145 0
-10239 10128 0
-10239 10145 0
10240 -10128 -10147 0
-10240 10128 0
-10240 10147 0
10241 -10131 -10147 -10169 0
-10241 10131 0
-10241 10147 0
-10241 10169 0
-6459 10111 10238 10239 10240 10241 0
6459 -10111 0
6459 -10238 0
6459 -10239 0
6459 -10240 0
6459 -10241 0
10242 -10131 -10165 0
-10242 10131 0
-10242 10165 0
10243 -10128 -10149 0
-10243 10128 0
-10243 10149 0
10244 -10128 -10165 0
-10244 10128 0
-10244 10165 0
10245 -10131 -10149 -10169 0
-10245 10131 0
-10245 10149 0
-10245 10169 0
-6462 10114 10242 10243 10244 10245 0
6462 -10114 0
6462 -10242 0
6462 -10243 0
6462 -10244 0
6462 -10245 0
10246 -10133 -10165 0
-10246 10133 0
-10246 10165 0
10247 -10163 -10165 0
-10247 10163 0
-10247 10165 0
10248 -10163 -10149 0
-10248 10163 0
-10248 10149 0
10249 -10133 -10149 -10169 0
-10249 10133 0
-10249 10149 0
-10249 10169 0
-6465 10117 10246 10247 10248 10249 0
6465 -10117 0
6465 -10246 0
6465 -10247 0
6465 -10248 0
6465 -10249 0
10250 -10131 -10251 0
-10250 10131 0
-10250 10251 0
10252 -10128 -10251 0
-10252 10128 0
-10252 10251 0
10253 -10128 -10254 0
-10253 10128 0
-10253 10254 0
10255 -10131 -10254 -10169 0
-10255 10131 0
-10255 10254 0
-10255 10169 0
-7554 10256 10250 10252 10253 10255 0
7554 -10256 0
7554 -10250 0
7554 -10252 0
7554 -10253 0
7554 -10255 0
10257 -10131 -10127 0
-10257 10131 0
-10257 10127 0
10258 -10128 -10130 0
-10258 10128 0
-10258 10130 0
10259 -10128 -10127 0
-10259 10128 0
-10259 10127 0
10260 -10131 -10130 -10169 0
-10260 10131 0
-10260 10130 0
-10260 10169 0
-6455 10107 10257 10258 10259 10260 0
6455 -10107 0
6455 -10257 0
6455 -10258 0
6455 -10259 0
6455 -10260 0
10261 -10133 -10127 0
-10261 10133 0
-10261 10127 0
10262 -10163 -10127 0
-10262 10163 0
-10262 10127 0
10263 -10163 -10130 0
-10263 10163 0
-10263 10130 0
10264 -10133 -10130 -10169 0
-10264 10133 0
-10264 10130 0
-10264 10169 0
-6464 10116 10261 10262 10263 10264 0
6464 -10116 0
6464 -10261 0
6464 -10262 0
6464 -10263 0
6464 -10264 0
10265 -10131 -10157 0
-10265 10131 0
-10265 10157 0
10266 -10128 -10157 0
-10266 10128 0
-10266 10157 0
10267 -10128 -10159 0
-10267 10128 0
-10267 10159 0
10268 -10131 -10159 -10169 0
-10268 10131 0
-10268 10159 0
-10268 10169 0
-6468 10120 10265 10266 10267 10268 0
6468 -10120 0
6468 -10265 0
6468 -10266 0
6468 -10267 0
6468 -10268 0
10269 -10131 -10167 0
-10269 10131 0
-10269 10167 0
10270 -10128 -10161 0
-10270 10128 0
-10270 10161 0
10271 -10128 -10167 0
-10271 10128 0
-10271 10167 0
10272 -10131 -10161 -10169 0
-10272 10131 0
-10272 10161 0
-10272 10169 0
-6471 10123 10269 10270 10271 10272 0
6471 -10123 0
6471 -10269 0
6471 -10270 0
6471 -10271 0
6471 -10272 0
10273 -10133 -10167 0
-10273 10133 0
-10273 10167 0
10274 -10163 -10167 0
-10274 10163 0
-10274 10167 0
10275 -10163 -10161 0
-10275 10163 0
-10275 10161 0
10276 -10133 -10161 -10169 0
-10276 10133 0
-10276 10161 0
-10276 10169 0
-6473 10125 10273 10274 10275 10276 0
6473 -10125 0
6473 -10273 0
6473 -10274 0
6473 -10275 0
6473 -10276 0
10277 -10147 -10163 0
-10277 10147 0
-10277 10163 0
10278 -10145 -10133 0
-10278 10145 0
-10278 10133 0
10279 -10145 -10163 0
-10279 10145 0
-10279 10163 0
10280 -10147 -10133 -10169 0
-10280 10147 0
-10280 10133 0
-10280 10169 0
-6475 10135 10277 10278 10279 10280 0
6475 -10135 0
6475 -10277 0
6475 -10278 0
6475 -10279 0
6475 -10280 0
10281 -10147 -10145 0
-10281 10147 0
-10281 10145 0
10282 -10145 -10145 0
-10282 10145 0
-10282 10145 0
10283 -10145 -10147 0
-10283 10145 0
-10283 10147 0
10284 -10147 -10147 -10169 0
-10284 10147 0
-10284 10147 0
-10284 10169 0
-6477 10137 10281 10282 10283 10284 0
6477 -10137 0
6477 -10281 0
6477 -10282 0
6477 -10283 0
6477 -10284 0
10285 -10147 -10251 0
-10285 10147 0
-10285 10251 0
10286 -10145 -10251 0
-10286 10145 0
-10286 10251 0
10287 -10145 -10254 0
-10287 10145 0
-10287 10254 0
10288 -10147 -10254 -10169 0
-10288 10147 0
-10288 10254 0
-10288 10169 0
-7560 10289 10285 10286 10287 10288 0
7560 -10289 0
7560 -10285 0
7560 -10286 0
7560 -10287 0
7560 -10288 0
10290 -10147 -10127 0
-10290 10147 0
-10290 10127 0
10291 -10145 -10130 0
-10291 10145 0
-10291 10130 0
10292 -10145 -10127 0
-10292 10145 0
-10292 10127 0
10293 -10147 -10130 -10169 0
-10293 10147 0
-10293 10130 0
-10293 10169 0
-6458 10110 10290 10291 10292 10293 0
6458 -10110 0
6458 -10290 0
6458 -10291 0
6458 -10292 0
6458 -10293 0
10294 -10149 -10127 0
-10294 10149 0
-10294 10127 0
10295 -10165 -10127 0
-10295 10165 0
-10295 10127 0
10296 -10165 -10130 0
-10296 10165 0
-10296 10130 0
10297 -10149 -10130 -10169 0
-10297 10149 0
-10297 10130 0
-10297 10169 0
-6461 10113 10294 10295 10296 10297 0
6461 -10113 0
6461 -10294 0
6461 -10295 0
6461 -10296 0
6461 -10297 0
10298 -10147 -10157 0
-10298 10147 0
-10298 10157 0
10299 -10145 -10157 0
-10299 10145 0
-10299 10157 0
10300 -10145 -10159 0
-10300 10145 0
-10300 10159 0
10301 -10147 -10159 -10169 0
-10301 10147 0
-10301 10159 0
-10301 10169 0
-6479 10139 10298 10299 10300 10301 0
6479 -10139 0
6479 -10298 0
6479 -10299 0
6479 -10300 0
6479 -10301 0
10302 -10147 -10167 0
-10302 10147 0
-10302 10167 0
10303 -10145 -10161 0
-10303 10145 0
-10303 10161 0
10304 -10145 -10167 0
-10304 10145 0
-10304 10167 0
10305 -10147 -10161 -10169 0
-10305 10147 0
-10305 10161 0
-10305 10169 0
-6481 10141 10302 10303 10304 10305 0
6481 -10141 0
6481 -10302 0
6481 -10303 0
6481 -10304 0
6481 -10305 0
10306 -10149 -10167 0
-10306 10149 0
-10306 10167 0
10307 -10165 -10167 0
-10307 10165 0
-10307 10167 0
10308 -10165 -10161 0
-10308 10165 0
-10308 10161 0
10309 -10149 -10161 -10169 0
-10309 10149 0
-10309 10161 0
-10309 10169 0
-6483 10143 10306 10307 10308 10309 0
6483 -10143 0
6483 -10306 0
6483 -10307 0
6483 -10308 0
6483 -10309 0
10310 -10254 -10163 0
-10310 10254 0
-10310 10163 0
10311 -10251 -10133 0
-10311 10251 0
-10311 10133 0
10312 -10251 -10163 0
-10312 10251 0
-10312 10163 0
10313 -10254 -10133 -10169 0
-10313 10254 0
-10313 10133 0
-10313 10169 0
-7564 10314 10310 10311 10312 10313 0
7564 -10314 0
7564 -10310 0
7564 -10311 0
7564 -10312 0
7564 -10313 0
10315 -10254 -10165 0
-10315 10254 0
-10315 10165 0
10316 -10251 -10149 0
-10316 10251 0
-10316 10149 0
10317 -10251 -10165 0
-10317 10251 0
-10317 10165 0
10318 -10254 -10149 -10169 0
-10318 10254 0
-10318 10149 0
-10318 10169 0
-7566 10319 10315 10316 10317 10318 0
7566 -10319 0
7566 -10315 0
7566 -10316 0
7566 -10317 0
7566 -10318 0
10320 -10254 -10251 0
-10320 10254 0
-10320 10251 0
10321 -10251 -10251 0
-10321 10251 0
-10321 10251 0
10322 -10251 -10254 0
-10322 10251 0
-10322 10254 0
10323 -10254 -10254 -10169 0
-10323 10254 0
-10323 10254 0
-10323 10169 0
-7568 10324 10320 10321 10322 10323 0
7568 -10324 0
7568 -10320 0
7568 -10321 0
7568 -10322 0
7568 -10323 0
10325 -10254 -10157 0
-10325 10254 0
-10325 10157 0
10326 -10251 -10157 0
-10326 10251 0
-10326 10157 0
10327 -10251 -10159 0
-10327 10251 0
-10327 10159 0
10328 -10254 -10159 -10169 0
-10328 10254 0
-10328 10159 0
-10328 10169 0
-7622 10329 10325 10326 10327 10328 0
7622 -10329 0
7622 -10325 0
7622 -10326 0
7622 -10327 0
7622 -10328 0
10330 -10254 -10167 0
-10330 10254 0
-10330 10167 0
10331 -10251 -10161 0
-10331 10251 0
-10331 10161 0
10332 -10251 -10167 0
-10332 10251 0
-10332 10167 0
10333 -10254 -10161 -10169 0
-10333 10254 0
-10333 10161 0
-10333 10169 0
-7553 10334 10330 10331 10332 10333 0
7553 -10334 0
7553 -10330 0
7553 -10331 0
7553 -10332 0
7553 -10333 0
10335 -10130 -10167 0
-10335 10130 0
-10335 10167 0
10336 -10127 -10167 0
-10336 10127 0
-10336 10167 0
10337 -10127 -10161 0
-10337 10127 0
-10337 10161 0
10338 -10130 -10161 -10169 0
-10338 10130 0
-10338 10161 0
-10338 10169 0
-6470 10122 10335 10336 10337 10338 0
6470 -10122 0
6470 -10335 0
6470 -10336 0
6470 -10337 0
6470 -10338 0
10339 -10159 -10163 0
-10339 10159 0
-10339 10163 0
10340 -10157 -10133 0
-10340 10157 0
-10340 10133 0
10341 -10157 -10163 0
-10341 10157 0
-10341 10163 0
10342 -10159 -10133 -10169 0
-10342 10159 0
-10342 10133 0
-10342 10169 0
-6485 10151 10339 10340 10341 10342 0
6485 -10151 0
6485 -10339 0
6485 -10340 0
6485 -10341 0
6485 -10342 0
10343 -10159 -10165 0
-10343 10159 0
-10343 10165 0
10344 -10157 -10149 0
-10344 10157 0
-10344 10149 0
10345 -10157 -10165 0
-10345 10157 0
-10345 10165 0
10346 -10159 -10149 -10169 0
-10346 10159 0
-10346 10149 0
-10346 10169 0
-6487 10153 10343 10344 10345 10346 0
6487 -10153 0
6487 -10343 0
6487 -10344 0
6487 -10345 0
6487 -10346 0
10347 -10159 -10127 0
-10347 10159 0
-10347 10127 0
10348 -10157 -10130 0
-10348 10157 0
-10348 10130 0
10349 -10157 -10127 0
-10349 10157 0
-10349 10127 0
10350 -10159 -10130 -10169 0
-10350 10159 0
-10350 10130 0
-10350 10169 0
-6467 10119 10347 10348 10349 10350 0
6467 -10119 0
6467 -10347 0
6467 -10348 0
6467 -10349 0
6467 -10350 0
10351 -10159 -10157 0
-10351 10159 0
-10351 10157 0
10352 -10157 -10157 0
-10352 10157 0
-10352 10157 0
10353 -10157 -10159 0
-10353 10157 0
-10353 10159 0
10354 -10159 -10159 -10169 0
-10354 10159 0
-10354 10159 0
-10354 10169 0
-6489 10155 10351 10352 10353 10354 0
6489 -10155 0
6489 -10351 0
6489 -10352 0
6489 -10353 0
6489 -10354 0
10355 -10356 -10356 0
-10355 10356 0
-10355 10356 0
-8284 10357 10355 0
8284 -10357 0
8284 -10355 0
10358 -10356 -10359 0
-10358 10356 0
-10358 10359 0
-8279 10360 10358 0
8279 -10360 0
8279 -10358 0
10361 -10356 -10362 0
-10361 10356 0
-10361 10362 0
-8278 10363 10361 0
8278 -10363 0
8278 -10361 0
10364 -10365 -10362 0
-10364 10365 0
-10364 10362 0
-8300 10366 10364 0
8300 -10366 0
8300 -10364 0
10367 -10356 -10368 0
-10367 10356 0
-10367 10368 0
-8291 10369 10367 0
8291 -10369 0
8291 -10367 0
10370 -10356 -10371 0
-10370 10356 0
-10370 10371 0
-8298 10372 10370 0
8298 -10372 0
8298 -10370 0
10373 -10365 -10371 0
-10373 10365 0
-10373 10371 0
-8305 10374 10373 0
8305 -10374 0
8305 -10373 0
10375 -10356 -10376 0
-10375 10356 0
-10375 10376 0
-8312 10377 10375 0
8312 -10377 0
8312 -10375 0
10378 -10356 -10379 0
-10378 10356 0
-10378 10379 0
-8319 10380 10378 0
8319 -10380 0
8319 -10378 0
10381 -10365 -10379 0
-10381 10365 0
-10381 10379 0
-8324 10382 10381 0
8324 -10382 0
8324 -10381 0
10383 -10359 -10365 0
-10383 10359 0
-10383 10365 0
-8302 10384 10383 0
8302 -10384 0
8302 -10383 0
10385 -10359 -10359 0
-10385 10359 0
-10385 10359 0
-8283 10386 10385 0
8283 -10386 0
8283 -10385 0
10387 -10359 -10368 0
-10387 10359 0
-10387 10368 0
-8286 10388 10387 0
8286 -10388 0
8286 -10387 0
10389 -10359 -10371 0
-10389 10359 0
-10389 10371 0
-8293 10390 10389 0
8293 -10390 0
8293 -10389 0
10391 -10362 -10371 0
-10391 10362 0
-10391 10371 0
-8295 10392 10391 0
8295 -10392 0
8295 -10391 0
10393 -10359 -10376 0
-10393 10359 0
-10393 10376 0
-8307 10394 10393 0
8307 -10394 0
8307 -10393 0
10395 -10359 -10379 0
-10395 10359 0
-10395 10379 0
-8314 10396 10395 0
8314 -10396 0
8314 -10395 0
10397 -10362 -10379 0
-10397 10362 0
-10397 10379 0
-8316 10398 10397 0
8316 -10398 0
8316 -10397 0
10399 -10368 -10365 0
-10399 10368 0
-10399 10365 0
-8329 10400 10399 0
8329 -10400 0
8329 -10399 0
10401 -10368 -10362 0
-10401 10368 0
-10401 10362 0
-8289 10402 10401 0
8289 -10402 0
8289 -10401 0
10403 -10368 -10368 0
-10403 10368 0
-10403 10368 0
-8334 10404 10403 0
8334 -10404 0
8334 -10403 0
10405 -10368 -10376 0
-10405 10368 0
-10405 10376 0
-8339 10406 10405 0
8339 -10406 0
8339 -10405 0
10407 -10368 -10379 0
-10407 10368 0
-10407 10379 0
-8344 10408 10407 0
8344 -10408 0
8344 -10407 0
10409 -10371 -10379 0
-10409 10371 0
-10409 10379 0
-8349 10410 10409 0
8349 -10410 0
8349 -10409 0
10411 -10376 -10365 0
-10411 10376 0
-10411 10365 0
-8354 10412 10411 0
8354 -10412 0
8354 -10411 0
10413 -10376 -10362 0
-10413 10376 0
-10413 10362 0
-8310 10414 10413 0
8310 -10414 0
8310 -10413 0
10415 -10376 -10371 0
-10415 10376 0
-10415 10371 0
-8359 10416 10415 0
8359 -10416 0
8359 -10415 0
10417 -10376 -10376 0
-10417 10376 0
-10417 10376 0
-8364 10418 10417 0
8364 -10418 0
8364 -10417 0
10419 -10372 -10372 0
-10419 10372 0
-10419 10372 0
-6616 10357 10419 0
6616 -10357 0
6616 -10419 0
10420 -10372 -10390 0
-10420 10372 0
-10420 10390 0
-6619 10360 10420 0
6619 -10360 0
6619 -10420 0
10421 -10372 -10392 0
-10421 10372 0
-10421 10392 0
-6622 10363 10421 0
6622 -10363 0
6622 -10421 0
10422 -10374 -10392 0
-10422 10374 0
-10422 10392 0
-6625 10366 10422 0
6625 -10366 0
6625 -10422 0
10423 -10372 -10424 0
-10423 10372 0
-10423 10424 0
-7394 10425 10423 0
7394 -10425 0
7394 -10423 0
10426 -10372 -10371 0
-10426 10372 0
-10426 10371 0
-6615 10356 10426 0
6615 -10356 0
6615 -10426 0
10427 -10374 -10371 0
-10427 10374 0
-10427 10371 0
-6624 10365 10427 0
6624 -10365 0
6624 -10427 0
10428 -10372 -10416 0
-10428 10372 0
-10428 10416 0
-6628 10377 10428 0
6628 -10377 0
6628 -10428 0
10429 -10372 -10410 0
-10429 10372 0
-10429 10410 0
-6631 10380 10429 0
6631 -10380 0
6631 -10429 0
10430 -10374 -10410 0
-10430 10374 0
-10430 10410 0
-6633 10382 10430 0
6633 -10382 0
6633 -10430 0
10431 -10390 -10374 0
-10431 10390 0
-10431 10374 0
-6635 10384 10431 0
6635 -10384 0
6635 -10431 0
10432 -10390 -10390 0
-10432 10390 0
-10432 10390 0
-6637 10386 10432 0
6637 -10386 0
6637 -10432 0
10433 -10390 -10424 0
-10433 10390 0
-10433 10424 0
-7400 10434 10433 0
7400 -10434 0
7400 -10433 0
10435 -10390 -10371 0
-10435 10390 0
-10435 10371 0
-6618 10359 10435 0
6618 -10359 0
6618 -10435 0
10436 -10392 -10371 0
-10436 10392 0
-10436 10371 0
-6621 10362 10436 0
6621 -10362 0
6621 -10436 0
10437 -10390 -10416 0
-10437 10390 0
-10437 10416 0
-6639 10394 10437 0
6639 -10394 0
6639 -10437 0
10438 -10390 -10410 0
-10438 10390 0
-10438 10410 0
-6641 10396 10438 0
6641 -10396 0
6641 -10438 0
10439 -10392 -10410 0
-10439 10392 0
-10439 10410 0
-6643 10398 10439 0
6643 -10398 0
6643 -10439 0
10440 -10424 -10374 0
-10440 10424 0
-10440 10374 0
-7411 10441 10440 0
7411 -10441 0
7411 -10440 0
10442 -10424 -10392 0
-10442 10424 0
-10442 10392 0
-7405 10443 10442 0
7405 -10443 0
7405 -10442 0
10444 -10424 -10424 0
-10444 10424 0
-10444 10424 0
-7398 10445 10444 0
7398 -10445 0
7398 -10444 0
10446 -10424 -10416 0
-10446 10424 0
-10446 10416 0
-7415 10447 10446 0
7415 -10447 0
7415 -10446 0
10448 -10424 -10410 0
-10448 10424 0
-10448 10410 0
-7420 10449 10448 0
7420 -10449 0
7420 -10448 0
10450 -10371 -10410 0
-10450 10371 0
-10450 10410 0
-6630 10379 10450 0
6630 -10379 0
6630 -10450 0
10451 -10416 -10374 0
-10451 10416 0
-10451 10374 0
-6645 10412 10451 0
6645 -10412 0
6645 -10451 0
10452 -10416 -10392 0
-10452 10416 0
-10452 10392 0
-6647 10414 10452 0
6647 -10414 0
6647 -10452 0
10453 -10416 -10371 0
-10453 10416 0
-10453 10371 0
-6627 10376 10453 0
6627 -10376 0
6627 -10453 0
10454 -10416 -10416 0
-10454 10416 0
-10454 10416 0
-6649 10418 10454 0
6649 -10418 0
6649 -10454 0
10455 -10456 -10456 0
-10455 10456 0
-10455 10456 0
-6760 10457 10455 0
6760 -10457 0
6760 -10455 0
10458 -10456 -10459 0
-10458 10456 0
-10458 10459 0
-6767 10460 10458 0
6767 -10460 0
6767 -10458 0
10461 -10456 -10462 0
-10461 10456 0
-10461 10462 0
-6774 10463 10461 0
6774 -10463 0
6774 -10461 0
10464 -10465 -10462 0
-10464 10465 0
-10464 10462 0
-6781 10466 10464 0
6781 -10466 0
6781 -10464 0
10467 -10456 -10468 0
-10467 10456 0
-10467 10468 0
-6755 10469 10467 0
6755 -10469 0
6755 -10467 0
10470 -10456 -10471 0
-10470 10456 0
-10470 10471 0
-6754 10472 10470 0
6754 -10472 0
6754 -10470 0
10473 -10465 -10471 0
-10473 10465 0
-10473 10471 0
-6776 10474 10473 0
6776 -10474 0
6776 -10473 0
10475 -10456 -10476 0
-10475 10456 0
-10475 10476 0
-6788 10477 10475 0
6788 -10477 0
6788 -10475 0
10478 -10456 -10479 0
-10478 10456 0
-10478 10479 0
-6795 10480 10478 0
6795 -10480 0
6795 -10478 0
10481 -10465 -10479 0
-10481 10465 0
-10481 10479 0
-6800 10482 10481 0
6800 -10482 0
6800 -10481 0
10483 -10459 -10465 0
-10483 10459 0
-10483 10465 0
-6805 10484 10483 0
6805 -10484 0
6805 -10483 0
10485 -10459 -10459 0
-10485 10459 0
-10485 10459 0
-6810 10486 10485 0
6810 -10486 0
6810 -10485 0
10487 -10459 -10468 0
-10487 10459 0
-10487 10468 0
-6762 10488 10487 0
6762 -10488 0
6762 -10487 0
10489 -10459 -10471 0
-10489 10459 0
-10489 10471 0
-6765 10490 10489 0
6765 -10490 0
6765 -10489 0
10491 -10462 -10471 0
-10491 10462 0
-10491 10471 0
-6771 10492 10491 0
6771 -10492 0
6771 -10491 0
10493 -10459 -10476 0
-10493 10459 0
-10493 10476 0
-6815 10494 10493 0
6815 -10494 0
6815 -10493 0
10495 -10459 -10479 0
-10495 10459 0
-10495 10479 0
-6820 10496 10495 0
6820 -10496 0
6820 -10495 0
10497 -10462 -10479 0
-10497 10462 0
-10497 10479 0
-6825 10498 10497 0
6825 -10498 0
6825 -10497 0
10499 -10468 -10465 0
-10499 10468 0
-10499 10465 0
-6778 10500 10499 0
6778 -10500 0
6778 -10499 0
10501 -10468 -10462 0
-10501 10468 0
-10501 10462 0
-6769 10502 10501 0
6769 -10502 0
6769 -10501 0
10503 -10468 -10468 0
-10503 10468 0
-10503 10468 0
-6759 10504 10503 0
6759 -10504 0
6759 -10503 0
10505 -10468 -10476 0
-10505 10468 0
-10505 10476 0
-6783 10506 10505 0
6783 -10506 0
6783 -10505 0
10507 -10468 -10479 0
-10507 10468 0
-10507 10479 0
-6790 10508 10507 0
6790 -10508 0
6790 -10507 0
10509 -10471 -10479 0
-10509 10471 0
-10509 10479 0
-6792 10510 10509 0
6792 -10510 0
6792 -10509 0
10511 -10476 -10465 0
-10511 10476 0
-10511 10465 0
-6830 10512 10511 0
6830 -10512 0
6830 -10511 0
10513 -10476 -10462 0
-10513 10476 0
-10513 10462 0
-6835 10514 10513 0
6835 -10514 0
6835 -10513 0
10515 -10476 -10471 0
-10515 10476 0
-10515 10471 0
-6786 10516 10515 0
6786 -10516 0
6786 -10515 0
10517 -10476 -10476 0
-10517 10476 0
-10517 10476 0
-6840 10518 10517 0
6840 -10518 0
6840 -10517 0
10519 -10107 -10256 0
-10519 10107 0
-10519 10256 0
10520 -10256 -10256 0
-10520 10256 0
-10520 10256 0
10521 -10256 -10107 0
-10521 10256 0
-10521 10107 0
10522 -10107 -10107 -10324 0
-10522 10107 0
-10522 10107 0
-10522 10324 0
-6843 10108 10519 10520 10521 10522 0
6843 -10108 0
6843 -10519 0
6843 -10520 0
6843 -10521 0
6843 -10522 0
10523 -10107 -10289 0
-10523 10107 0
-10523 10289 0
10524 -10256 -10289 0
-10524 10256 0
-10524 10289 0
10525 -10256 -10110 0
-10525 10256 0
-10525 10110 0
10526 -10107 -10110 -10324 0
-10526 10107 0
-10526 10110 0
-10526 10324 0
-9708 10111 10523 10524 10525 10526 0
9708 -10111 0
9708 -10523 0
9708 -10524 0
9708 -10525 0
9708 -10526 0
10527 -10107 -10319 0
-10527 10107 0
-10527 10319 0
10528 -10256 -10113 0
-10528 10256 0
-10528 10113 0
10529 -10256 -10319 0
-10529 10256 0
-10529 10319 0
10530 -10107 -10113 -10324 0
-10530 10107 0
-10530 10113 0
-10530 10324 0
-6842 10114 10527 10528 10529 10530 0
6842 -10114 0
6842 -10527 0
6842 -10528 0
6842 -10529 0
6842 -10530 0
10531 -10116 -10319 0
-10531 10116 0
-10531 10319 0
10532 -10314 -10319 0
-10532 10314 0
-10532 10319 0
10533 -10314 -10113 0
-10533 10314 0
-10533 10113 0
10534 -10116 -10113 -10324 0
-10534 10116 0
-10534 10113 0
-10534 10324 0
-6851 10117 10531 10532 10533 10534 0
6851 -10117 0
6851 -10531 0
6851 -10532 0
6851 -10533 0
6851 -10534 0
10535 -10107 -10329 0
-10535 10107 0
-10535 10329 0
10536 -10256 -10329 0
-10536 10256 0
-10536 10329 0
10537 -10256 -10119 0
-10537 10256 0
-10537 10119 0
10538 -10107 -10119 -10324 0
-10538 10107 0
-10538 10119 0
-10538 10324 0
-6846 10120 10535 10536 10537 10538 0
6846 -10120 0
6846 -10535 0
6846 -10536 0
6846 -10537 0
6846 -10538 0
10539 -10107 -10334 0
-10539 10107 0
-10539 10334 0
10540 -10256 -10122 0
-10540 10256 0
-10540 10122 0
10541 -10256 -10334 0
-10541 10256 0
-10541 10334 0
10542 -10107 -10122 -10324 0
-10542 10107 0
-10542 10122 0
-10542 10324 0
-6849 10123 10539 10540 10541 10542 0
6849 -10123 0
6849 -10539 0
6849 -10540 0
6849 -10541 0
6849 -10542 0
10543 -10116 -10334 0
-10543 10116 0
-10543 10334 0
10544 -10314 -10334 0
-10544 10314 0
-10544 10334 0
10545 -10314 -10122 0
-10545 10314 0
-10545 10122 0
10546 -10116 -10122 -10324 0
-10546 10116 0
-10546 10122 0
-10546 10324 0
-6852 10125 10543 10544 10545 10546 0
6852 -10125 0
6852 -10543 0
6852 -10544 0
6852 -10545 0
6852 -10546 0
10547 -10107 -10251 0
-10547 10107 0
-10547 10251 0
10548 -10256 -10251 0
-10548 10256 0
-10548 10251 0
10549 -10256 -10127 0
-10549 10256 0
-10549 10127 0
10550 -10107 -10127 -10324 0
-10550 10107 0
-10550 10127 0
-10550 10324 0
-6855 10128 10547 10548 10549 10550 0
6855 -10128 0
6855 -10547 0
6855 -10548 0
6855 -10549 0
6855 -10550 0
10551 -10107 -10254 0
-10551 10107 0
-10551 10254 0
10552 -10256 -10130 0
-10552 10256 0
-10552 10130 0
10553 -10256 -10254 0
-10553 10256 0
-10553 10254 0
10554 -10107 -10130 -10324 0
-10554 10107 0
-10554 10130 0
-10554 10324 0
-6858 10131 10551 10552 10553 10554 0
6858 -10131 0
6858 -10551 0
6858 -10552 0
6858 -10553 0
6858 -10554 0
10555 -10116 -10254 0
-10555 10116 0
-10555 10254 0
10556 -10314 -10254 0
-10556 10314 0
-10556 10254 0
10557 -10314 -10130 0
-10557 10314 0
-10557 10130 0
10558 -10116 -10130 -10324 0
-10558 10116 0
-10558 10130 0
-10558 10324 0
-6860 10133 10555 10556 10557 10558 0
6860 -10133 0
6860 -10555 0
6860 -10556 0
6860 -10557 0
6860 -10558 0
10559 -10110 -10314 0
-10559 10110 0
-10559 10314 0
10560 -10289 -10116 0
-10560 10289 0
-10560 10116 0
10561 -10289 -10314 0
-10561 10289 0
-10561 10314 0
10562 -10110 -10116 -10324 0
-10562 10110 0
-10562 10116 0
-10562 10324 0
-9725 10135 10559 10560 10561 10562 0
9725 -10135 0
9725 -10559 0
9725 -10560 0
9725 -10561 0
9725 -10562 0
10563 -10110 -10289 0
-10563 10110 0
-10563 10289 0
10564 -10289 -10289 0
-10564 10289 0
-10564 10289 0
10565 -10289 -10110 0
-10565 10289 0
-10565 10110 0
10566 -10110 -10110 -10324 0
-10566 10110 0
-10566 10110 0
-10566 10324 0
-9712 10137 10563 10564 10565 10566 0
9712 -10137 0
9712 -10563 0
9712 -10564 0
9712 -10565 0
9712 -10566 0
10567 -10110 -10329 0
-10567 10110 0
-10567 10329 0
10568 -10289 -10329 0
-10568 10289 0
-10568 10329 0
10569 -10289 -10119 0
-10569 10289 0
-10569 10119 0
10570 -10110 -10119 -10324 0
-10570 10110 0
-10570 10119 0
-10570 10324 0
-9714 10139 10567 10568 10569 10570 0
9714 -10139 0
9714 -10567 0
9714 -10568 0
9714 -10569 0
9714 -10570 0
10571 -10110 -10334 0
-10571 10110 0
-10571 10334 0
10572 -10289 -10122 0
-10572 10289 0
-10572 10122 0
10573 -10289 -10334 0
-10573 10289 0
-10573 10334 0
10574 -10110 -10122 -10324 0
-10574 10110 0
-10574 10122 0
-10574 10324 0
-9719 10141 10571 10572 10573 10574 0
9719 -10141 0
9719 -10571 0
9719 -10572 0
9719 -10573 0
9719 -10574 0
10575 -10113 -10334 0
-10575 10113 0
-10575 10334 0
10576 -10319 -10334 0
-10576 10319 0
-10576 10334 0
10577 -10319 -10122 0
-10577 10319 0
-10577 10122 0
10578 -10113 -10122 -10324 0
-10578 10113 0
-10578 10122 0
-10578 10324 0
-6848 10143 10575 10576 10577 10578 0
6848 -10143 0
6848 -10575 0
6848 -10576 0
6848 -10577 0
6848 -10578 0
10579 -10110 -10251 0
-10579 10110 0
-10579 10251 0
10580 -10289 -10251 0
-10580 10289 0
-10580 10251 0
10581 -10289 -10127 0
-10581 10289 0
-10581 10127 0
10582 -10110 -10127 -10324 0
-10582 10110 0
-10582 10127 0
-10582 10324 0
-9729 10145 10579 10580 10581 10582 0
9729 -10145 0
9729 -10579 0
9729 -10580 0
9729 -10581 0
9729 -10582 0
10583 -10110 -10254 0
-10583 10110 0
-10583 10254 0
10584 -10289 -10130 0
-10584 10289 0
-10584 10130 0
10585 -10289 -10254 0
-10585 10289 0
-10585 10254 0
10586 -10110 -10130 -10324 0
-10586 10110 0
-10586 10130 0
-10586 10324 0
-9734 10147 10583 10584 10585 10586 0
9734 -10147 0
9734 -10583 0
9734 -10584 0
9734 -10585 0
9734 -10586 0
10587 -10113 -10254 0
-10587 10113 0
-10587 10254 0
10588 -10319 -10254 0
-10588 10319 0
-10588 10254 0
10589 -10319 -10130 0
-10589 10319 0
-10589 10130 0
10590 -10113 -10130 -10324 0
-10590 10113 0
-10590 10130 0
-10590 10324 0
-6857 10149 10587 10588 10589 10590 0
6857 -10149 0
6857 -10587 0
6857 -10588 0
6857 -10589 0
6857 -10590 0
10591 -10119 -10314 0
-10591 10119 0
-10591 10314 0
10592 -10329 -10116 0
-10592 10329 0
-10592 10116 0
10593 -10329 -10314 0
-10593 10329 0
-10593 10314 0
10594 -10119 -10116 -10324 0
-10594 10119 0
-10594 10116 0
-10594 10324 0
-6862 10151 10591 10592 10593 10594 0
6862 -10151 0
6862 -10591 0
6862 -10592 0
6862 -10593 0
6862 -10594 0
10595 -10119 -10319 0
-10595 10119 0
-10595 10319 0
10596 -10329 -10113 0
-10596 10329 0
-10596 10113 0
10597 -10329 -10319 0
-10597 10329 0
-10597 10319 0
10598 -10119 -10113 -10324 0
-10598 10119 0
-10598 10113 0
-10598 10324 0
-6845 10153 10595 10596 10597 10598 0
6845 -10153 0
6845 -10595 0
6845 -10596 0
6845 -10597 0
6845 -10598 0
10599 -10119 -10329 0
-10599 10119 0
-10599 10329 0
10600 -10329 -10329 0
-10600 10329 0
-10600 10329 0
10601 -10329 -10119 0
-10601 10329 0
-10601 10119 0
10602 -10119 -10119 -10324 0
-10602 10119 0
-10602 10119 0
-10602 10324 0
-6864 10155 10599 10600 10601 10602 0
6864 -10155 0
6864 -10599 0
6864 -10600 0
6864 -10601 0
6864 -10602 0
10603 -10119 -10251 0
-10603 10119 0
-10603 10251 0
10604 -10329 -10251 0
-10604 10329 0
-10604 10251 0
10605 -10329 -10127 0
-10605 10329 0
-10605 10127 0
10606 -10119 -10127 -10324 0
-10606 10119 0
-10606 10127 0
-10606 10324 0
-6866 10157 10603 10604 10605 10606 0
6866 -10157 0
6866 -10603 0
6866 -10604 0
6866 -10605 0
6866 -10606 0
10607 -10119 -10254 0
-10607 10119 0
-10607 10254 0
10608 -10329 -10130 0
-10608 10329 0
-10608 10130 0
10609 -10329 -10254 0
-10609 10329 0
-10609 10254 0
10610 -10119 -10130 -10324 0
-10610 10119 0
-10610 10130 0
-10610 10324 0
-6868 10159 10607 10608 10609 10610 0
6868 -10159 0
6868 -10607 0
6868 -10608 0
6868 -10609 0
6868 -10610 0
10611 -10122 -10254 0
-10611 10122 0
-10611 10254 0
10612 -10334 -10254 0
-10612 10334 0
-10612 10254 0
10613 -10334 -10130 0
-10613 10334 0
-10613 10130 0
10614 -10122 -10130 -10324 0
-10614 10122 0
-10614 10130 0
-10614 10324 0
-6870 10161 10611 10612 10613 10614 0
6870 -10161 0
6870 -10611 0
6870 -10612 0
6870 -10613 0
6870 -10614 0
10615 -10127 -10314 0
-10615 10127 0
-10615 10314 0
10616 -10251 -10116 0
-10616 10251 0
-10616 10116 0
10617 -10251 -10314 0
-10617 10251 0
-10617 10314 0
10618 -10127 -10116 -10324 0
-10618 10127 0
-10618 10116 0
-10618 10324 0
-6872 10163 10615 10616 10617 10618 0
6872 -10163 0
6872 -10615 0
6872 -10616 0
6872 -10617 0
6872 -10618 0
10619 -10127 -10319 0
-10619 10127 0
-10619 10319 0
10620 -10251 -10113 0
-10620 10251 0
-10620 10113 0
10621 -10251 -10319 0
-10621 10251 0
-10621 10319 0
10622 -10127 -10113 -10324 0
-10622 10127 0
-10622 10113 0
-10622 10324 0
-6854 10165 10619 10620 10621 10622 0
6854 -10165 0
6854 -10619 0
6854 -10620 0
6854 -10621 0
6854 -10622 0
10623 -10127 -10334 0
-10623 10127 0
-10623 10334 0
10624 -10251 -10122 0
-10624 10251 0
-10624 10122 0
10625 -10251 -10334 0
-10625 10251 0
-10625 10334 0
10626 -10127 -10122 -10324 0
-10626 10127 0
-10626 10122 0
-10626 10324 0
-6874 10167 10623 10624 10625 10626 0
6874 -10167 0
6874 -10623 0
6874 -10624 0
6874 -10625 0
6874 -10626 0
10627 -10127 -10251 0
-10627 10127 0
-10627 10251 0
10321 -10251 -10251 0
-10321 10251 0
-10321 10251 0
10628 -10251 -10127 0
-10628 10251 0
-10628 10127 0
10629 -10127 -10127 -10324 0
-10629 10127 0
-10629 10127 0
-10629 10324 0
-6876 10169 10627 10321 10628 10629 0
6876 -10169 0
6876 -10627 0
6876 -10321 0
6876 -10628 0
6876 -10629 0
10630 -10631 -10631 0
-10630 10631 0
-10630 10631 0
-7673 10632 10630 0
7673 -10632 0
7673 -10630 0
10633 -10631 -10634 0
-10633 10631 0
-10633 10634 0
-7668 10635 10633 0
7668 -10635 0
7668 -10633 0
10636 -10631 -10637 0
-10636 10631 0
-10636 10637 0
-7667 10638 10636 0
7667 -10638 0
7667 -10636 0
10639 -10640 -10637 0
-10639 10640 0
-10639 10637 0
-7689 10641 10639 0
7689 -10641 0
7689 -10639 0
10642 -10631 -10643 0
-10642 10631 0
-10642 10643 0
-7680 10644 10642 0
7680 -10644 0
7680 -10642 0
10645 -10631 -10646 0
-10645 10631 0
-10645 10646 0
-7687 10647 10645 0
7687 -10647 0
7687 -10645 0
10648 -10640 -10646 0
-10648 10640 0
-10648 10646 0
-7694 10649 10648 0
7694 -10649 0
7694 -10648 0
10650 -10631 -10651 0
-10650 10631 0
-10650 10651 0
-7701 10652 10650 0
7701 -10652 0
7701 -10650 0
10653 -10631 -10654 0
-10653 10631 0
-10653 10654 0
-7708 10655 10653 0
7708 -10655 0
7708 -10653 0
10656 -10640 -10654 0
-10656 10640 0
-10656 10654 0
-7713 10657 10656 0
7713 -10657 0
7713 -10656 0
10658 -10634 -10640 0
-10658 10634 0
-10658 10640 0
-7691 10659 10658 0
7691 -10659 0
7691 -10658 0
10660 -10634 -10634 0
-10660 10634 0
-10660 10634 0
-7672 10661 10660 0
7672 -10661 0
7672 -10660 0
10662 -10634 -10643 0
-10662 10634 0
-10662 10643 0
-7675 10663 10662 0
7675 -10663 0
7675 -10662 0
10664 -10634 -10646 0
-10664 10634 0
-10664 10646 0
-7682 10665 10664 0
7682 -10665 0
7682 -10664 0
10666 -10637 -10646 0
-10666 10637 0
-10666 10646 0
-7684 10667 10666 0
7684 -10667 0
7684 -10666 0
10668 -10634 -10651 0
-10668 10634 0
-10668 10651 0
-7696 10669 10668 0
7696 -10669 0
7696 -10668 0
10670 -10634 -10654 0
-10670 10634 0
-10670 10654 0
-7703 10671 10670 0
7703 -10671 0
7703 -10670 0
10672 -10637 -10654 0
-10672 10637 0
-10672 10654 0
-7705 10673 10672 0
7705 -10673 0
7705 -10672 0
10674 -10643 -10640 0
-10674 10643 0
-10674 10640 0
-7718 10675 10674 0
7718 -10675 0
7718 -10674 0
10676 -10643 -10637 0
-10676 10643 0
-10676 10637 0
-7678 10677 10676 0
7678 -10677 0
7678 -10676 0
10678 -10643 -10643 0
-10678 10643 0
-10678 10643 0
-7723 10679 10678 0
7723 -10679 0
7723 -10678 0
10680 -10643 -10651 0
-10680 10643 0
-10680 10651 0
-7728 10681 10680 0
7728 -10681 0
7728 -10680 0
10682 -10643 -10654 0
-10682 10643 0
-10682 10654 0
-7733 10683 10682 0
7733 -10683 0
7733 -10682 0
10684 -10646 -10654 0
-10684 10646 0
-10684 10654 0
-7738 10685 10684 0
7738 -10685 0
7738 -10684 0
10686 -10651 -10640 0
-10686 10651 0
-10686 10640 0
-7743 10687 10686 0
7743 -10687 0
7743 -10686 0
10688 -10651 -10637 0
-10688 10651 0
-10688 10637 0
-7699 10689 10688 0
7699 -10689 0
7699 -10688 0
10690 -10651 -10646 0
-10690 10651 0
-10690 10646 0
-7748 10691 10690 0
7748 -10691 0
7748 -10690 0
10692 -10651 -10651 0
-10692 10651 0
-10692 10651 0
-7753 10693 10692 0
7753 -10693 0
7753 -10692 0
10694 -10472 -10472 0
-10694 10472 0
-10694 10472 0
-9155 10457 10694 0
9155 -10457 0
9155 -10694 0
10695 -10472 -10490 0
-10695 10472 0
-10695 10490 0
-9553 10460 10695 0
9553 -10460 0
9553 -10695 0
10696 -10472 -10492 0
-10696 10472 0
-10696 10492 0
-9154 10463 10696 0
9154 -10463 0
9154 -10696 0
10697 -10474 -10492 0
-10697 10474 0
-10697 10492 0
-9163 10466 10697 0
9163 -10466 0
9163 -10697 0
10698 -10472 -10699 0
-10698 10472 0
-10698 10699 0
-9158 10700 10698 0
9158 -10700 0
9158 -10698 0
10701 -10472 -10471 0
-10701 10472 0
-10701 10471 0
-9161 10456 10701 0
9161 -10456 0
9161 -10701 0
10702 -10474 -10471 0
-10702 10474 0
-10702 10471 0
-9164 10465 10702 0
9164 -10465 0
9164 -10702 0
10703 -10472 -10516 0
-10703 10472 0
-10703 10516 0
-9167 10477 10703 0
9167 -10477 0
9167 -10703 0
10704 -10472 -10510 0
-10704 10472 0
-10704 10510 0
-9170 10480 10704 0
9170 -10480 0
9170 -10704 0
10705 -10474 -10510 0
-10705 10474 0
-10705 10510 0
-9172 10482 10705 0
9172 -10482 0
9172 -10705 0
10706 -10490 -10474 0
-10706 10490 0
-10706 10474 0
-9570 10484 10706 0
9570 -10484 0
9570 -10706 0
10707 -10490 -10490 0
-10707 10490 0
-10707 10490 0
-9557 10486 10707 0
9557 -10486 0
9557 -10707 0
10708 -10490 -10699 0
-10708 10490 0
-10708 10699 0
-9559 10709 10708 0
9559 -10709 0
9559 -10708 0
10710 -10490 -10471 0
-10710 10490 0
-10710 10471 0
-9564 10459 10710 0
9564 -10459 0
9564 -10710 0
10711 -10492 -10471 0
-10711 10492 0
-10711 10471 0
-9160 10462 10711 0
9160 -10462 0
9160 -10711 0
10712 -10490 -10516 0
-10712 10490 0
-10712 10516 0
-9574 10494 10712 0
9574 -10494 0
9574 -10712 0
10713 -10490 -10510 0
-10713 10490 0
-10713 10510 0
-9579 10496 10713 0
9579 -10496 0
9579 -10713 0
10714 -10492 -10510 0
-10714 10492 0
-10714 10510 0
-9169 10498 10714 0
9169 -10498 0
9169 -10714 0
10715 -10699 -10474 0
-10715 10699 0
-10715 10474 0
-9174 10716 10715 0
9174 -10716 0
9174 -10715 0
10717 -10699 -10492 0
-10717 10699 0
-10717 10492 0
-9157 10718 10717 0
9157 -10718 0
9157 -10717 0
10719 -10699 -10699 0
-10719 10699 0
-10719 10699 0
-9176 10720 10719 0
9176 -10720 0
9176 -10719 0
10721 -10699 -10516 0
-10721 10699 0
-10721 10516 0
-9178 10722 10721 0
9178 -10722 0
9178 -10721 0
10723 -10699 -10510 0
-10723 10699 0
-10723 10510 0
-9180 10724 10723 0
9180 -10724 0
9180 -10723 0
10725 -10471 -10510 0
-10725 10471 0
-10725 10510 0
-9182 10479 10725 0
9182 -10479 0
9182 -10725 0
10726 -10516 -10474 0
-10726 10516 0
-10726 10474 0
-9184 10512 10726 0
9184 -10512 0
9184 -10726 0
10727 -10516 -10492 0
-10727 10516 0
-10727 10492 0
-9166 10514 10727 0
9166 -10514 0
9166 -10727 0
10728 -10516 -10471 0
-10728 10516 0
-10728 10471 0
-9186 10476 10728 0
9186 -10476 0
9186 -10728 0
10729 -10516 -10516 0
-10729 10516 0
-10729 10516 0
-9188 10518 10729 0
9188 -10518 0
9188 -10729 0
10730 -10456 -10700 0
-10730 10456 0
-10730 10700 0
10731 -10700 -10700 0
-10731 10700 0
-10731 10700 0
10732 -10700 -10456 0
-10732 10700 0
-10732 10456 0
10733 -10456 -10456 -10720 0
-10733 10456 0
-10733 10456 0
-10733 10720 0
-6879 10457 10730 10731 10732 10733 0
6879 -10457 0
6879 -10730 0
6879 -10731 0
6879 -10732 0
6879 -10733 0
10734 -10456 -10709 0
-10734 10456 0
-10734 10709 0
10735 -10700 -10709 0
-10735 10700 0
-10735 10709 0
10736 -10700 -10459 0
-10736 10700 0
-10736 10459 0
10737 -10456 -10459 -10720 0
-10737 10456 0
-10737 10459 0
-10737 10720 0
-6882 10460 10734 10735 10736 10737 0
6882 -10460 0
6882 -10734 0
6882 -10735 0
6882 -10736 0
6882 -10737 0
10738 -10456 -10718 0
-10738 10456 0
-10738 10718 0
10739 -10700 -10462 0
-10739 10700 0
-10739 10462 0
10740 -10700 -10718 0
-10740 10700 0
-10740 10718 0
10741 -10456 -10462 -10720 0
-10741 10456 0
-10741 10462 0
-10741 10720 0
-6885 10463 10738 10739 10740 10741 0
6885 -10463 0
6885 -10738 0
6885 -10739 0
6885 -10740 0
6885 -10741 0
10742 -10465 -10718 0
-10742 10465 0
-10742 10718 0
10743 -10716 -10718 0
-10743 10716 0
-10743 10718 0
10744 -10716 -10462 0
-10744 10716 0
-10744 10462 0
10745 -10465 -10462 -10720 0
-10745 10465 0
-10745 10462 0
-10745 10720 0
-6888 10466 10742 10743 10744 10745 0
6888 -10466 0
6888 -10742 0
6888 -10743 0
6888 -10744 0
6888 -10745 0
10746 -10456 -10747 0
-10746 10456 0
-10746 10747 0
10748 -10700 -10747 0
-10748 10700 0
-10748 10747 0
10749 -10700 -10468 0
-10749 10700 0
-10749 10468 0
10750 -10456 -10468 -10720 0
-10750 10456 0
-10750 10468 0
-10750 10720 0
-6916 10469 10746 10748 10749 10750 0
6916 -10469 0
6916 -10746 0
6916 -10748 0
6916 -10749 0
6916 -10750 0
10751 -10456 -10699 0
-10751 10456 0
-10751 10699 0
10752 -10700 -10471 0
-10752 10700 0
-10752 10471 0
10753 -10700 -10699 0
-10753 10700 0
-10753 10699 0
10754 -10456 -10471 -10720 0
-10754 10456 0
-10754 10471 0
-10754 10720 0
-6878 10472 10751 10752 10753 10754 0
6878 -10472 0
6878 -10751 0
6878 -10752 0
6878 -10753 0
6878 -10754 0
10755 -10465 -10699 0
-10755 10465 0
-10755 10699 0
10756 -10716 -10699 0
-10756 10716 0
-10756 10699 0
10757 -10716 -10471 0
-10757 10716 0
-10757 10471 0
10758 -10465 -10471 -10720 0
-10758 10465 0
-10758 10471 0
-10758 10720 0
-6887 10474 10755 10756 10757 10758 0
6887 -10474 0
6887 -10755 0
6887 -10756 0
6887 -10757 0
6887 -10758 0
10759 -10456 -10722 0
-10759 10456 0
-10759 10722 0
10760 -10700 -10722 0
-10760 10700 0
-10760 10722 0
10761 -10700 -10476 0
-10761 10700 0
-10761 10476 0
10762 -10456 -10476 -10720 0
-10762 10456 0
-10762 10476 0
-10762 10720 0
-6891 10477 10759 10760 10761 10762 0
6891 -10477 0
6891 -10759 0
6891 -10760 0
6891 -10761 0
6891 -10762 0
10763 -10456 -10724 0
-10763 10456 0
-10763 10724 0
10764 -10700 -10479 0
-10764 10700 0
-10764 10479 0
10765 -10700 -10724 0
-10765 10700 0
-10765 10724 0
10766 -10456 -10479 -10720 0
-10766 10456 0
-10766 10479 0
-10766 10720 0
-6894 10480 10763 10764 10765 10766 0
6894 -10480 0
6894 -10763 0
6894 -10764 0
6894 -10765 0
6894 -10766 0
10767 -10465 -10724 0
-10767 10465 0
-10767 10724 0
10768 -10716 -10724 0
-10768 10716 0
-10768 10724 0
10769 -10716 -10479 0
-10769 10716 0
-10769 10479 0
10770 -10465 -10479 -10720 0
-10770 10465 0
-10770 10479 0
-10770 10720 0
-6896 10482 10767 10768 10769 10770 0
6896 -10482 0
6896 -10767 0
6896 -10768 0
6896 -10769 0
6896 -10770 0
10771 -10459 -10716 0
-10771 10459 0
-10771 10716 0
10772 -10709 -10465 0
-10772 10709 0
-10772 10465 0
10773 -10709 -10716 0
-10773 10709 0
-10773 10716 0
10774 -10459 -10465 -10720 0
-10774 10459 0
-10774 10465 0
-10774 10720 0
-6898 10484 10771 10772 10773 10774 0
6898 -10484 0
6898 -10771 0
6898 -10772 0
6898 -10773 0
6898 -10774 0
10775 -10459 -10709 0
-10775 10459 0
-10775 10709 0
10776 -10709 -10709 0
-10776 10709 0
-10776 10709 0
10777 -10709 -10459 0
-10777 10709 0
-10777 10459 0
10778 -10459 -10459 -10720 0
-10778 10459 0
-10778 10459 0
-10778 10720 0
-6900 10486 10775 10776 10777 10778 0
6900 -10486 0
6900 -10775 0
6900 -10776 0
6900 -10777 0
6900 -10778 0
10779 -10459 -10747 0
-10779 10459 0
-10779 10747 0
10780 -10709 -10747 0
-10780 10709 0
-10780 10747 0
10781 -10709 -10468 0
-10781 10709 0
-10781 10468 0
10782 -10459 -10468 -10720 0
-10782 10459 0
-10782 10468 0
-10782 10720 0
-7189 10488 10779 10780 10781 10782 0
7189 -10488 0
7189 -10779 0
7189 -10780 0
7189 -10781 0
7189 -10782 0
10783 -10459 -10699 0
-10783 10459 0
-10783 10699 0
10784 -10709 -10471 0
-10784 10709 0
-10784 10471 0
10785 -10709 -10699 0
-10785 10709 0
-10785 10699 0
10786 -10459 -10471 -10720 0
-10786 10459 0
-10786 10471 0
-10786 10720 0
-6881 10490 10783 10784 10785 10786 0
6881 -10490 0
6881 -10783 0
6881 -10784 0
6881 -10785 0
6881 -10786 0
10787 -10462 -10699 0
-10787 10462 0
-10787 10699 0
10788 -10718 -10699 0
-10788 10718 0
-10788 10699 0
10789 -10718 -10471 0
-10789 10718 0
-10789 10471 0
10790 -10462 -10471 -10720 0
-10790 10462 0
-10790 10471 0
-10790 10720 0
-6884 10492 10787 10788 10789 10790 0
6884 -10492 0
6884 -10787 0
6884 -10788 0
6884 -10789 0
6884 -10790 0
10791 -10459 -10722 0
-10791 10459 0
-10791 10722 0
10792 -10709 -10722 0
-10792 10709 0
-10792 10722 0
10793 -10709 -10476 0
-10793 10709 0
-10793 10476 0
10794 -10459 -10476 -10720 0
-10794 10459 0
-10794 10476 0
-10794 10720 0
-6902 10494 10791 10792 10793 10794 0
6902 -10494 0
6902 -10791 0
6902 -10792 0
6902 -10793 0
6902 -10794 0
10795 -10459 -10724 0
-10795 10459 0
-10795 10724 0
10796 -10709 -10479 0
-10796 10709 0
-10796 10479 0
10797 -10709 -10724 0
-10797 10709 0
-10797 10724 0
10798 -10459 -10479 -10720 0
-10798 10459 0
-10798 10479 0
-10798 10720 0
-6904 10496 10795 10796 10797 10798 0
6904 -10496 0
6904 -10795 0
6904 -10796 0
6904 -10797 0
6904 -10798 0
10799 -10462 -10724 0
-10799 10462 0
-10799 10724 0
10800 -10718 -10724 0
-10800 10718 0
-10800 10724 0
10801 -10718 -10479 0
-10801 10718 0
-10801 10479 0
10802 -10462 -10479 -10720 0
-10802 10462 0
-10802 10479 0
-10802 10720 0
-6906 10498 10799 10800 10801 10802 0
6906 -10498 0
6906 -10799 0
6906 -10800 0
6906 -10801 0
6906 -10802 0
10803 -10468 -10716 0
-10803 10468 0
-10803 10716 0
10804 -10747 -10465 0
-10804 10747 0
-10804 10465 0
10805 -10747 -10716 0
-10805 10747 0
-10805 10716 0
10806 -10468 -10465 -10720 0
-10806 10468 0
-10806 10465 0
-10806 10720 0
-6923 10500 10803 10804 10805 10806 0
6923 -10500 0
6923 -10803 0
6923 -10804 0
6923 -10805 0
6923 -10806 0
10807 -10468 -10718 0
-10807 10468 0
-10807 10718 0
10808 -10747 -10462 0
-10808 10747 0
-10808 10462 0
10809 -10747 -10718 0
-10809 10747 0
-10809 10718 0
10810 -10468 -10462 -10720 0
-10810 10468 0
-10810 10462 0
-10810 10720 0
-6915 10502 10807 10808 10809 10810 0
6915 -10502 0
6915 -10807 0
6915 -10808 0
6915 -10809 0
6915 -10810 0
10811 -10468 -10747 0
-10811 10468 0
-10811 10747 0
10812 -10747 -10747 0
-10812 10747 0
-10812 10747 0
10813 -10747 -10468 0
-10813 10747 0
-10813 10468 0
10814 -10468 -10468 -10720 0
-10814 10468 0
-10814 10468 0
-10814 10720 0
-6925 10504 10811 10812 10813 10814 0
6925 -10504 0
6925 -10811 0
6925 -10812 0
6925 -10813 0
6925 -10814 0
10815 -10468 -10722 0
-10815 10468 0
-10815 10722 0
10816 -10747 -10722 0
-10816 10747 0
-10816 10722 0
10817 -10747 -10476 0
-10817 10747 0
-10817 10476 0
10818 -10468 -10476 -10720 0
-10818 10468 0
-10818 10476 0
-10818 10720 0
-6927 10506 10815 10816 10817 10818 0
6927 -10506 0
6927 -10815 0
6927 -10816 0
6927 -10817 0
6927 -10818 0
10819 -10468 -10724 0
-10819 10468 0
-10819 10724 0
10820 -10747 -10479 0
-10820 10747 0
-10820 10479 0
10821 -10747 -10724 0
-10821 10747 0
-10821 10724 0
10822 -10468 -10479 -10720 0
-10822 10468 0
-10822 10479 0
-10822 10720 0
-6929 10508 10819 10820 10821 10822 0
6929 -10508 0
6929 -10819 0
6929 -10820 0
6929 -10821 0
6929 -10822 0
10823 -10471 -10724 0
-10823 10471 0
-10823 10724 0
10824 -10699 -10724 0
-10824 10699 0
-10824 10724 0
10825 -10699 -10479 0
-10825 10699 0
-10825 10479 0
10826 -10471 -10479 -10720 0
-10826 10471 0
-10826 10479 0
-10826 10720 0
-6893 10510 10823 10824 10825 10826 0
6893 -10510 0
6893 -10823 0
6893 -10824 0
6893 -10825 0
6893 -10826 0
10827 -10476 -10716 0
-10827 10476 0
-10827 10716 0
10828 -10722 -10465 0
-10828 10722 0
-10828 10465 0
10829 -10722 -10716 0
-10829 10722 0
-10829 10716 0
10830 -10476 -10465 -10720 0
-10830 10476 0
-10830 10465 0
-10830 10720 0
-6908 10512 10827 10828 10829 10830 0
6908 -10512 0
6908 -10827 0
6908 -10828 0
6908 -10829 0
6908 -10830 0
10831 -10476 -10718 0
-10831 10476 0
-10831 10718 0
10832 -10722 -10462 0
-10832 10722 0
-10832 10462 0
10833 -10722 -10718 0
-10833 10722 0
-10833 10718 0
10834 -10476 -10462 -10720 0
-10834 10476 0
-10834 10462 0
-10834 10720 0
-6910 10514 10831 10832 10833 10834 0
6910 -10514 0
6910 -10831 0
6910 -10832 0
6910 -10833 0
6910 -10834 0
10835 -10476 -10699 0
-10835 10476 0
-10835 10699 0
10836 -10722 -10471 0
-10836 10722 0
-10836 10471 0
10837 -10722 -10699 0
-10837 10722 0
-10837 10699 0
10838 -10476 -10471 -10720 0
-10838 10476 0
-10838 10471 0
-10838 10720 0
-6890 10516 10835 10836 10837 10838 0
6890 -10516 0
6890 -10835 0
6890 -10836 0
6890 -10837 0
6890 -10838 0
10839 -10476 -10722 0
-10839 10476 0
-10839 10722 0
10840 -10722 -10722 0
-10840 10722 0
-10840 10722 0
10841 -10722 -10476 0
-10841 10722 0
-10841 10476 0
10842 -10476 -10476 -10720 0
-10842 10476 0
-10842 10476 0
-10842 10720 0
-6912 10518 10839 10840 10841 10842 0
6912 -10518 0
6912 -10839 0
6912 -10840 0
6912 -10841 0
6912 -10842 0
10843 -10647 -10647 0
-10843 10647 0
-10843 10647 0
-7103 10632 10843 0
7103 -10632 0
7103 -10843 0
10844 -10647 -10665 0
-10844 10647 0
-10844 10665 0
-7098 10635 10844 0
7098 -10635 0
7098 -10844 0
10845 -10647 -10667 0
-10845 10647 0
-10845 10667 0
-7097 10638 10845 0
7097 -10638 0
7097 -10845 0
10846 -10649 -10667 0
-10846 10649 0
-10846 10667 0
-7119 10641 10846 0
7119 -10641 0
7119 -10846 0
10847 -10647 -10848 0
-10847 10647 0
-10847 10848 0
-7110 10849 10847 0
7110 -10849 0
7110 -10847 0
10850 -10647 -10646 0
-10850 10647 0
-10850 10646 0
-7117 10631 10850 0
7117 -10631 0
7117 -10850 0
10851 -10649 -10646 0
-10851 10649 0
-10851 10646 0
-7124 10640 10851 0
7124 -10640 0
7124 -10851 0
10852 -10647 -10691 0
-10852 10647 0
-10852 10691 0
-7131 10652 10852 0
7131 -10652 0
7131 -10852 0
10853 -10647 -10685 0
-10853 10647 0
-10853 10685 0
-7138 10655 10853 0
7138 -10655 0
7138 -10853 0
10854 -10649 -10685 0
-10854 10649 0
-10854 10685 0
-7143 10657 10854 0
7143 -10657 0
7143 -10854 0
10855 -10665 -10649 0
-10855 10665 0
-10855 10649 0
-7121 10659 10855 0
7121 -10659 0
7121 -10855 0
10856 -10665 -10665 0
-10856 10665 0
-10856 10665 0
-7102 10661 10856 0
7102 -10661 0
7102 -10856 0
10857 -10665 -10848 0
-10857 10665 0
-10857 10848 0
-7105 10858 10857 0
7105 -10858 0
7105 -10857 0
10859 -10665 -10646 0
-10859 10665 0
-10859 10646 0
-7112 10634 10859 0
7112 -10634 0
7112 -10859 0
10860 -10667 -10646 0
-10860 10667 0
-10860 10646 0
-7114 10637 10860 0
7114 -10637 0
7114 -10860 0
10861 -10665 -10691 0
-10861 10665 0
-10861 10691 0
-7126 10669 10861 0
7126 -10669 0
7126 -10861 0
10862 -10665 -10685 0
-10862 10665 0
-10862 10685 0
-7133 10671 10862 0
7133 -10671 0
7133 -10862 0
10863 -10667 -10685 0
-10863 10667 0
-10863 10685 0
-7135 10673 10863 0
7135 -10673 0
7135 -10863 0
10864 -10848 -10649 0
-10864 10848 0
-10864 10649 0
-7148 10865 10864 0
7148 -10865 0
7148 -10864 0
10866 -10848 -10667 0
-10866 10848 0
-10866 10667 0
-7108 10867 10866 0
7108 -10867 0
7108 -10866 0
10868 -10848 -10848 0
-10868 10848 0
-10868 10848 0
-7153 10869 10868 0
7153 -10869 0
7153 -10868 0
10870 -10848 -10691 0
-10870 10848 0
-10870 10691 0
-7158 10871 10870 0
7158 -10871 0
7158 -10870 0
10872 -10848 -10685 0
-10872 10848 0
-10872 10685 0
-7163 10873 10872 0
7163 -10873 0
7163 -10872 0
10874 -10646 -10685 0
-10874 10646 0
-10874 10685 0
-7168 10654 10874 0
7168 -10654 0
7168 -10874 0
10875 -10691 -10649 0
-10875 10691 0
-10875 10649 0
-7173 10687 10875 0
7173 -10687 0
7173 -10875 0
10876 -10691 -10667 0
-10876 10691 0
-10876 10667 0
-7129 10689 10876 0
7129 -10689 0
7129 -10876 0
10877 -10691 -10646 0
-10877 10691 0
-10877 10646 0
-7178 10651 10877 0
7178 -10651 0
7178 -10877 0
10878 -10691 -10691 0
-10878 10691 0
-10878 10691 0
-7183 10693 10878 0
7183 -10693 0
7183 -10878 0
10879 -10880 -10880 0
-10879 10880 0
-10879 10880 0
-9626 10881 10879 0
9626 -10881 0
9626 -10879 0
10882 -10880 -10883 0
-10882 10880 0
-10882 10883 0
-9621 10884 10882 0
9621 -10884 0
9621 -10882 0
10885 -10880 -10886 0
-10885 10880 0
-10885 10886 0
-9620 10887 10885 0
9620 -10887 0
9620 -10885 0
10888 -10889 -10886 0
-10888 10889 0
-10888 10886 0
-9642 10890 10888 0
9642 -10890 0
9642 -10888 0
10891 -10880 -10892 0
-10891 10880 0
-10891 10892 0
-9633 10893 10891 0
9633 -10893 0
9633 -10891 0
10894 -10880 -10895 0
-10894 10880 0
-10894 10895 0
-9640 10896 10894 0
9640 -10896 0
9640 -10894 0
10897 -10889 -10895 0
-10897 10889 0
-10897 10895 0
-9647 10898 10897 0
9647 -10898 0
9647 -10897 0
10899 -10880 -10900 0
-10899 10880 0
-10899 10900 0
-9654 10901 10899 0
9654 -10901 0
9654 -10899 0
10902 -10880 -10903 0
-10902 10880 0
-10902 10903 0
-9661 10904 10902 0
9661 -10904 0
9661 -10902 0
10905 -10889 -10903 0
-10905 10889 0
-10905 10903 0
-9666 10906 10905 0
9666 -10906 0
9666 -10905 0
10907 -10883 -10889 0
-10907 10883 0
-10907 10889 0
-9644 10908 10907 0
9644 -10908 0
9644 -10907 0
10909 -10883 -10883 0
-10909 10883 0
-10909 10883 0
-9625 10910 10909 0
9625 -10910 0
9625 -10909 0
10911 -10883 -10892 0
-10911 10883 0
-10911 10892 0
-9628 10912 10911 0
9628 -10912 0
9628 -10911 0
10913 -10883 -10895 0
-10913 10883 0
-10913 10895 0
-9635 10914 10913 0
9635 -10914 0
9635 -10913 0
10915 -10886 -10895 0
-10915 10886 0
-10915 10895 0
-9637 10916 10915 0
9637 -10916 0
9637 -10915 0
10917 -10883 -10900 0
-10917 10883 0
-10917 10900 0
-9649 10918 10917 0
9649 -10918 0
9649 -10917 0
10919 -10883 -10903 0
-10919 10883 0
-10919 10903 0
-9656 10920 10919 0
9656 -10920 0
9656 -10919 0
10921 -10886 -10903 0
-10921 10886 0
-10921 10903 0
-9658 10922 10921 0
9658 -10922 0
9658 -10921 0
10923 -10892 -10889 0
-10923 10892 0
-10923 10889 0
-9671 10924 10923 0
9671 -10924 0
9671 -10923 0
10925 -10892 -10886 0
-10925 10892 0
-10925 10886 0
-9631 10926 10925 0
9631 -10926 0
9631 -10925 0
10927 -10892 -10892 0
-10927 10892 0
-10927 10892 0
-9676 10928 10927 0
9676 -10928 0
9676 -10927 0
10929 -10892 -10900 0
-10929 10892 0
-10929 10900 0
-9681 10930 10929 0
9681 -10930 0
9681 -10929 0
10931 -10892 -10903 0
-10931 10892 0
-10931 10903 0
-9686 10932 10931 0
9686 -10932 0
9686 -10931 0
10933 -10895 -10903 0
-10933 10895 0
-10933 10903 0
-9691 10934 10933 0
9691 -10934 0
9691 -10933 0
10935 -10900 -10889 0
-10935 10900 0
-10935 10889 0
-9696 10936 10935 0
9696 -10936 0
9696 -10935 0
10937 -10900 -10886 0
-10937 10900 0
-10937 10886 0
-9652 10938 10937 0
9652 -10938 0
9652 -10937 0
10939 -10900 -10895 0
-10939 10900 0
-10939 10895 0
-9701 10940 10939 0
9701 -10940 0
9701 -10939 0
10941 -10900 -10900 0
-10941 10900 0
-10941 10900 0
-9706 10942 10941 0
9706 -10942 0
9706 -10941 0
10943 -10647 -10644 0
-10943 10647 0
-10943 10644 0
10944 -10644 -10644 0
-10944 10644 0
-10944 10644 0
10945 -10644 -10647 0
-10945 10644 0
-10945 10647 0
10946 -10647 -10647 -10679 0
-10946 10647 0
-10946 10647 0
-10946 10679 0
-8181 10632 10943 10944 10945 10946 0
8181 -10632 0
8181 -10943 0
8181 -10944 0
8181 -10945 0
8181 -10946 0
10947 -10647 -10663 0
-10947 10647 0
-10947 10663 0
10948 -10644 -10663 0
-10948 10644 0
-10948 10663 0
10949 -10644 -10665 0
-10949 10644 0
-10949 10665 0
10950 -10647 -10665 -10679 0
-10950 10647 0
-10950 10665 0
-10950 10679 0
-8176 10635 10947 10948 10949 10950 0
8176 -10635 0
8176 -10947 0
8176 -10948 0
8176 -10949 0
8176 -10950 0
10951 -10647 -10677 0
-10951 10647 0
-10951 10677 0
10952 -10644 -10667 0
-10952 10644 0
-10952 10667 0
10953 -10644 -10677 0
-10953 10644 0
-10953 10677 0
10954 -10647 -10667 -10679 0
-10954 10647 0
-10954 10667 0
-10954 10679 0
-8175 10638 10951 10952 10953 10954 0
8175 -10638 0
8175 -10951 0
8175 -10952 0
8175 -10953 0
8175 -10954 0
10955 -10649 -10677 0
-10955 10649 0
-10955 10677 0
10956 -10675 -10677 0
-10956 10675 0
-10956 10677 0
10957 -10675 -10667 0
-10957 10675 0
-10957 10667 0
10958 -10649 -10667 -10679 0
-10958 10649 0
-10958 10667 0
-10958 10679 0
-8197 10641 10955 10956 10957 10958 0
8197 -10641 0
8197 -10955 0
8197 -10956 0
8197 -10957 0
8197 -10958 0
10959 -10647 -10960 0
-10959 10647 0
-10959 10960 0
10961 -10644 -10960 0
-10961 10644 0
-10961 10960 0
10962 -10644 -10848 0
-10962 10644 0
-10962 10848 0
10963 -10647 -10848 -10679 0
-10963 10647 0
-10963 10848 0
-10963 10679 0
-8188 10849 10959 10961 10962 10963 0
8188 -10849 0
8188 -10959 0
8188 -10961 0
8188 -10962 0
8188 -10963 0
10964 -10647 -10643 0
-10964 10647 0
-10964 10643 0
10965 -10644 -10646 0
-10965 10644 0
-10965 10646 0
10966 -10644 -10643 0
-10966 10644 0
-10966 10643 0
10967 -10647 -10646 -10679 0
-10967 10647 0
-10967 10646 0
-10967 10679 0
-8195 10631 10964 10965 10966 10967 0
8195 -10631 0
8195 -10964 0
8195 -10965 0
8195 -10966 0
8195 -10967 0
10968 -10649 -10643 0
-10968 10649 0
-10968 10643 0
10969 -10675 -10643 0
-10969 10675 0
-10969 10643 0
10970 -10675 -10646 0
-10970 10675 0
-10970 10646 0
10971 -10649 -10646 -10679 0
-10971 10649 0
-10971 10646 0
-10971 10679 0
-8202 10640 10968 10969 10970 10971 0
8202 -10640 0
8202 -10968 0
8202 -10969 0
8202 -10970 0
8202 -10971 0
10972 -10647 -10681 0
-10972 10647 0
-10972 10681 0
10973 -10644 -10681 0
-10973 10644 0
-10973 10681 0
10974 -10644 -10691 0
-10974 10644 0
-10974 10691 0
10975 -10647 -10691 -10679 0
-10975 10647 0
-10975 10691 0
-10975 10679 0
-8209 10652 10972 10973 10974 10975 0
8209 -10652 0
8209 -10972 0
8209 -10973 0
8209 -10974 0
8209 -10975 0
10976 -10647 -10683 0
-10976 10647 0
-10976 10683 0
10977 -10644 -10685 0
-10977 10644 0
-10977 10685 0
10978 -10644 -10683 0
-10978 10644 0
-10978 10683 0
10979 -10647 -10685 -10679 0
-10979 10647 0
-10979 10685 0
-10979 10679 0
-8216 10655 10976 10977 10978 10979 0
8216 -10655 0
8216 -10976 0
8216 -10977 0
8216 -10978 0
8216 -10979 0
10980 -10649 -10683 0
-10980 10649 0
-10980 10683 0
10981 -10675 -10683 0
-10981 10675 0
-10981 10683 0
10982 -10675 -10685 0
-10982 10675 0
-10982 10685 0
10983 -10649 -10685 -10679 0
-10983 10649 0
-10983 10685 0
-10983 10679 0
-8221 10657 10980 10981 10982 10983 0
8221 -10657 0
8221 -10980 0
8221 -10981 0
8221 -10982 0
8221 -10983 0
10984 -10665 -10675 0
-10984 10665 0
-10984 10675 0
10985 -10663 -10649 0
-10985 10663 0
-10985 10649 0
10986 -10663 -10675 0
-10986 10663 0
-10986 10675 0
10987 -10665 -10649 -10679 0
-10987 10665 0
-10987 10649 0
-10987 10679 0
-8199 10659 10984 10985 10986 10987 0
8199 -10659 0
8199 -10984 0
8199 -10985 0
8199 -10986 0
8199 -10987 0
10988 -10665 -10663 0
-10988 10665 0
-10988 10663 0
10989 -10663 -10663 0
-10989 10663 0
-10989 10663 0
10990 -10663 -10665 0
-10990 10663 0
-10990 10665 0
10991 -10665 -10665 -10679 0
-10991 10665 0
-10991 10665 0
-10991 10679 0
-8180 10661 10988 10989 10990 10991 0
8180 -10661 0
8180 -10988 0
8180 -10989 0
8180 -10990 0
8180 -10991 0
10992 -10665 -10960 0
-10992 10665 0
-10992 10960 0
10993 -10663 -10960 0
-10993 10663 0
-10993 10960 0
10994 -10663 -10848 0
-10994 10663 0
-10994 10848 0
10995 -10665 -10848 -10679 0
-10995 10665 0
-10995 10848 0
-10995 10679 0
-8183 10858 10992 10993 10994 10995 0
8183 -10858 0
8183 -10992 0
8183 -10993 0
8183 -10994 0
8183 -10995 0
10996 -10665 -10643 0
-10996 10665 0
-10996 10643 0
10997 -10663 -10646 0
-10997 10663 0
-10997 10646 0
10998 -10663 -10643 0
-10998 10663 0
-10998 10643 0
10999 -10665 -10646 -10679 0
-10999 10665 0
-10999 10646 0
-10999 10679 0
-8190 10634 10996 10997 10998 10999 0
8190 -10634 0
8190 -10996 0
8190 -10997 0
8190 -10998 0
8190 -10999 0
11000 -10667 -10643 0
-11000 10667 0
-11000 10643 0
11001 -10677 -10643 0
-11001 10677 0
-11001 10643 0
11002 -10677 -10646 0
-11002 10677 0
-11002 10646 0
11003 -10667 -10646 -10679 0
-11003 10667 0
-11003 10646 0
-11003 10679 0
-8192 10637 11000 11001 11002 11003 0
8192 -10637 0
8192 -11000 0
8192 -11001 0
8192 -11002 0
8192 -11003 0
11004 -10665 -10681 0
-11004 10665 0
-11004 10681 0
11005 -10663 -10681 0
-11005 10663 0
-11005 10681 0
11006 -10663 -10691 0
-11006 10663 0
-11006 10691 0
11007 -10665 -10691 -10679 0
-11007 10665 0
-11007 10691 0
-11007 10679 0
-8204 10669 11004 11005 11006 11007 0
8204 -10669 0
8204 -11004 0
8204 -11005 0
8204 -11006 0
8204 -11007 0
11008 -10665 -10683 0
-11008 10665 0
-11008 10683 0
11009 -10663 -10685 0
-11009 10663 0
-11009 10685 0
11010 -10663 -10683 0
-11010 10663 0
-11010 10683 0
11011 -10665 -10685 -10679 0
-11011 10665 0
-11011 10685 0
-11011 10679 0
-8211 10671 11008 11009 11010 11011 0
8211 -10671 0
8211 -11008 0
8211 -11009 0
8211 -11010 0
8211 -11011 0
11012 -10667 -10683 0
-11012 10667 0
-11012 10683 0
11013 -10677 -10683 0
-11013 10677 0
-11013 10683 0
11014 -10677 -10685 0
-11014 10677 0
-11014 10685 0
11015 -10667 -10685 -10679 0
-11015 10667 0
-11015 10685 0
-11015 10679 0
-8213 10673 11012 11013 11014 11015 0
8213 -10673 0
8213 -11012 0
8213 -11013 0
8213 -11014 0
8213 -11015 0
11016 -10848 -10675 0
-11016 10848 0
-11016 10675 0
11017 -10960 -10649 0
-11017 10960 0
-11017 10649 0
11018 -10960 -10675 0
-11018 10960 0
-11018 10675 0
11019 -10848 -10649 -10679 0
-11019 10848 0
-11019 10649 0
-11019 10679 0
-8226 10865 11016 11017 11018 11019 0
8226 -10865 0
8226 -11016 0
8226 -11017 0
8226 -11018 0
8226 -11019 0
11020 -10848 -10677 0
-11020 10848 0
-11020 10677 0
11021 -10960 -10667 0
-11021 10960 0
-11021 10667 0
11022 -10960 -10677 0
-11022 10960 0
-11022 10677 0
11023 -10848 -10667 -10679 0
-11023 10848 0
-11023 10667 0
-11023 10679 0
-8186 10867 11020 11021 11022 11023 0
8186 -10867 0
8186 -11020 0
8186 -11021 0
8186 -11022 0
8186 -11023 0
11024 -10848 -10960 0
-11024 10848 0
-11024 10960 0
11025 -10960 -10960 0
-11025 10960 0
-11025 10960 0
11026 -10960 -10848 0
-11026 10960 0
-11026 10848 0
11027 -10848 -10848 -10679 0
-11027 10848 0
-11027 10848 0
-11027 10679 0
-8231 10869 11024 11025 11026 11027 0
8231 -10869 0
8231 -11024 0
8231 -11025 0
8231 -11026 0
8231 -11027 0
11028 -10848 -10681 0
-11028 10848 0
-11028 10681 0
11029 -10960 -10681 0
-11029 10960 0
-11029 10681 0
11030 -10960 -10691 0
-11030 10960 0
-11030 10691 0
11031 -10848 -10691 -10679 0
-11031 10848 0
-11031 10691 0
-11031 10679 0
-8236 10871 11028 11029 11030 11031 0
8236 -10871 0
8236 -11028 0
8236 -11029 0
8236 -11030 0
8236 -11031 0
11032 -10848 -10683 0
-11032 10848 0
-11032 10683 0
11033 -10960 -10685 0
-11033 10960 0
-11033 10685 0
11034 -10960 -10683 0
-11034 10960 0
-11034 10683 0
11035 -10848 -10685 -10679 0
-11035 10848 0
-11035 10685 0
-11035 10679 0
-8241 10873 11032 11033 11034 11035 0
8241 -10873 0
8241 -11032 0
8241 -11033 0
8241 -11034 0
8241 -11035 0
11036 -10646 -10683 0
-11036 10646 0
-11036 10683 0
11037 -10643 -10683 0
-11037 10643 0
-11037 10683 0
11038 -10643 -10685 0
-11038 10643 0
-11038 10685 0
11039 -10646 -10685 -10679 0
-11039 10646 0
-11039 10685 0
-11039 10679 0
-8246 10654 11036 11037 11038 11039 0
8246 -10654 0
8246 -11036 0
8246 -11037 0
8246 -11038 0
8246 -11039 0
11040 -10691 -10675 0
-11040 10691 0
-11040 10675 0
11041 -10681 -10649 0
-11041 10681 0
-11041 10649 0
11042 -10681 -10675 0
-11042 10681 0
-11042 10675 0
11043 -10691 -10649 -10679 0
-11043 10691 0
-11043 10649 0
-11043 10679 0
-8251 10687 11040 11041 11042 11043 0
8251 -10687 0
8251 -11040 0
8251 -11041 0
8251 -11042 0
8251 -11043 0
11044 -10691 -10677 0
-11044 10691 0
-11044 10677 0
11045 -10681 -10667 0
-11045 10681 0
-11045 10667 0
11046 -10681 -10677 0
-11046 10681 0
-11046 10677 0
11047 -10691 -10667 -10679 0
-11047 10691 0
-11047 10667 0
-11047 10679 0
-8207 10689 11044 11045 11046 11047 0
8207 -10689 0
8207 -11044 0
8207 -11045 0
8207 -11046 0
8207 -11047 0
11048 -10691 -10643 0
-11048 10691 0
-11048 10643 0
11049 -10681 -10646 0
-11049 10681 0
-11049 10646 0
11050 -10681 -10643 0
-11050 10681 0
-11050 10643 0
11051 -10691 -10646 -10679 0
-11051 10691 0
-11051 10646 0
-11051 10679 0
-8256 10651 11048 11049 11050 11051 0
8256 -10651 0
8256 -11048 0
8256 -11049 0
8256 -11050 0
8256 -11051 0
11052 -10691 -10681 0
-11052 10691 0
-11052 10681 0
11053 -10681 -10681 0
-11053 10681 0
-11053 10681 0
11054 -10681 -10691 0
-11054 10681 0
-11054 10691 0
11055 -10691 -10691 -10679 0
-11055 10691 0
-11055 10691 0
-11055 10679 0
-8261 10693 11052 11053 11054 11055 0
8261 -10693 0
8261 -11052 0
8261 -11053 0
8261 -11054 0
8261 -11055 0
11056 -10480 -10477 0
-11056 10480 0
-11056 10477 0
11057 -10477 -10477 0
-11057 10477 0
-11057 10477 0
11058 -10477 -10480 0
-11058 10477 0
-11058 10480 0
11059 -10480 -10480 -10518 0
-11059 10480 0
-11059 10480 0
-11059 10518 0
-7756 10457 11056 11057 11058 11059 0
7756 -10457 0
7756 -11056 0
7756 -11057 0
7756 -11058 0
7756 -11059 0
11060 -10480 -10494 0
-11060 10480 0
-11060 10494 0
11061 -10477 -10494 0
-11061 10477 0
-11061 10494 0
11062 -10477 -10496 0
-11062 10477 0
-11062 10496 0
11063 -10480 -10496 -10518 0
-11063 10480 0
-11063 10496 0
-11063 10518 0
-7881 10460 11060 11061 11062 11063 0
7881 -10460 0
7881 -11060 0
7881 -11061 0
7881 -11062 0
7881 -11063 0
11064 -10480 -10514 0
-11064 10480 0
-11064 10514 0
11065 -10477 -10498 0
-11065 10477 0
-11065 10498 0
11066 -10477 -10514 0
-11066 10477 0
-11066 10514 0
11067 -10480 -10498 -10518 0
-11067 10480 0
-11067 10498 0
-11067 10518 0
-7755 10463 11064 11065 11066 11067 0
7755 -10463 0
7755 -11064 0
7755 -11065 0
7755 -11066 0
7755 -11067 0
11068 -10482 -10514 0
-11068 10482 0
-11068 10514 0
11069 -10512 -10514 0
-11069 10512 0
-11069 10514 0
11070 -10512 -10498 0
-11070 10512 0
-11070 10498 0
11071 -10482 -10498 -10518 0
-11071 10482 0
-11071 10498 0
-11071 10518 0
-7764 10466 11068 11069 11070 11071 0
7764 -10466 0
7764 -11068 0
7764 -11069 0
7764 -11070 0
7764 -11071 0
11072 -10480 -10506 0
-11072 10480 0
-11072 10506 0
11073 -10477 -10506 0
-11073 10477 0
-11073 10506 0
11074 -10477 -10508 0
-11074 10477 0
-11074 10508 0
11075 -10480 -10508 -10518 0
-11075 10480 0
-11075 10508 0
-11075 10518 0
-7759 10469 11072 11073 11074 11075 0
7759 -10469 0
7759 -11072 0
7759 -11073 0
7759 -11074 0
7759 -11075 0
11076 -10480 -10516 0
-11076 10480 0
-11076 10516 0
11077 -10477 -10510 0
-11077 10477 0
-11077 10510 0
11078 -10477 -10516 0
-11078 10477 0
-11078 10516 0
11079 -10480 -10510 -10518 0
-11079 10480 0
-11079 10510 0
-11079 10518 0
-7762 10472 11076 11077 11078 11079 0
7762 -10472 0
7762 -11076 0
7762 -11077 0
7762 -11078 0
7762 -11079 0
11080 -10482 -10516 0
-11080 10482 0
-11080 10516 0
11081 -10512 -10516 0
-11081 10512 0
-11081 10516 0
11082 -10512 -10510 0
-11082 10512 0
-11082 10510 0
11083 -10482 -10510 -10518 0
-11083 10482 0
-11083 10510 0
-11083 10518 0
-7765 10474 11080 11081 11082 11083 0
7765 -10474 0
7765 -11080 0
7765 -11081 0
7765 -11082 0
7765 -11083 0
11084 -10480 -10722 0
-11084 10480 0
-11084 10722 0
11085 -10477 -10722 0
-11085 10477 0
-11085 10722 0
11086 -10477 -10724 0
-11086 10477 0
-11086 10724 0
11087 -10480 -10724 -10518 0
-11087 10480 0
-11087 10724 0
-11087 10518 0
-7768 10700 11084 11085 11086 11087 0
7768 -10700 0
7768 -11084 0
7768 -11085 0
7768 -11086 0
7768 -11087 0
11088 -10480 -10476 0
-11088 10480 0
-11088 10476 0
11089 -10477 -10479 0
-11089 10477 0
-11089 10479 0
11090 -10477 -10476 0
-11090 10477 0
-11090 10476 0
11091 -10480 -10479 -10518 0
-11091 10480 0
-11091 10479 0
-11091 10518 0
-7771 10456 11088 11089 11090 11091 0
7771 -10456 0
7771 -11088 0
7771 -11089 0
7771 -11090 0
7771 -11091 0
11092 -10482 -10476 0
-11092 10482 0
-11092 10476 0
11093 -10512 -10476 0
-11093 10512 0
-11093 10476 0
11094 -10512 -10479 0
-11094 10512 0
-11094 10479 0
11095 -10482 -10479 -10518 0
-11095 10482 0
-11095 10479 0
-11095 10518 0
-7773 10465 11092 11093 11094 11095 0
7773 -10465 0
7773 -11092 0
7773 -11093 0
7773 -11094 0
7773 -11095 0
11096 -10496 -10512 0
-11096 10496 0
-11096 10512 0
11097 -10494 -10482 0
-11097 10494 0
-11097 10482 0
11098 -10494 -10512 0
-11098 10494 0
-11098 10512 0
11099 -10496 -10482 -10518 0
-11099 10496 0
-11099 10482 0
-11099 10518 0
-7888 10484 11096 11097 11098 11099 0
7888 -10484 0
7888 -11096 0
7888 -11097 0
7888 -11098 0
7888 -11099 0
11100 -10496 -10494 0
-11100 10496 0
-11100 10494 0
11101 -10494 -10494 0
-11101 10494 0
-11101 10494 0
11102 -10494 -10496 0
-11102 10494 0
-11102 10496 0
11103 -10496 -10496 -10518 0
-11103 10496 0
-11103 10496 0
-11103 10518 0
-7890 10486 11100 11101 11102 11103 0
7890 -10486 0
7890 -11100 0
7890 -11101 0
7890 -11102 0
7890 -11103 0
11104 -10496 -10506 0
-11104 10496 0
-11104 10506 0
11105 -10494 -10506 0
-11105 10494 0
-11105 10506 0
11106 -10494 -10508 0
-11106 10494 0
-11106 10508 0
11107 -10496 -10508 -10518 0
-11107 10496 0
-11107 10508 0
-11107 10518 0
-8059 10488 11104 11105 11106 11107 0
8059 -10488 0
8059 -11104 0
8059 -11105 0
8059 -11106 0
8059 -11107 0
11108 -10496 -10516 0
-11108 10496 0
-11108 10516 0
11109 -10494 -10510 0
-11109 10494 0
-11109 10510 0
11110 -10494 -10516 0
-11110 10494 0
-11110 10516 0
11111 -10496 -10510 -10518 0
-11111 10496 0
-11111 10510 0
-11111 10518 0
-7880 10490 11108 11109 11110 11111 0
7880 -10490 0
7880 -11108 0
7880 -11109 0
7880 -11110 0
7880 -11111 0
11112 -10498 -10516 0
-11112 10498 0
-11112 10516 0
11113 -10514 -10516 0
-11113 10514 0
-11113 10516 0
11114 -10514 -10510 0
-11114 10514 0
-11114 10510 0
11115 -10498 -10510 -10518 0
-11115 10498 0
-11115 10510 0
-11115 10518 0
-7761 10492 11112 11113 11114 11115 0
7761 -10492 0
7761 -11112 0
7761 -11113 0
7761 -11114 0
7761 -11115 0
11116 -10496 -10722 0
-11116 10496 0
-11116 10722 0
11117 -10494 -10722 0
-11117 10494 0
-11117 10722 0
11118 -10494 -10724 0
-11118 10494 0
-11118 10724 0
11119 -10496 -10724 -10518 0
-11119 10496 0
-11119 10724 0
-11119 10518 0
-7892 10709 11116 11117 11118 11119 0
7892 -10709 0
7892 -11116 0
7892 -11117 0
7892 -11118 0
7892 -11119 0
11120 -10496 -10476 0
-11120 10496 0
-11120 10476 0
11121 -10494 -10479 0
-11121 10494 0
-11121 10479 0
11122 -10494 -10476 0
-11122 10494 0
-11122 10476 0
11123 -10496 -10479 -10518 0
-11123 10496 0
-11123 10479 0
-11123 10518 0
-7894 10459 11120 11121 11122 11123 0
7894 -10459 0
7894 -11120 0
7894 -11121 0
7894 -11122 0
7894 -11123 0
11124 -10498 -10476 0
-11124 10498 0
-11124 10476 0
11125 -10514 -10476 0
-11125 10514 0
-11125 10476 0
11126 -10514 -10479 0
-11126 10514 0
-11126 10479 0
11127 -10498 -10479 -10518 0
-11127 10498 0
-11127 10479 0
-11127 10518 0
-7770 10462 11124 11125 11126 11127 0
7770 -10462 0
7770 -11124 0
7770 -11125 0
7770 -11126 0
7770 -11127 0
11128 -10508 -10512 0
-11128 10508 0
-11128 10512 0
11129 -10506 -10482 0
-11129 10506 0
-11129 10482 0
11130 -10506 -10512 0
-11130 10506 0
-11130 10512 0
11131 -10508 -10482 -10518 0
-11131 10508 0
-11131 10482 0
-11131 10518 0
-7775 10500 11128 11129 11130 11131 0
7775 -10500 0
7775 -11128 0
7775 -11129 0
7775 -11130 0
7775 -11131 0
11132 -10508 -10514 0
-11132 10508 0
-11132 10514 0
11133 -10506 -10498 0
-11133 10506 0
-11133 10498 0
11134 -10506 -10514 0
-11134 10506 0
-11134 10514 0
11135 -10508 -10498 -10518 0
-11135 10508 0
-11135 10498 0
-11135 10518 0
-7758 10502 11132 11133 11134 11135 0
7758 -10502 0
7758 -11132 0
7758 -11133 0
7758 -11134 0
7758 -11135 0
11136 -10508 -10506 0
-11136 10508 0
-11136 10506 0
11137 -10506 -10506 0
-11137 10506 0
-11137 10506 0
11138 -10506 -10508 0
-11138 10506 0
-11138 10508 0
11139 -10508 -10508 -10518 0
-11139 10508 0
-11139 10508 0
-11139 10518 0
-7777 10504 11136 11137 11138 11139 0
7777 -10504 0
7777 -11136 0
7777 -11137 0
7777 -11138 0
7777 -11139 0
11140 -10508 -10722 0
-11140 10508 0
-11140 10722 0
11141 -10506 -10722 0
-11141 10506 0
-11141 10722 0
11142 -10506 -10724 0
-11142 10506 0
-11142 10724 0
11143 -10508 -10724 -10518 0
-11143 10508 0
-11143 10724 0
-11143 10518 0
-7779 10747 11140 11141 11142 11143 0
7779 -10747 0
7779 -11140 0
7779 -11141 0
7779 -11142 0
7779 -11143 0
11144 -10508 -10476 0
-11144 10508 0
-11144 10476 0
11145 -10506 -10479 0
-11145 10506 0
-11145 10479 0
11146 -10506 -10476 0
-11146 10506 0
-11146 10476 0
11147 -10508 -10479 -10518 0
-11147 10508 0
-11147 10479 0
-11147 10518 0
-7781 10468 11144 11145 11146 11147 0
7781 -10468 0
7781 -11144 0
7781 -11145 0
7781 -11146 0
7781 -11147 0
11148 -10510 -10476 0
-11148 10510 0
-11148 10476 0
11149 -10516 -10476 0
-11149 10516 0
-11149 10476 0
11150 -10516 -10479 0
-11150 10516 0
-11150 10479 0
11151 -10510 -10479 -10518 0
-11151 10510 0
-11151 10479 0
-11151 10518 0
-7783 10471 11148 11149 11150 11151 0
7783 -10471 0
7783 -11148 0
7783 -11149 0
7783 -11150 0
7783 -11151 0
11152 -10724 -10512 0
-11152 10724 0
-11152 10512 0
11153 -10722 -10482 0
-11153 10722 0
-11153 10482 0
11154 -10722 -10512 0
-11154 10722 0
-11154 10512 0
11155 -10724 -10482 -10518 0
-11155 10724 0
-11155 10482 0
-11155 10518 0
-7785 10716 11152 11153 11154 11155 0
7785 -10716 0
7785 -11152 0
7785 -11153 0
7785 -11154 0
7785 -11155 0
11156 -10724 -10514 0
-11156 10724 0
-11156 10514 0
11157 -10722 -10498 0
-11157 10722 0
-11157 10498 0
11158 -10722 -10514 0
-11158 10722 0
-11158 10514 0
11159 -10724 -10498 -10518 0
-11159 10724 0
-11159 10498 0
-11159 10518 0
-7767 10718 11156 11157 11158 11159 0
7767 -10718 0
7767 -11156 0
7767 -11157 0
7767 -11158 0
7767 -11159 0
11160 -10724 -10516 0
-11160 10724 0
-11160 10516 0
11161 -10722 -10510 0
-11161 10722 0
-11161 10510 0
11162 -10722 -10516 0
-11162 10722 0
-11162 10516 0
11163 -10724 -10510 -10518 0
-11163 10724 0
-11163 10510 0
-11163 10518 0
-7787 10699 11160 11161 11162 11163 0
7787 -10699 0
7787 -11160 0
7787 -11161 0
7787 -11162 0
7787 -11163 0
11164 -10724 -10722 0
-11164 10724 0
-11164 10722 0
10840 -10722 -10722 0
-10840 10722 0
-10840 10722 0
11165 -10722 -10724 0
-11165 10722 0
-11165 10724 0
11166 -10724 -10724 -10518 0
-11166 10724 0
-11166 10724 0
-11166 10518 0
-7789 10720 11164 10840 11165 11166 0
7789 -10720 0
7789 -11164 0
7789 -10840 0
7789 -11165 0
7789 -11166 0
11167 -10480 -10480 0
-11167 10480 0
-11167 10480 0
-7015 10457 11167 0
7015 -10457 0
7015 -11167 0
11168 -10480 -10496 0
-11168 10480 0
-11168 10496 0
-7010 10460 11168 0
7010 -10460 0
7010 -11168 0
11169 -10480 -10498 0
-11169 10480 0
-11169 10498 0
-7009 10463 11169 0
7009 -10463 0
7009 -11169 0
11170 -10482 -10498 0
-11170 10482 0
-11170 10498 0
-7031 10466 11170 0
7031 -10466 0
7031 -11170 0
11171 -10480 -10508 0
-11171 10480 0
-11171 10508 0
-7022 10469 11171 0
7022 -10469 0
7022 -11171 0
11172 -10480 -10510 0
-11172 10480 0
-11172 10510 0
-7029 10472 11172 0
7029 -10472 0
7029 -11172 0
11173 -10482 -10510 0
-11173 10482 0
-11173 10510 0
-7036 10474 11173 0
7036 -10474 0
7036 -11173 0
11174 -10480 -10724 0
-11174 10480 0
-11174 10724 0
-7043 10700 11174 0
7043 -10700 0
7043 -11174 0
11175 -10480 -10479 0
-11175 10480 0
-11175 10479 0
-7050 10456 11175 0
7050 -10456 0
7050 -11175 0
11176 -10482 -10479 0
-11176 10482 0
-11176 10479 0
-7055 10465 11176 0
7055 -10465 0
7055 -11176 0
11177 -10496 -10482 0
-11177 10496 0
-11177 10482 0
-7033 10484 11177 0
7033 -10484 0
7033 -11177 0
11178 -10496 -10496 0
-11178 10496 0
-11178 10496 0
-7014 10486 11178 0
7014 -10486 0
7014 -11178 0
11179 -10496 -10508 0
-11179 10496 0
-11179 10508 0
-7017 10488 11179 0
7017 -10488 0
7017 -11179 0
11180 -10496 -10510 0
-11180 10496 0
-11180 10510 0
-7024 10490 11180 0
7024 -10490 0
7024 -11180 0
11181 -10498 -10510 0
-11181 10498 0
-11181 10510 0
-7026 10492 11181 0
7026 -10492 0
7026 -11181 0
11182 -10496 -10724 0
-11182 10496 0
-11182 10724 0
-7038 10709 11182 0
7038 -10709 0
7038 -11182 0
11183 -10496 -10479 0
-11183 10496 0
-11183 10479 0
-7045 10459 11183 0
7045 -10459 0
7045 -11183 0
11184 -10498 -10479 0
-11184 10498 0
-11184 10479 0
-7047 10462 11184 0
7047 -10462 0
7047 -11184 0
11185 -10508 -10482 0
-11185 10508 0
-11185 10482 0
-7060 10500 11185 0
7060 -10500 0
7060 -11185 0
11186 -10508 -10498 0
-11186 10508 0
-11186 10498 0
-7020 10502 11186 0
7020 -10502 0
7020 -11186 0
11187 -10508 -10508 0
-11187 10508 0
-11187 10508 0
-7065 10504 11187 0
7065 -10504 0
7065 -11187 0
11188 -10508 -10724 0
-11188 10508 0
-11188 10724 0
-7070 10747 11188 0
7070 -10747 0
7070 -11188 0
11189 -10508 -10479 0
-11189 10508 0
-11189 10479 0
-7075 10468 11189 0
7075 -10468 0
7075 -11189 0
11190 -10510 -10479 0
-11190 10510 0
-11190 10479 0
-7080 10471 11190 0
7080 -10471 0
7080 -11190 0
11191 -10724 -10482 0
-11191 10724 0
-11191 10482 0
-7085 10716 11191 0
7085 -10716 0
7085 -11191 0
11192 -10724 -10498 0
-11192 10724 0
-11192 10498 0
-7041 10718 11192 0
7041 -10718 0
7041 -11192 0
11193 -10724 -10510 0
-11193 10724 0
-11193 10510 0
-7090 10699 11193 0
7090 -10699 0
7090 -11193 0
11194 -10724 -10724 0
-11194 10724 0
-11194 10724 0
-7095 10720 11194 0
7095 -10720 0
7095 -11194 0
11195 -10123 -10123 0
-11195 10123 0
-11195 10123 0
-7571 10108 11195 0
7571 -10108 0
7571 -11195 0
11196 -10123 -10141 0
-11196 10123 0
-11196 10141 0
-7574 10111 11196 0
7574 -10111 0
7574 -11196 0
11197 -10123 -10143 0
-11197 10123 0
-11197 10143 0
-7577 10114 11197 0
7577 -10114 0
7577 -11197 0
11198 -10125 -10143 0
-11198 10125 0
-11198 10143 0
-7580 10117 11198 0
7580 -10117 0
7580 -11198 0
11199 -10123 -10334 0
-11199 10123 0
-11199 10334 0
-7988 10256 11199 0
7988 -10256 0
7988 -11199 0
11200 -10123 -10122 0
-11200 10123 0
-11200 10122 0
-7570 10107 11200 0
7570 -10107 0
7570 -11200 0
11201 -10125 -10122 0
-11201 10125 0
-11201 10122 0
-7579 10116 11201 0
7579 -10116 0
7579 -11201 0
11202 -10123 -10167 0
-11202 10123 0
-11202 10167 0
-7583 10128 11202 0
7583 -10128 0
7583 -11202 0
11203 -10123 -10161 0
-11203 10123 0
-11203 10161 0
-7586 10131 11203 0
7586 -10131 0
7586 -11203 0
11204 -10125 -10161 0
-11204 10125 0
-11204 10161 0
-7588 10133 11204 0
7588 -10133 0
7588 -11204 0
11205 -10141 -10125 0
-11205 10141 0
-11205 10125 0
-7590 10135 11205 0
7590 -10135 0
7590 -11205 0
11206 -10141 -10141 0
-11206 10141 0
-11206 10141 0
-7592 10137 11206 0
7592 -10137 0
7592 -11206 0
11207 -10141 -10334 0
-11207 10141 0
-11207 10334 0
-7994 10289 11207 0
7994 -10289 0
7994 -11207 0
11208 -10141 -10122 0
-11208 10141 0
-11208 10122 0
-7573 10110 11208 0
7573 -10110 0
7573 -11208 0
11209 -10143 -10122 0
-11209 10143 0
-11209 10122 0
-7576 10113 11209 0
7576 -10113 0
7576 -11209 0
11210 -10141 -10167 0
-11210 10141 0
-11210 10167 0
-7594 10145 11210 0
7594 -10145 0
7594 -11210 0
11211 -10141 -10161 0
-11211 10141 0
-11211 10161 0
-7596 10147 11211 0
7596 -10147 0
7596 -11211 0
11212 -10143 -10161 0
-11212 10143 0
-11212 10161 0
-7598 10149 11212 0
7598 -10149 0
7598 -11212 0
11213 -10334 -10125 0
-11213 10334 0
-11213 10125 0
-8005 10314 11213 0
8005 -10314 0
8005 -11213 0
11214 -10334 -10143 0
-11214 10334 0
-11214 10143 0
-7999 10319 11214 0
7999 -10319 0
7999 -11214 0
11215 -10334 -10334 0
-11215 10334 0
-11215 10334 0
-7992 10324 11215 0
7992 -10324 0
7992 -11215 0
11216 -10334 -10167 0
-11216 10334 0
-11216 10167 0
-8009 10251 11216 0
8009 -10251 0
8009 -11216 0
11217 -10334 -10161 0
-11217 10334 0
-11217 10161 0
-8014 10254 11217 0
8014 -10254 0
8014 -11217 0
11218 -10122 -10161 0
-11218 10122 0
-11218 10161 0
-7585 10130 11218 0
7585 -10130 0
7585 -11218 0
11219 -10167 -10125 0
-11219 10167 0
-11219 10125 0
-7600 10163 11219 0
7600 -10163 0
7600 -11219 0
11220 -10167 -10143 0
-11220 10167 0
-11220 10143 0
-7602 10165 11220 0
7602 -10165 0
7602 -11220 0
11221 -10167 -10122 0
-11221 10167 0
-11221 10122 0
-7582 10127 11221 0
7582 -10127 0
7582 -11221 0
11222 -10167 -10167 0
-11222 10167 0
-11222 10167 0
-7604 10169 11222 0
7604 -10169 0
7604 -11222 0
11223 -10372 -10369 0
-11223 10372 0
-11223 10369 0
11224 -10369 -10369 0
-11224 10369 0
-11224 10369 0
11225 -10369 -10372 0
-11225 10369 0
-11225 10372 0
11226 -10372 -10372 -10404 0
-11226 10372 0
-11226 10372 0
-11226 10404 0
-6652 10357 11223 11224 11225 11226 0
6652 -10357 0
6652 -11223 0
6652 -11224 0
6652 -11225 0
6652 -11226 0
11227 -10372 -10388 0
-11227 10372 0
-11227 10388 0
11228 -10369 -10388 0
-11228 10369 0
-11228 10388 0
11229 -10369 -10390 0
-11229 10369 0
-11229 10390 0
11230 -10372 -10390 -10404 0
-11230 10372 0
-11230 10390 0
-11230 10404 0
-6655 10360 11227 11228 11229 11230 0
6655 -10360 0
6655 -11227 0
6655 -11228 0
6655 -11229 0
6655 -11230 0
11231 -10372 -10402 0
-11231 10372 0
-11231 10402 0
11232 -10369 -10392 0
-11232 10369 0
-11232 10392 0
11233 -10369 -10402 0
-11233 10369 0
-11233 10402 0
11234 -10372 -10392 -10404 0
-11234 10372 0
-11234 10392 0
-11234 10404 0
-6658 10363 11231 11232 11233 11234 0
6658 -10363 0
6658 -11231 0
6658 -11232 0
6658 -11233 0
6658 -11234 0
11235 -10374 -10402 0
-11235 10374 0
-11235 10402 0
11236 -10400 -10402 0
-11236 10400 0
-11236 10402 0
11237 -10400 -10392 0
-11237 10400 0
-11237 10392 0
11238 -10374 -10392 -10404 0
-11238 10374 0
-11238 10392 0
-11238 10404 0
-6661 10366 11235 11236 11237 11238 0
6661 -10366 0
6661 -11235 0
6661 -11236 0
6661 -11237 0
6661 -11238 0
11239 -10372 -11240 0
-11239 10372 0
-11239 11240 0
11241 -10369 -11240 0
-11241 10369 0
-11241 11240 0
11242 -10369 -10424 0
-11242 10369 0
-11242 10424 0
11243 -10372 -10424 -10404 0
-11243 10372 0
-11243 10424 0
-11243 10404 0
-6696 10425 11239 11241 11242 11243 0
6696 -10425 0
6696 -11239 0
6696 -11241 0
6696 -11242 0
6696 -11243 0
11244 -10372 -10368 0
-11244 10372 0
-11244 10368 0
11245 -10369 -10371 0
-11245 10369 0
-11245 10371 0
11246 -10369 -10368 0
-11246 10369 0
-11246 10368 0
11247 -10372 -10371 -10404 0
-11247 10372 0
-11247 10371 0
-11247 10404 0
-6651 10356 11244 11245 11246 11247 0
6651 -10356 0
6651 -11244 0
6651 -11245 0
6651 -11246 0
6651 -11247 0
11248 -10374 -10368 0
-11248 10374 0
-11248 10368 0
11249 -10400 -10368 0
-11249 10400 0
-11249 10368 0
11250 -10400 -10371 0
-11250 10400 0
-11250 10371 0
11251 -10374 -10371 -10404 0
-11251 10374 0
-11251 10371 0
-11251 10404 0
-6660 10365 11248 11249 11250 11251 0
6660 -10365 0
6660 -11248 0
6660 -11249 0
6660 -11250 0
6660 -11251 0
11252 -10372 -10406 0
-11252 10372 0
-11252 10406 0
11253 -10369 -10406 0
-11253 10369 0
-11253 10406 0
11254 -10369 -10416 0
-11254 10369 0
-11254 10416 0
11255 -10372 -10416 -10404 0
-11255 10372 0
-11255 10416 0
-11255 10404 0
-6664 10377 11252 11253 11254 11255 0
6664 -10377 0
6664 -11252 0
6664 -11253 0
6664 -11254 0
6664 -11255 0
11256 -10372 -10408 0
-11256 10372 0
-11256 10408 0
11257 -10369 -10410 0
-11257 10369 0
-11257 10410 0
11258 -10369 -10408 0
-11258 10369 0
-11258 10408 0
11259 -10372 -10410 -10404 0
-11259 10372 0
-11259 10410 0
-11259 10404 0
-6667 10380 11256 11257 11258 11259 0
6667 -10380 0
6667 -11256 0
6667 -11257 0
6667 -11258 0
6667 -11259 0
11260 -10374 -10408 0
-11260 10374 0
-11260 10408 0
11261 -10400 -10408 0
-11261 10400 0
-11261 10408 0
11262 -10400 -10410 0
-11262 10400 0
-11262 10410 0
11263 -10374 -10410 -10404 0
-11263 10374 0
-11263 10410 0
-11263 10404 0
-6669 10382 11260 11261 11262 11263 0
6669 -10382 0
6669 -11260 0
6669 -11261 0
6669 -11262 0
6669 -11263 0
11264 -10390 -10400 0
-11264 10390 0
-11264 10400 0
11265 -10388 -10374 0
-11265 10388 0
-11265 10374 0
11266 -10388 -10400 0
-11266 10388 0
-11266 10400 0
11267 -10390 -10374 -10404 0
-11267 10390 0
-11267 10374 0
-11267 10404 0
-6671 10384 11264 11265 11266 11267 0
6671 -10384 0
6671 -11264 0
6671 -11265 0
6671 -11266 0
6671 -11267 0
11268 -10390 -10388 0
-11268 10390 0
-11268 10388 0
11269 -10388 -10388 0
-11269 10388 0
-11269 10388 0
11270 -10388 -10390 0
-11270 10388 0
-11270 10390 0
11271 -10390 -10390 -10404 0
-11271 10390 0
-11271 10390 0
-11271 10404 0
-6673 10386 11268 11269 11270 11271 0
6673 -10386 0
6673 -11268 0
6673 -11269 0
6673 -11270 0
6673 -11271 0
11272 -10390 -11240 0
-11272 10390 0
-11272 11240 0
11273 -10388 -11240 0
-11273 10388 0
-11273 11240 0
11274 -10388 -10424 0
-11274 10388 0
-11274 10424 0
11275 -10390 -10424 -10404 0
-11275 10390 0
-11275 10424 0
-11275 10404 0
-6691 10434 11272 11273 11274 11275 0
6691 -10434 0
6691 -11272 0
6691 -11273 0
6691 -11274 0
6691 -11275 0
11276 -10390 -10368 0
-11276 10390 0
-11276 10368 0
11277 -10388 -10371 0
-11277 10388 0
-11277 10371 0
11278 -10388 -10368 0
-11278 10388 0
-11278 10368 0
11279 -10390 -10371 -10404 0
-11279 10390 0
-11279 10371 0
-11279 10404 0
-6654 10359 11276 11277 11278 11279 0
6654 -10359 0
6654 -11276 0
6654 -11277 0
6654 -11278 0
6654 -11279 0
11280 -10392 -10368 0
-11280 10392 0
-11280 10368 0
11281 -10402 -10368 0
-11281 10402 0
-11281 10368 0
11282 -10402 -10371 0
-11282 10402 0
-11282 10371 0
11283 -10392 -10371 -10404 0
-11283 10392 0
-11283 10371 0
-11283 10404 0
-6657 10362 11280 11281 11282 11283 0
6657 -10362 0
6657 -11280 0
6657 -11281 0
6657 -11282 0
6657 -11283 0
11284 -10390 -10406 0
-11284 10390 0
-11284 10406 0
11285 -10388 -10406 0
-11285 10388 0
-11285 10406 0
11286 -10388 -10416 0
-11286 10388 0
-11286 10416 0
11287 -10390 -10416 -10404 0
-11287 10390 0
-11287 10416 0
-11287 10404 0
-6675 10394 11284 11285 11286 11287 0
6675 -10394 0
6675 -11284 0
6675 -11285 0
6675 -11286 0
6675 -11287 0
11288 -10390 -10408 0
-11288 10390 0
-11288 10408 0
11289 -10388 -10410 0
-11289 10388 0
-11289 10410 0
11290 -10388 -10408 0
-11290 10388 0
-11290 10408 0
11291 -10390 -10410 -10404 0
-11291 10390 0
-11291 10410 0
-11291 10404 0
-6677 10396 11288 11289 11290 11291 0
6677 -10396 0
6677 -11288 0
6677 -11289 0
6677 -11290 0
6677 -11291 0
11292 -10392 -10408 0
-11292 10392 0
-11292 10408 0
11293 -10402 -10408 0
-11293 10402 0
-11293 10408 0
11294 -10402 -10410 0
-11294 10402 0
-11294 10410 0
11295 -10392 -10410 -10404 0
-11295 10392 0
-11295 10410 0
-11295 10404 0
-6679 10398 11292 11293 11294 11295 0
6679 -10398 0
6679 -11292 0
6679 -11293 0
6679 -11294 0
6679 -11295 0
11296 -10424 -10400 0
-11296 10424 0
-11296 10400 0
11297 -11240 -10374 0
-11297 11240 0
-11297 10374 0
11298 -11240 -10400 0
-11298 11240 0
-11298 10400 0
11299 -10424 -10374 -10404 0
-11299 10424 0
-11299 10374 0
-11299 10404 0
-6721 10441 11296 11297 11298 11299 0
6721 -10441 0
6721 -11296 0
6721 -11297 0
6721 -11298 0
6721 -11299 0
11300 -10424 -10402 0
-11300 10424 0
-11300 10402 0
11301 -11240 -10392 0
-11301 11240 0
-11301 10392 0
11302 -11240 -10402 0
-11302 11240 0
-11302 10402 0
11303 -10424 -10392 -10404 0
-11303 10424 0
-11303 10392 0
-11303 10404 0
-6694 10443 11300 11301 11302 11303 0
6694 -10443 0
6694 -11300 0
6694 -11301 0
6694 -11302 0
6694 -11303 0
11304 -10424 -11240 0
-11304 10424 0
-11304 11240 0
11305 -11240 -11240 0
-11305 11240 0
-11305 11240 0
11306 -11240 -10424 0
-11306 11240 0
-11306 10424 0
11307 -10424 -10424 -10404 0
-11307 10424 0
-11307 10424 0
-11307 10404 0
-6726 10445 11304 11305 11306 11307 0
6726 -10445 0
6726 -11304 0
6726 -11305 0
6726 -11306 0
6726 -11307 0
11308 -10424 -10406 0
-11308 10424 0
-11308 10406 0
11309 -11240 -10406 0
-11309 11240 0
-11309 10406 0
11310 -11240 -10416 0
-11310 11240 0
-11310 10416 0
11311 -10424 -10416 -10404 0
-11311 10424 0
-11311 10416 0
-11311 10404 0
-6731 10447 11308 11309 11310 11311 0
6731 -10447 0
6731 -11308 0
6731 -11309 0
6731 -11310 0
6731 -11311 0
11312 -10424 -10408 0
-11312 10424 0
-11312 10408 0
11313 -11240 -10410 0
-11313 11240 0
-11313 10410 0
11314 -11240 -10408 0
-11314 11240 0
-11314 10408 0
11315 -10424 -10410 -10404 0
-11315 10424 0
-11315 10410 0
-11315 10404 0
-6736 10449 11312 11313 11314 11315 0
6736 -10449 0
6736 -11312 0
6736 -11313 0
6736 -11314 0
6736 -11315 0
11316 -10371 -10408 0
-11316 10371 0
-11316 10408 0
11317 -10368 -10408 0
-11317 10368 0
-11317 10408 0
11318 -10368 -10410 0
-11318 10368 0
-11318 10410 0
11319 -10371 -10410 -10404 0
-11319 10371 0
-11319 10410 0
-11319 10404 0
-6666 10379 11316 11317 11318 11319 0
6666 -10379 0
6666 -11316 0
6666 -11317 0
6666 -11318 0
6666 -11319 0
11320 -10416 -10400 0
-11320 10416 0
-11320 10400 0
11321 -10406 -10374 0
-11321 10406 0
-11321 10374 0
11322 -10406 -10400 0
-11322 10406 0
-11322 10400 0
11323 -10416 -10374 -10404 0
-11323 10416 0
-11323 10374 0
-11323 10404 0
-6681 10412 11320 11321 11322 11323 0
6681 -10412 0
6681 -11320 0
6681 -11321 0
6681 -11322 0
6681 -11323 0
11324 -10416 -10402 0
-11324 10416 0
-11324 10402 0
11325 -10406 -10392 0
-11325 10406 0
-11325 10392 0
11326 -10406 -10402 0
-11326 10406 0
-11326 10402 0
11327 -10416 -10392 -10404 0
-11327 10416 0
-11327 10392 0
-11327 10404 0
-6683 10414 11324 11325 11326 11327 0
6683 -10414 0
6683 -11324 0
6683 -11325 0
6683 -11326 0
6683 -11327 0
11328 -10416 -10368 0
-11328 10416 0
-11328 10368 0
11329 -10406 -10371 0
-11329 10406 0
-11329 10371 0
11330 -10406 -10368 0
-11330 10406 0
-11330 10368 0
11331 -10416 -10371 -10404 0
-11331 10416 0
-11331 10371 0
-11331 10404 0
-6663 10376 11328 11329 11330 11331 0
6663 -10376 0
6663 -11328 0
6663 -11329 0
6663 -11330 0
6663 -11331 0
11332 -10416 -10406 0
-11332 10416 0
-11332 10406 0
11333 -10406 -10406 0
-11333 10406 0
-11333 10406 0
11334 -10406 -10416 0
-11334 10406 0
-11334 10416 0
11335 -10416 -10416 -10404 0
-11335 10416 0
-11335 10416 0
-11335 10404 0
-6685 10418 11332 11333 11334 11335 0
6685 -10418 0
6685 -11332 0
6685 -11333 0
6685 -11334 0
6685 -11335 0
11336 -10631 -10849 0
-11336 10631 0
-11336 10849 0
11337 -10849 -10849 0
-11337 10849 0
-11337 10849 0
11338 -10849 -10631 0
-11338 10849 0
-11338 10631 0
11339 -10631 -10631 -10869 0
-11339 10631 0
-11339 10631 0
-11339 10869 0
-6497 10632 11336 11337 11338 11339 0
6497 -10632 0
6497 -11336 0
6497 -11337 0
6497 -11338 0
6497 -11339 0
11340 -10631 -10858 0
-11340 10631 0
-11340 10858 0
11341 -10849 -10858 0
-11341 10849 0
-11341 10858 0
11342 -10849 -10634 0
-11342 10849 0
-11342 10634 0
11343 -10631 -10634 -10869 0
-11343 10631 0
-11343 10634 0
-11343 10869 0
-6492 10635 11340 11341 11342 11343 0
6492 -10635 0
6492 -11340 0
6492 -11341 0
6492 -11342 0
6492 -11343 0
11344 -10631 -10867 0
-11344 10631 0
-11344 10867 0
11345 -10849 -10637 0
-11345 10849 0
-11345 10637 0
11346 -10849 -10867 0
-11346 10849 0
-11346 10867 0
11347 -10631 -10637 -10869 0
-11347 10631 0
-11347 10637 0
-11347 10869 0
-6491 10638 11344 11345 11346 11347 0
6491 -10638 0
6491 -11344 0
6491 -11345 0
6491 -11346 0
6491 -11347 0
11348 -10640 -10867 0
-11348 10640 0
-11348 10867 0
11349 -10865 -10867 0
-11349 10865 0
-11349 10867 0
11350 -10865 -10637 0
-11350 10865 0
-11350 10637 0
11351 -10640 -10637 -10869 0
-11351 10640 0
-11351 10637 0
-11351 10869 0
-6513 10641 11348 11349 11350 11351 0
6513 -10641 0
6513 -11348 0
6513 -11349 0
6513 -11350 0
6513 -11351 0
11352 -10631 -10960 0
-11352 10631 0
-11352 10960 0
11353 -10849 -10960 0
-11353 10849 0
-11353 10960 0
11354 -10849 -10643 0
-11354 10849 0
-11354 10643 0
11355 -10631 -10643 -10869 0
-11355 10631 0
-11355 10643 0
-11355 10869 0
-6504 10644 11352 11353 11354 11355 0
6504 -10644 0
6504 -11352 0
6504 -11353 0
6504 -11354 0
6504 -11355 0
11356 -10631 -10848 0
-11356 10631 0
-11356 10848 0
11357 -10849 -10646 0
-11357 10849 0
-11357 10646 0
11358 -10849 -10848 0
-11358 10849 0
-11358 10848 0
11359 -10631 -10646 -10869 0
-11359 10631 0
-11359 10646 0
-11359 10869 0
-6511 10647 11356 11357 11358 11359 0
6511 -10647 0
6511 -11356 0
6511 -11357 0
6511 -11358 0
6511 -11359 0
11360 -10640 -10848 0
-11360 10640 0
-11360 10848 0
11361 -10865 -10848 0
-11361 10865 0
-11361 10848 0
11362 -10865 -10646 0
-11362 10865 0
-11362 10646 0
11363 -10640 -10646 -10869 0
-11363 10640 0
-11363 10646 0
-11363 10869 0
-6518 10649 11360 11361 11362 11363 0
6518 -10649 0
6518 -11360 0
6518 -11361 0
6518 -11362 0
6518 -11363 0
11364 -10631 -10871 0
-11364 10631 0
-11364 10871 0
11365 -10849 -10871 0
-11365 10849 0
-11365 10871 0
11366 -10849 -10651 0
-11366 10849 0
-11366 10651 0
11367 -10631 -10651 -10869 0
-11367 10631 0
-11367 10651 0
-11367 10869 0
-6525 10652 11364 11365 11366 11367 0
6525 -10652 0
6525 -11364 0
6525 -11365 0
6525 -11366 0
6525 -11367 0
11368 -10631 -10873 0
-11368 10631 0
-11368 10873 0
11369 -10849 -10654 0
-11369 10849 0
-11369 10654 0
11370 -10849 -10873 0
-11370 10849 0
-11370 10873 0
11371 -10631 -10654 -10869 0
-11371 10631 0
-11371 10654 0
-11371 10869 0
-6532 10655 11368 11369 11370 11371 0
6532 -10655 0
6532 -11368 0
6532 -11369 0
6532 -11370 0
6532 -11371 0
11372 -10640 -10873 0
-11372 10640 0
-11372 10873 0
11373 -10865 -10873 0
-11373 10865 0
-11373 10873 0
11374 -10865 -10654 0
-11374 10865 0
-11374 10654 0
11375 -10640 -10654 -10869 0
-11375 10640 0
-11375 10654 0
-11375 10869 0
-6537 10657 11372 11373 11374 11375 0
6537 -10657 0
6537 -11372 0
6537 -11373 0
6537 -11374 0
6537 -11375 0
11376 -10634 -10865 0
-11376 10634 0
-11376 10865 0
11377 -10858 -10640 0
-11377 10858 0
-11377 10640 0
11378 -10858 -10865 0
-11378 10858 0
-11378 10865 0
11379 -10634 -10640 -10869 0
-11379 10634 0
-11379 10640 0
-11379 10869 0
-6515 10659 11376 11377 11378 11379 0
6515 -10659 0
6515 -11376 0
6515 -11377 0
6515 -11378 0
6515 -11379 0
11380 -10634 -10858 0
-11380 10634 0
-11380 10858 0
11381 -10858 -10858 0
-11381 10858 0
-11381 10858 0
11382 -10858 -10634 0
-11382 10858 0
-11382 10634 0
11383 -10634 -10634 -10869 0
-11383 10634 0
-11383 10634 0
-11383 10869 0
-6496 10661 11380 11381 11382 11383 0
6496 -10661 0
6496 -11380 0
6496 -11381 0
6496 -11382 0
6496 -11383 0
11384 -10634 -10960 0
-11384 10634 0
-11384 10960 0
11385 -10858 -10960 0
-11385 10858 0
-11385 10960 0
11386 -10858 -10643 0
-11386 10858 0
-11386 10643 0
11387 -10634 -10643 -10869 0
-11387 10634 0
-11387 10643 0
-11387 10869 0
-6499 10663 11384 11385 11386 11387 0
6499 -10663 0
6499 -11384 0
6499 -11385 0
6499 -11386 0
6499 -11387 0
11388 -10634 -10848 0
-11388 10634 0
-11388 10848 0
11389 -10858 -10646 0
-11389 10858 0
-11389 10646 0
11390 -10858 -10848 0
-11390 10858 0
-11390 10848 0
11391 -10634 -10646 -10869 0
-11391 10634 0
-11391 10646 0
-11391 10869 0
-6506 10665 11388 11389 11390 11391 0
6506 -10665 0
6506 -11388 0
6506 -11389 0
6506 -11390 0
6506 -11391 0
11392 -10637 -10848 0
-11392 10637 0
-11392 10848 0
11393 -10867 -10848 0
-11393 10867 0
-11393 10848 0
11394 -10867 -10646 0
-11394 10867 0
-11394 10646 0
11395 -10637 -10646 -10869 0
-11395 10637 0
-11395 10646 0
-11395 10869 0
-6508 10667 11392 11393 11394 11395 0
6508 -10667 0
6508 -11392 0
6508 -11393 0
6508 -11394 0
6508 -11395 0
11396 -10634 -10871 0
-11396 10634 0
-11396 10871 0
11397 -10858 -10871 0
-11397 10858 0
-11397 10871 0
11398 -10858 -10651 0
-11398 10858 0
-11398 10651 0
11399 -10634 -10651 -10869 0
-11399 10634 0
-11399 10651 0
-11399 10869 0
-6520 10669 11396 11397 11398 11399 0
6520 -10669 0
6520 -11396 0
6520 -11397 0
6520 -11398 0
6520 -11399 0
11400 -10634 -10873 0
-11400 10634 0
-11400 10873 0
11401 -10858 -10654 0
-11401 10858 0
-11401 10654 0
11402 -10858 -10873 0
-11402 10858 0
-11402 10873 0
11403 -10634 -10654 -10869 0
-11403 10634 0
-11403 10654 0
-11403 10869 0
-6527 10671 11400 11401 11402 11403 0
6527 -10671 0
6527 -11400 0
6527 -11401 0
6527 -11402 0
6527 -11403 0
11404 -10637 -10873 0
-11404 10637 0
-11404 10873 0
11405 -10867 -10873 0
-11405 10867 0
-11405 10873 0
11406 -10867 -10654 0
-11406 10867 0
-11406 10654 0
11407 -10637 -10654 -10869 0
-11407 10637 0
-11407 10654 0
-11407 10869 0
-6529 10673 11404 11405 11406 11407 0
6529 -10673 0
6529 -11404 0
6529 -11405 0
6529 -11406 0
6529 -11407 0
11408 -10643 -10865 0
-11408 10643 0
-11408 10865 0
11409 -10960 -10640 0
-11409 10960 0
-11409 10640 0
11410 -10960 -10865 0
-11410 10960 0
-11410 10865 0
11411 -10643 -10640 -10869 0
-11411 10643 0
-11411 10640 0
-11411 10869 0
-6542 10675 11408 11409 11410 11411 0
6542 -10675 0
6542 -11408 0
6542 -11409 0
6542 -11410 0
6542 -11411 0
11412 -10643 -10867 0
-11412 10643 0
-11412 10867 0
11413 -10960 -10637 0
-11413 10960 0
-11413 10637 0
11414 -10960 -10867 0
-11414 10960 0
-11414 10867 0
11415 -10643 -10637 -10869 0
-11415 10643 0
-11415 10637 0
-11415 10869 0
-6502 10677 11412 11413 11414 11415 0
6502 -10677 0
6502 -11412 0
6502 -11413 0
6502 -11414 0
6502 -11415 0
11416 -10643 -10960 0
-11416 10643 0
-11416 10960 0
11025 -10960 -10960 0
-11025 10960 0
-11025 10960 0
11417 -10960 -10643 0
-11417 10960 0
-11417 10643 0
11418 -10643 -10643 -10869 0
-11418 10643 0
-11418 10643 0
-11418 10869 0
-6547 10679 11416 11025 11417 11418 0
6547 -10679 0
6547 -11416 0
6547 -11025 0
6547 -11417 0
6547 -11418 0
11419 -10643 -10871 0
-11419 10643 0
-11419 10871 0
11420 -10960 -10871 0
-11420 10960 0
-11420 10871 0
11421 -10960 -10651 0
-11421 10960 0
-11421 10651 0
11422 -10643 -10651 -10869 0
-11422 10643 0
-11422 10651 0
-11422 10869 0
-6552 10681 11419 11420 11421 11422 0
6552 -10681 0
6552 -11419 0
6552 -11420 0
6552 -11421 0
6552 -11422 0
11423 -10643 -10873 0
-11423 10643 0
-11423 10873 0
11424 -10960 -10654 0
-11424 10960 0
-11424 10654 0
11425 -10960 -10873 0
-11425 10960 0
-11425 10873 0
11426 -10643 -10654 -10869 0
-11426 10643 0
-11426 10654 0
-11426 10869 0
-6557 10683 11423 11424 11425 11426 0
6557 -10683 0
6557 -11423 0
6557 -11424 0
6557 -11425 0
6557 -11426 0
11427 -10646 -10873 0
-11427 10646 0
-11427 10873 0
11428 -10848 -10873 0
-11428 10848 0
-11428 10873 0
11429 -10848 -10654 0
-11429 10848 0
-11429 10654 0
11430 -10646 -10654 -10869 0
-11430 10646 0
-11430 10654 0
-11430 10869 0
-6562 10685 11427 11428 11429 11430 0
6562 -10685 0
6562 -11427 0
6562 -11428 0
6562 -11429 0
6562 -11430 0
11431 -10651 -10865 0
-11431 10651 0
-11431 10865 0
11432 -10871 -10640 0
-11432 10871 0
-11432 10640 0
11433 -10871 -10865 0
-11433 10871 0
-11433 10865 0
11434 -10651 -10640 -10869 0
-11434 10651 0
-11434 10640 0
-11434 10869 0
-6567 10687 11431 11432 11433 11434 0
6567 -10687 0
6567 -11431 0
6567 -11432 0
6567 -11433 0
6567 -11434 0
11435 -10651 -10867 0
-11435 10651 0
-11435 10867 0
11436 -10871 -10637 0
-11436 10871 0
-11436 10637 0
11437 -10871 -10867 0
-11437 10871 0
-11437 10867 0
11438 -10651 -10637 -10869 0
-11438 10651 0
-11438 10637 0
-11438 10869 0
-6523 10689 11435 11436 11437 11438 0
6523 -10689 0
6523 -11435 0
6523 -11436 0
6523 -11437 0
6523 -11438 0
11439 -10651 -10848 0
-11439 10651 0
-11439 10848 0
11440 -10871 -10646 0
-11440 10871 0
-11440 10646 0
11441 -10871 -10848 0
-11441 10871 0
-11441 10848 0
11442 -10651 -10646 -10869 0
-11442 10651 0
-11442 10646 0
-11442 10869 0
-6572 10691 11439 11440 11441 11442 0
6572 -10691 0
6572 -11439 0
6572 -11440 0
6572 -11441 0
6572 -11442 0
11443 -10651 -10871 0
-11443 10651 0
-11443 10871 0
11444 -10871 -10871 0
-11444 10871 0
-11444 10871 0
11445 -10871 -10651 0
-11445 10871 0
-11445 10651 0
11446 -10651 -10651 -10869 0
-11446 10651 0
-11446 10651 0
-11446 10869 0
-6577 10693 11443 11444 11445 11446 0
6577 -10693 0
6577 -11443 0
6577 -11444 0
6577 -11445 0
6577 -11446 0
11447 -10472 -10469 0
-11447 10472 0
-11447 10469 0
11448 -10469 -10469 0
-11448 10469 0
-11448 10469 0
11449 -10469 -10472 0
-11449 10469 0
-11449 10472 0
11450 -10472 -10472 -10504 0
-11450 10472 0
-11450 10472 0
-11450 10504 0
-7906 10457 11447 11448 11449 11450 0
7906 -10457 0
7906 -11447 0
7906 -11448 0
7906 -11449 0
7906 -11450 0
11451 -10472 -10488 0
-11451 10472 0
-11451 10488 0
11452 -10469 -10488 0
-11452 10469 0
-11452 10488 0
11453 -10469 -10490 0
-11453 10469 0
-11453 10490 0
11454 -10472 -10490 -10504 0
-11454 10472 0
-11454 10490 0
-11454 10504 0
-7901 10460 11451 11452 11453 11454 0
7901 -10460 0
7901 -11451 0
7901 -11452 0
7901 -11453 0
7901 -11454 0
11455 -10472 -10502 0
-11455 10472 0
-11455 10502 0
11456 -10469 -10492 0
-11456 10469 0
-11456 10492 0
11457 -10469 -10502 0
-11457 10469 0
-11457 10502 0
11458 -10472 -10492 -10504 0
-11458 10472 0
-11458 10492 0
-11458 10504 0
-7900 10463 11455 11456 11457 11458 0
7900 -10463 0
7900 -11455 0
7900 -11456 0
7900 -11457 0
7900 -11458 0
11459 -10474 -10502 0
-11459 10474 0
-11459 10502 0
11460 -10500 -10502 0
-11460 10500 0
-11460 10502 0
11461 -10500 -10492 0
-11461 10500 0
-11461 10492 0
11462 -10474 -10492 -10504 0
-11462 10474 0
-11462 10492 0
-11462 10504 0
-7922 10466 11459 11460 11461 11462 0
7922 -10466 0
7922 -11459 0
7922 -11460 0
7922 -11461 0
7922 -11462 0
11463 -10472 -10747 0
-11463 10472 0
-11463 10747 0
11464 -10469 -10747 0
-11464 10469 0
-11464 10747 0
11465 -10469 -10699 0
-11465 10469 0
-11465 10699 0
11466 -10472 -10699 -10504 0
-11466 10472 0
-11466 10699 0
-11466 10504 0
-7913 10700 11463 11464 11465 11466 0
7913 -10700 0
7913 -11463 0
7913 -11464 0
7913 -11465 0
7913 -11466 0
11467 -10472 -10468 0
-11467 10472 0
-11467 10468 0
11468 -10469 -10471 0
-11468 10469 0
-11468 10471 0
11469 -10469 -10468 0
-11469 10469 0
-11469 10468 0
11470 -10472 -10471 -10504 0
-11470 10472 0
-11470 10471 0
-11470 10504 0
-7920 10456 11467 11468 11469 11470 0
7920 -10456 0
7920 -11467 0
7920 -11468 0
7920 -11469 0
7920 -11470 0
11471 -10474 -10468 0
-11471 10474 0
-11471 10468 0
11472 -10500 -10468 0
-11472 10500 0
-11472 10468 0
11473 -10500 -10471 0
-11473 10500 0
-11473 10471 0
11474 -10474 -10471 -10504 0
-11474 10474 0
-11474 10471 0
-11474 10504 0
-7927 10465 11471 11472 11473 11474 0
7927 -10465 0
7927 -11471 0
7927 -11472 0
7927 -11473 0
7927 -11474 0
11475 -10472 -10506 0
-11475 10472 0
-11475 10506 0
11476 -10469 -10506 0
-11476 10469 0
-11476 10506 0
11477 -10469 -10516 0
-11477 10469 0
-11477 10516 0
11478 -10472 -10516 -10504 0
-11478 10472 0
-11478 10516 0
-11478 10504 0
-7934 10477 11475 11476 11477 11478 0
7934 -10477 0
7934 -11475 0
7934 -11476 0
7934 -11477 0
7934 -11478 0
11479 -10472 -10508 0
-11479 10472 0
-11479 10508 0
11480 -10469 -10510 0
-11480 10469 0
-11480 10510 0
11481 -10469 -10508 0
-11481 10469 0
-11481 10508 0
11482 -10472 -10510 -10504 0
-11482 10472 0
-11482 10510 0
-11482 10504 0
-7941 10480 11479 11480 11481 11482 0
7941 -10480 0
7941 -11479 0
7941 -11480 0
7941 -11481 0
7941 -11482 0
11483 -10474 -10508 0
-11483 10474 0
-11483 10508 0
11484 -10500 -10508 0
-11484 10500 0
-11484 10508 0
11485 -10500 -10510 0
-11485 10500 0
-11485 10510 0
11486 -10474 -10510 -10504 0
-11486 10474 0
-11486 10510 0
-11486 10504 0
-7946 10482 11483 11484 11485 11486 0
7946 -10482 0
7946 -11483 0
7946 -11484 0
7946 -11485 0
7946 -11486 0
11487 -10490 -10500 0
-11487 10490 0
-11487 10500 0
11488 -10488 -10474 0
-11488 10488 0
-11488 10474 0
11489 -10488 -10500 0
-11489 10488 0
-11489 10500 0
11490 -10490 -10474 -10504 0
-11490 10490 0
-11490 10474 0
-11490 10504 0
-7924 10484 11487 11488 11489 11490 0
7924 -10484 0
7924 -11487 0
7924 -11488 0
7924 -11489 0
7924 -11490 0
11491 -10490 -10488 0
-11491 10490 0
-11491 10488 0
11492 -10488 -10488 0
-11492 10488 0
-11492 10488 0
11493 -10488 -10490 0
-11493 10488 0
-11493 10490 0
11494 -10490 -10490 -10504 0
-11494 10490 0
-11494 10490 0
-11494 10504 0
-7905 10486 11491 11492 11493 11494 0
7905 -10486 0
7905 -11491 0
7905 -11492 0
7905 -11493 0
7905 -11494 0
11495 -10490 -10747 0
-11495 10490 0
-11495 10747 0
11496 -10488 -10747 0
-11496 10488 0
-11496 10747 0
11497 -10488 -10699 0
-11497 10488 0
-11497 10699 0
11498 -10490 -10699 -10504 0
-11498 10490 0
-11498 10699 0
-11498 10504 0
-7908 10709 11495 11496 11497 11498 0
7908 -10709 0
7908 -11495 0
7908 -11496 0
7908 -11497 0
7908 -11498 0
11499 -10490 -10468 0
-11499 10490 0
-11499 10468 0
11500 -10488 -10471 0
-11500 10488 0
-11500 10471 0
11501 -10488 -10468 0
-11501 10488 0
-11501 10468 0
11502 -10490 -10471 -10504 0
-11502 10490 0
-11502 10471 0
-11502 10504 0
-7915 10459 11499 11500 11501 11502 0
7915 -10459 0
7915 -11499 0
7915 -11500 0
7915 -11501 0
7915 -11502 0
11503 -10492 -10468 0
-11503 10492 0
-11503 10468 0
11504 -10502 -10468 0
-11504 10502 0
-11504 10468 0
11505 -10502 -10471 0
-11505 10502 0
-11505 10471 0
11506 -10492 -10471 -10504 0
-11506 10492 0
-11506 10471 0
-11506 10504 0
-7917 10462 11503 11504 11505 11506 0
7917 -10462 0
7917 -11503 0
7917 -11504 0
7917 -11505 0
7917 -11506 0
11507 -10490 -10506 0
-11507 10490 0
-11507 10506 0
11508 -10488 -10506 0
-11508 10488 0
-11508 10506 0
11509 -10488 -10516 0
-11509 10488 0
-11509 10516 0
11510 -10490 -10516 -10504 0
-11510 10490 0
-11510 10516 0
-11510 10504 0
-7929 10494 11507 11508 11509 11510 0
7929 -10494 0
7929 -11507 0
7929 -11508 0
7929 -11509 0
7929 -11510 0
11511 -10490 -10508 0
-11511 10490 0
-11511 10508 0
11512 -10488 -10510 0
-11512 10488 0
-11512 10510 0
11513 -10488 -10508 0
-11513 10488 0
-11513 10508 0
11514 -10490 -10510 -10504 0
-11514 10490 0
-11514 10510 0
-11514 10504 0
-7936 10496 11511 11512 11513 11514 0
7936 -10496 0
7936 -11511 0
7936 -11512 0
7936 -11513 0
7936 -11514 0
11515 -10492 -10508 0
-11515 10492 0
-11515 10508 0
11516 -10502 -10508 0
-11516 10502 0
-11516 10508 0
11517 -10502 -10510 0
-11517 10502 0
-11517 10510 0
11518 -10492 -10510 -10504 0
-11518 10492 0
-11518 10510 0
-11518 10504 0
-7938 10498 11515 11516 11517 11518 0
7938 -10498 0
7938 -11515 0
7938 -11516 0
7938 -11517 0
7938 -11518 0
11519 -10699 -10500 0
-11519 10699 0
-11519 10500 0
11520 -10747 -10474 0
-11520 10747 0
-11520 10474 0
11521 -10747 -10500 0
-11521 10747 0
-11521 10500 0
11522 -10699 -10474 -10504 0
-11522 10699 0
-11522 10474 0
-11522 10504 0
-7951 10716 11519 11520 11521 11522 0
7951 -10716 0
7951 -11519 0
7951 -11520 0
7951 -11521 0
7951 -11522 0
11523 -10699 -10502 0
-11523 10699 0
-11523 10502 0
11524 -10747 -10492 0
-11524 10747 0
-11524 10492 0
11525 -10747 -10502 0
-11525 10747 0
-11525 10502 0
11526 -10699 -10492 -10504 0
-11526 10699 0
-11526 10492 0
-11526 10504 0
-7911 10718 11523 11524 11525 11526 0
7911 -10718 0
7911 -11523 0
7911 -11524 0
7911 -11525 0
7911 -11526 0
11527 -10699 -10747 0
-11527 10699 0
-11527 10747 0
10812 -10747 -10747 0
-10812 10747 0
-10812 10747 0
11528 -10747 -10699 0
-11528 10747 0
-11528 10699 0
11529 -10699 -10699 -10504 0
-11529 10699 0
-11529 10699 0
-11529 10504 0
-7956 10720 11527 10812 11528 11529 0
7956 -10720 0
7956 -11527 0
7956 -10812 0
7956 -11528 0
7956 -11529 0
11530 -10699 -10506 0
-11530 10699 0
-11530 10506 0
11531 -10747 -10506 0
-11531 10747 0
-11531 10506 0
11532 -10747 -10516 0
-11532 10747 0
-11532 10516 0
11533 -10699 -10516 -10504 0
-11533 10699 0
-11533 10516 0
-11533 10504 0
-7961 10722 11530 11531 11532 11533 0
7961 -10722 0
7961 -11530 0
7961 -11531 0
7961 -11532 0
7961 -11533 0
11534 -10699 -10508 0
-11534 10699 0
-11534 10508 0
11535 -10747 -10510 0
-11535 10747 0
-11535 10510 0
11536 -10747 -10508 0
-11536 10747 0
-11536 10508 0
11537 -10699 -10510 -10504 0
-11537 10699 0
-11537 10510 0
-11537 10504 0
-7966 10724 11534 11535 11536 11537 0
7966 -10724 0
7966 -11534 0
7966 -11535 0
7966 -11536 0
7966 -11537 0
11538 -10471 -10508 0
-11538 10471 0
-11538 10508 0
11539 -10468 -10508 0
-11539 10468 0
-11539 10508 0
11540 -10468 -10510 0
-11540 10468 0
-11540 10510 0
11541 -10471 -10510 -10504 0
-11541 10471 0
-11541 10510 0
-11541 10504 0
-7971 10479 11538 11539 11540 11541 0
7971 -10479 0
7971 -11538 0
7971 -11539 0
7971 -11540 0
7971 -11541 0
11542 -10516 -10500 0
-11542 10516 0
-11542 10500 0
11543 -10506 -10474 0
-11543 10506 0
-11543 10474 0
11544 -10506 -10500 0
-11544 10506 0
-11544 10500 0
11545 -10516 -10474 -10504 0
-11545 10516 0
-11545 10474 0
-11545 10504 0
-7976 10512 11542 11543 11544 11545 0
7976 -10512 0
7976 -11542 0
7976 -11543 0
7976 -11544 0
7976 -11545 0
11546 -10516 -10502 0
-11546 10516 0
-11546 10502 0
11547 -10506 -10492 0
-11547 10506 0
-11547 10492 0
11548 -10506 -10502 0
-11548 10506 0
-11548 10502 0
11549 -10516 -10492 -10504 0
-11549 10516 0
-11549 10492 0
-11549 10504 0
-7932 10514 11546 11547 11548 11549 0
7932 -10514 0
7932 -11546 0
7932 -11547 0
7932 -11548 0
7932 -11549 0
11550 -10516 -10468 0
-11550 10516 0
-11550 10468 0
11551 -10506 -10471 0
-11551 10506 0
-11551 10471 0
11552 -10506 -10468 0
-11552 10506 0
-11552 10468 0
11553 -10516 -10471 -10504 0
-11553 10516 0
-11553 10471 0
-11553 10504 0
-7981 10476 11550 11551 11552 11553 0
7981 -10476 0
7981 -11550 0
7981 -11551 0
7981 -11552 0
7981 -11553 0
11554 -10516 -10506 0
-11554 10516 0
-11554 10506 0
11137 -10506 -10506 0
-11137 10506 0
-11137 10506 0
11555 -10506 -10516 0
-11555 10506 0
-11555 10516 0
11556 -10516 -10516 -10504 0
-11556 10516 0
-11556 10516 0
-11556 10504 0
-7986 10518 11554 11137 11555 11556 0
7986 -10518 0
7986 -11554 0
7986 -11137 0
7986 -11555 0
7986 -11556 0
11557 -10123 -10120 0
-11557 10123 0
-11557 10120 0
11558 -10120 -10120 0
-11558 10120 0
-11558 10120 0
11559 -10120 -10123 0
-11559 10120 0
-11559 10123 0
11560 -10123 -10123 -10155 0
-11560 10123 0
-11560 10123 0
-11560 10155 0
-8387 10108 11557 11558 11559 11560 0
8387 -10108 0
8387 -11557 0
8387 -11558 0
8387 -11559 0
8387 -11560 0
11561 -10123 -10139 0
-11561 10123 0
-11561 10139 0
11562 -10120 -10139 0
-11562 10120 0
-11562 10139 0
11563 -10120 -10141 0
-11563 10120 0
-11563 10141 0
11564 -10123 -10141 -10155 0
-11564 10123 0
-11564 10141 0
-11564 10155 0
-8382 10111 11561 11562 11563 11564 0
8382 -10111 0
8382 -11561 0
8382 -11562 0
8382 -11563 0
8382 -11564 0
11565 -10123 -10153 0
-11565 10123 0
-11565 10153 0
11566 -10120 -10143 0
-11566 10120 0
-11566 10143 0
11567 -10120 -10153 0
-11567 10120 0
-11567 10153 0
11568 -10123 -10143 -10155 0
-11568 10123 0
-11568 10143 0
-11568 10155 0
-8381 10114 11565 11566 11567 11568 0
8381 -10114 0
8381 -11565 0
8381 -11566 0
8381 -11567 0
8381 -11568 0
11569 -10125 -10153 0
-11569 10125 0
-11569 10153 0
11570 -10151 -10153 0
-11570 10151 0
-11570 10153 0
11571 -10151 -10143 0
-11571 10151 0
-11571 10143 0
11572 -10125 -10143 -10155 0
-11572 10125 0
-11572 10143 0
-11572 10155 0
-8403 10117 11569 11570 11571 11572 0
8403 -10117 0
8403 -11569 0
8403 -11570 0
8403 -11571 0
8403 -11572 0
11573 -10123 -10329 0
-11573 10123 0
-11573 10329 0
11574 -10120 -10329 0
-11574 10120 0
-11574 10329 0
11575 -10120 -10334 0
-11575 10120 0
-11575 10334 0
11576 -10123 -10334 -10155 0
-11576 10123 0
-11576 10334 0
-11576 10155 0
-8394 10256 11573 11574 11575 11576 0
8394 -10256 0
8394 -11573 0
8394 -11574 0
8394 -11575 0
8394 -11576 0
11577 -10123 -10119 0
-11577 10123 0
-11577 10119 0
11578 -10120 -10122 0
-11578 10120 0
-11578 10122 0
11579 -10120 -10119 0
-11579 10120 0
-11579 10119 0
11580 -10123 -10122 -10155 0
-11580 10123 0
-11580 10122 0
-11580 10155 0
-8401 10107 11577 11578 11579 11580 0
8401 -10107 0
8401 -11577 0
8401 -11578 0
8401 -11579 0
8401 -11580 0
11581 -10125 -10119 0
-11581 10125 0
-11581 10119 0
11582 -10151 -10119 0
-11582 10151 0
-11582 10119 0
11583 -10151 -10122 0
-11583 10151 0
-11583 10122 0
11584 -10125 -10122 -10155 0
-11584 10125 0
-11584 10122 0
-11584 10155 0
-8408 10116 11581 11582 11583 11584 0
8408 -10116 0
8408 -11581 0
8408 -11582 0
8408 -11583 0
8408 -11584 0
11585 -10123 -10157 0
-11585 10123 0
-11585 10157 0
11586 -10120 -10157 0
-11586 10120 0
-11586 10157 0
11587 -10120 -10167 0
-11587 10120 0
-11587 10167 0
11588 -10123 -10167 -10155 0
-11588 10123 0
-11588 10167 0
-11588 10155 0
-8415 10128 11585 11586 11587 11588 0
8415 -10128 0
8415 -11585 0
8415 -11586 0
8415 -11587 0
8415 -11588 0
11589 -10123 -10159 0
-11589 10123 0
-11589 10159 0
11590 -10120 -10161 0
-11590 10120 0
-11590 10161 0
11591 -10120 -10159 0
-11591 10120 0
-11591 10159 0
11592 -10123 -10161 -10155 0
-11592 10123 0
-11592 10161 0
-11592 10155 0
-8422 10131 11589 11590 11591 11592 0
8422 -10131 0
8422 -11589 0
8422 -11590 0
8422 -11591 0
8422 -11592 0
11593 -10125 -10159 0
-11593 10125 0
-11593 10159 0
11594 -10151 -10159 0
-11594 10151 0
-11594 10159 0
11595 -10151 -10161 0
-11595 10151 0
-11595 10161 0
11596 -10125 -10161 -10155 0
-11596 10125 0
-11596 10161 0
-11596 10155 0
-8427 10133 11593 11594 11595 11596 0
8427 -10133 0
8427 -11593 0
8427 -11594 0
8427 -11595 0
8427 -11596 0
11597 -10141 -10151 0
-11597 10141 0
-11597 10151 0
11598 -10139 -10125 0
-11598 10139 0
-11598 10125 0
11599 -10139 -10151 0
-11599 10139 0
-11599 10151 0
11600 -10141 -10125 -10155 0
-11600 10141 0
-11600 10125 0
-11600 10155 0
-8405 10135 11597 11598 11599 11600 0
8405 -10135 0
8405 -11597 0
8405 -11598 0
8405 -11599 0
8405 -11600 0
11601 -10141 -10139 0
-11601 10141 0
-11601 10139 0
11602 -10139 -10139 0
-11602 10139 0
-11602 10139 0
11603 -10139 -10141 0
-11603 10139 0
-11603 10141 0
11604 -10141 -10141 -10155 0
-11604 10141 0
-11604 10141 0
-11604 10155 0
-8386 10137 11601 11602 11603 11604 0
8386 -10137 0
8386 -11601 0
8386 -11602 0
8386 -11603 0
8386 -11604 0
11605 -10141 -10329 0
-11605 10141 0
-11605 10329 0
11606 -10139 -10329 0
-11606 10139 0
-11606 10329 0
11607 -10139 -10334 0
-11607 10139 0
-11607 10334 0
11608 -10141 -10334 -10155 0
-11608 10141 0
-11608 10334 0
-11608 10155 0
-8389 10289 11605 11606 11607 11608 0
8389 -10289 0
8389 -11605 0
8389 -11606 0
8389 -11607 0
8389 -11608 0
11609 -10141 -10119 0
-11609 10141 0
-11609 10119 0
11610 -10139 -10122 0
-11610 10139 0
-11610 10122 0
11611 -10139 -10119 0
-11611 10139 0
-11611 10119 0
11612 -10141 -10122 -10155 0
-11612 10141 0
-11612 10122 0
-11612 10155 0
-8396 10110 11609 11610 11611 11612 0
8396 -10110 0
8396 -11609 0
8396 -11610 0
8396 -11611 0
8396 -11612 0
11613 -10143 -10119 0
-11613 10143 0
-11613 10119 0
11614 -10153 -10119 0
-11614 10153 0
-11614 10119 0
11615 -10153 -10122 0
-11615 10153 0
-11615 10122 0
11616 -10143 -10122 -10155 0
-11616 10143 0
-11616 10122 0
-11616 10155 0
-8398 10113 11613 11614 11615 11616 0
8398 -10113 0
8398 -11613 0
8398 -11614 0
8398 -11615 0
8398 -11616 0
11617 -10141 -10157 0
-11617 10141 0
-11617 10157 0
11618 -10139 -10157 0
-11618 10139 0
-11618 10157 0
11619 -10139 -10167 0
-11619 10139 0
-11619 10167 0
11620 -10141 -10167 -10155 0
-11620 10141 0
-11620 10167 0
-11620 10155 0
-8410 10145 11617 11618 11619 11620 0
8410 -10145 0
8410 -11617 0
8410 -11618 0
8410 -11619 0
8410 -11620 0
11621 -10141 -10159 0
-11621 10141 0
-11621 10159 0
11622 -10139 -10161 0
-11622 10139 0
-11622 10161 0
11623 -10139 -10159 0
-11623 10139 0
-11623 10159 0
11624 -10141 -10161 -10155 0
-11624 10141 0
-11624 10161 0
-11624 10155 0
-8417 10147 11621 11622 11623 11624 0
8417 -10147 0
8417 -11621 0
8417 -11622 0
8417 -11623 0
8417 -11624 0
11625 -10143 -10159 0
-11625 10143 0
-11625 10159 0
11626 -10153 -10159 0
-11626 10153 0
-11626 10159 0
11627 -10153 -10161 0
-11627 10153 0
-11627 10161 0
11628 -10143 -10161 -10155 0
-11628 10143 0
-11628 10161 0
-11628 10155 0
-8419 10149 11625 11626 11627 11628 0
8419 -10149 0
8419 -11625 0
8419 -11626 0
8419 -11627 0
8419 -11628 0
11629 -10334 -10151 0
-11629 10334 0
-11629 10151 0
11630 -10329 -10125 0
-11630 10329 0
-11630 10125 0
11631 -10329 -10151 0
-11631 10329 0
-11631 10151 0
11632 -10334 -10125 -10155 0
-11632 10334 0
-11632 10125 0
-11632 10155 0
-8432 10314 11629 11630 11631 11632 0
8432 -10314 0
8432 -11629 0
8432 -11630 0
8432 -11631 0
8432 -11632 0
11633 -10334 -10153 0
-11633 10334 0
-11633 10153 0
11634 -10329 -10143 0
-11634 10329 0
-11634 10143 0
11635 -10329 -10153 0
-11635 10329 0
-11635 10153 0
11636 -10334 -10143 -10155 0
-11636 10334 0
-11636 10143 0
-11636 10155 0
-8392 10319 11633 11634 11635 11636 0
8392 -10319 0
8392 -11633 0
8392 -11634 0
8392 -11635 0
8392 -11636 0
11637 -10334 -10329 0
-11637 10334 0
-11637 10329 0
10600 -10329 -10329 0
-10600 10329 0
-10600 10329 0
11638 -10329 -10334 0
-11638 10329 0
-11638 10334 0
11639 -10334 -10334 -10155 0
-11639 10334 0
-11639 10334 0
-11639 10155 0
-8437 10324 11637 10600 11638 11639 0
8437 -10324 0
8437 -11637 0
8437 -10600 0
8437 -11638 0
8437 -11639 0
11640 -10334 -10157 0
-11640 10334 0
-11640 10157 0
11641 -10329 -10157 0
-11641 10329 0
-11641 10157 0
11642 -10329 -10167 0
-11642 10329 0
-11642 10167 0
11643 -10334 -10167 -10155 0
-11643 10334 0
-11643 10167 0
-11643 10155 0
-8442 10251 11640 11641 11642 11643 0
8442 -10251 0
8442 -11640 0
8442 -11641 0
8442 -11642 0
8442 -11643 0
11644 -10334 -10159 0
-11644 10334 0
-11644 10159 0
11645 -10329 -10161 0
-11645 10329 0
-11645 10161 0
11646 -10329 -10159 0
-11646 10329 0
-11646 10159 0
11647 -10334 -10161 -10155 0
-11647 10334 0
-11647 10161 0
-11647 10155 0
-8447 10254 11644 11645 11646 11647 0
8447 -10254 0
8447 -11644 0
8447 -11645 0
8447 -11646 0
8447 -11647 0
11648 -10122 -10159 0
-11648 10122 0
-11648 10159 0
11649 -10119 -10159 0
-11649 10119 0
-11649 10159 0
11650 -10119 -10161 0
-11650 10119 0
-11650 10161 0
11651 -10122 -10161 -10155 0
-11651 10122 0
-11651 10161 0
-11651 10155 0
-8452 10130 11648 11649 11650 11651 0
8452 -10130 0
8452 -11648 0
8452 -11649 0
8452 -11650 0
8452 -11651 0
11652 -10167 -10151 0
-11652 10167 0
-11652 10151 0
11653 -10157 -10125 0
-11653 10157 0
-11653 10125 0
11654 -10157 -10151 0
-11654 10157 0
-11654 10151 0
11655 -10167 -10125 -10155 0
-11655 10167 0
-11655 10125 0
-11655 10155 0
-8457 10163 11652 11653 11654 11655 0
8457 -10163 0
8457 -11652 0
8457 -11653 0
8457 -11654 0
8457 -11655 0
11656 -10167 -10153 0
-11656 10167 0
-11656 10153 0
11657 -10157 -10143 0
-11657 10157 0
-11657 10143 0
11658 -10157 -10153 0
-11658 10157 0
-11658 10153 0
11659 -10167 -10143 -10155 0
-11659 10167 0
-11659 10143 0
-11659 10155 0
-8413 10165 11656 11657 11658 11659 0
8413 -10165 0
8413 -11656 0
8413 -11657 0
8413 -11658 0
8413 -11659 0
11660 -10167 -10119 0
-11660 10167 0
-11660 10119 0
11661 -10157 -10122 0
-11661 10157 0
-11661 10122 0
11662 -10157 -10119 0
-11662 10157 0
-11662 10119 0
11663 -10167 -10122 -10155 0
-11663 10167 0
-11663 10122 0
-11663 10155 0
-8462 10127 11660 11661 11662 11663 0
8462 -10127 0
8462 -11660 0
8462 -11661 0
8462 -11662 0
8462 -11663 0
11664 -10167 -10157 0
-11664 10167 0
-11664 10157 0
10352 -10157 -10157 0
-10352 10157 0
-10352 10157 0
11665 -10157 -10167 0
-11665 10157 0
-11665 10167 0
11666 -10167 -10167 -10155 0
-11666 10167 0
-11666 10167 0
-11666 10155 0
-8467 10169 11664 10352 11665 11666 0
8467 -10169 0
8467 -11664 0
8467 -10352 0
8467 -11665 0
8467 -11666 0
11667 -10171 -11668 0
-11667 10171 0
-11667 11668 0
11669 -11668 -11668 0
-11669 11668 0
-11669 11668 0
11670 -11668 -10171 0
-11670 11668 0
-11670 10171 0
11671 -10171 -10171 -11672 0
-11671 10171 0
-11671 10171 0
-11671 11672 0
-9285 10172 11667 11669 11670 11671 0
9285 -10172 0
9285 -11667 0
9285 -11669 0
9285 -11670 0
9285 -11671 0
11673 -10171 -11674 0
-11673 10171 0
-11673 11674 0
11675 -11668 -11674 0
-11675 11668 0
-11675 11674 0
11676 -11668 -10174 0
-11676 11668 0
-11676 10174 0
11677 -10171 -10174 -11672 0
-11677 10171 0
-11677 10174 0
-11677 11672 0
-9280 10175 11673 11675 11676 11677 0
9280 -10175 0
9280 -11673 0
9280 -11675 0
9280 -11676 0
9280 -11677 0
11678 -10171 -11679 0
-11678 10171 0
-11678 11679 0
11680 -11668 -10177 0
-11680 11668 0
-11680 10177 0
11681 -11668 -11679 0
-11681 11668 0
-11681 11679 0
11682 -10171 -10177 -11672 0
-11682 10171 0
-11682 10177 0
-11682 11672 0
-9279 10178 11678 11680 11681 11682 0
9279 -10178 0
9279 -11678 0
9279 -11680 0
9279 -11681 0
9279 -11682 0
11683 -10180 -11679 0
-11683 10180 0
-11683 11679 0
11684 -11685 -11679 0
-11684 11685 0
-11684 11679 0
11686 -11685 -10177 0
-11686 11685 0
-11686 10177 0
11687 -10180 -10177 -11672 0
-11687 10180 0
-11687 10177 0
-11687 11672 0
-9301 10181 11683 11684 11686 11687 0
9301 -10181 0
9301 -11683 0
9301 -11684 0
9301 -11686 0
9301 -11687 0
11688 -10171 -11689 0
-11688 10171 0
-11688 11689 0
11690 -11668 -11689 0
-11690 11668 0
-11690 11689 0
11691 -11668 -10183 0
-11691 11668 0
-11691 10183 0
11692 -10171 -10183 -11672 0
-11692 10171 0
-11692 10183 0
-11692 11672 0
-9292 10184 11688 11690 11691 11692 0
9292 -10184 0
9292 -11688 0
9292 -11690 0
9292 -11691 0
9292 -11692 0
11693 -10171 -11694 0
-11693 10171 0
-11693 11694 0
11695 -11668 -10186 0
-11695 11668 0
-11695 10186 0
11696 -11668 -11694 0
-11696 11668 0
-11696 11694 0
11697 -10171 -10186 -11672 0
-11697 10171 0
-11697 10186 0
-11697 11672 0
-9299 10187 11693 11695 11696 11697 0
9299 -10187 0
9299 -11693 0
9299 -11695 0
9299 -11696 0
9299 -11697 0
11698 -10180 -11694 0
-11698 10180 0
-11698 11694 0
11699 -11685 -11694 0
-11699 11685 0
-11699 11694 0
11700 -11685 -10186 0
-11700 11685 0
-11700 10186 0
11701 -10180 -10186 -11672 0
-11701 10180 0
-11701 10186 0
-11701 11672 0
-9306 10189 11698 11699 11700 11701 0
9306 -10189 0
9306 -11698 0
9306 -11699 0
9306 -11700 0
9306 -11701 0
11702 -10171 -11703 0
-11702 10171 0
-11702 11703 0
11704 -11668 -11703 0
-11704 11668 0
-11704 11703 0
11705 -11668 -10191 0
-11705 11668 0
-11705 10191 0
11706 -10171 -10191 -11672 0
-11706 10171 0
-11706 10191 0
-11706 11672 0
-9313 10192 11702 11704 11705 11706 0
9313 -10192 0
9313 -11702 0
9313 -11704 0
9313 -11705 0
9313 -11706 0
11707 -10171 -11708 0
-11707 10171 0
-11707 11708 0
11709 -11668 -10194 0
-11709 11668 0
-11709 10194 0
11710 -11668 -11708 0
-11710 11668 0
-11710 11708 0
11711 -10171 -10194 -11672 0
-11711 10171 0
-11711 10194 0
-11711 11672 0
-9320 10195 11707 11709 11710 11711 0
9320 -10195 0
9320 -11707 0
9320 -11709 0
9320 -11710 0
9320 -11711 0
11712 -10180 -11708 0
-11712 10180 0
-11712 11708 0
11713 -11685 -11708 0
-11713 11685 0
-11713 11708 0
11714 -11685 -10194 0
-11714 11685 0
-11714 10194 0
11715 -10180 -10194 -11672 0
-11715 10180 0
-11715 10194 0
-11715 11672 0
-9325 10197 11712 11713 11714 11715 0
9325 -10197 0
9325 -11712 0
9325 -11713 0
9325 -11714 0
9325 -11715 0
11716 -10174 -11685 0
-11716 10174 0
-11716 11685 0
11717 -11674 -10180 0
-11717 11674 0
-11717 10180 0
11718 -11674 -11685 0
-11718 11674 0
-11718 11685 0
11719 -10174 -10180 -11672 0
-11719 10174 0
-11719 10180 0
-11719 11672 0
-9303 10199 11716 11717 11718 11719 0
9303 -10199 0
9303 -11716 0
9303 -11717 0
9303 -11718 0
9303 -11719 0
11720 -10174 -11674 0
-11720 10174 0
-11720 11674 0
11721 -11674 -11674 0
-11721 11674 0
-11721 11674 0
11722 -11674 -10174 0
-11722 11674 0
-11722 10174 0
11723 -10174 -10174 -11672 0
-11723 10174 0
-11723 10174 0
-11723 11672 0
-9284 10201 11720 11721 11722 11723 0
9284 -10201 0
9284 -11720 0
9284 -11721 0
9284 -11722 0
9284 -11723 0
11724 -10174 -11689 0
-11724 10174 0
-11724 11689 0
11725 -11674 -11689 0
-11725 11674 0
-11725 11689 0
11726 -11674 -10183 0
-11726 11674 0
-11726 10183 0
11727 -10174 -10183 -11672 0
-11727 10174 0
-11727 10183 0
-11727 11672 0
-9287 10203 11724 11725 11726 11727 0
9287 -10203 0
9287 -11724 0
9287 -11725 0
9287 -11726 0
9287 -11727 0
11728 -10174 -11694 0
-11728 10174 0
-11728 11694 0
11729 -11674 -10186 0
-11729 11674 0
-11729 10186 0
11730 -11674 -11694 0
-11730 11674 0
-11730 11694 0
11731 -10174 -10186 -11672 0
-11731 10174 0
-11731 10186 0
-11731 11672 0
-9294 10205 11728 11729 11730 11731 0
9294 -10205 0
9294 -11728 0
9294 -11729 0
9294 -11730 0
9294 -11731 0
11732 -10177 -11694 0
-11732 10177 0
-11732 11694 0
11733 -11679 -11694 0
-11733 11679 0
-11733 11694 0
11734 -11679 -10186 0
-11734 11679 0
-11734 10186 0
11735 -10177 -10186 -11672 0
-11735 10177 0
-11735 10186 0
-11735 11672 0
-9296 10207 11732 11733 11734 11735 0
9296 -10207 0
9296 -11732 0
9296 -11733 0
9296 -11734 0
9296 -11735 0
11736 -10174 -11703 0
-11736 10174 0
-11736 11703 0
11737 -11674 -11703 0
-11737 11674 0
-11737 11703 0
11738 -11674 -10191 0
-11738 11674 0
-11738 10191 0
11739 -10174 -10191 -11672 0
-11739 10174 0
-11739 10191 0
-11739 11672 0
-9308 10209 11736 11737 11738 11739 0
9308 -10209 0
9308 -11736 0
9308 -11737 0
9308 -11738 0
9308 -11739 0
11740 -10174 -11708 0
-11740 10174 0
-11740 11708 0
11741 -11674 -10194 0
-11741 11674 0
-11741 10194 0
11742 -11674 -11708 0
-11742 11674 0
-11742 11708 0
11743 -10174 -10194 -11672 0
-11743 10174 0
-11743 10194 0
-11743 11672 0
-9315 10211 11740 11741 11742 11743 0
9315 -10211 0
9315 -11740 0
9315 -11741 0
9315 -11742 0
9315 -11743 0
11744 -10177 -11708 0
-11744 10177 0
-11744 11708 0
11745 -11679 -11708 0
-11745 11679 0
-11745 11708 0
11746 -11679 -10194 0
-11746 11679 0
-11746 10194 0
11747 -10177 -10194 -11672 0
-11747 10177 0
-11747 10194 0
-11747 11672 0
-9317 10213 11744 11745 11746 11747 0
9317 -10213 0
9317 -11744 0
9317 -11745 0
9317 -11746 0
9317 -11747 0
11748 -10183 -11685 0
-11748 10183 0
-11748 11685 0
11749 -11689 -10180 0
-11749 11689 0
-11749 10180 0
11750 -11689 -11685 0
-11750 11689 0
-11750 11685 0
11751 -10183 -10180 -11672 0
-11751 10183 0
-11751 10180 0
-11751 11672 0
-9330 10215 11748 11749 11750 11751 0
9330 -10215 0
9330 -11748 0
9330 -11749 0
9330 -11750 0
9330 -11751 0
11752 -10183 -11679 0
-11752 10183 0
-11752 11679 0
11753 -11689 -10177 0
-11753 11689 0
-11753 10177 0
11754 -11689 -11679 0
-11754 11689 0
-11754 11679 0
11755 -10183 -10177 -11672 0
-11755 10183 0
-11755 10177 0
-11755 11672 0
-9290 10217 11752 11753 11754 11755 0
9290 -10217 0
9290 -11752 0
9290 -11753 0
9290 -11754 0
9290 -11755 0
11756 -10183 -11689 0
-11756 10183 0
-11756 11689 0
11757 -11689 -11689 0
-11757 11689 0
-11757 11689 0
11758 -11689 -10183 0
-11758 11689 0
-11758 10183 0
11759 -10183 -10183 -11672 0
-11759 10183 0
-11759 10183 0
-11759 11672 0
-9335 10219 11756 11757 11758 11759 0
9335 -10219 0
9335 -11756 0
9335 -11757 0
9335 -11758 0
9335 -11759 0
11760 -10183 -11703 0
-11760 10183 0
-11760 11703 0
11761 -11689 -11703 0
-11761 11689 0
-11761 11703 0
11762 -11689 -10191 0
-11762 11689 0
-11762 10191 0
11763 -10183 -10191 -11672 0
-11763 10183 0
-11763 10191 0
-11763 11672 0
-9340 10221 11760 11761 11762 11763 0
9340 -10221 0
9340 -11760 0
9340 -11761 0
9340 -11762 0
9340 -11763 0
11764 -10183 -11708 0
-11764 10183 0
-11764 11708 0
11765 -11689 -10194 0
-11765 11689 0
-11765 10194 0
11766 -11689 -11708 0
-11766 11689 0
-11766 11708 0
11767 -10183 -10194 -11672 0
-11767 10183 0
-11767 10194 0
-11767 11672 0
-9345 10223 11764 11765 11766 11767 0
9345 -10223 0
9345 -11764 0
9345 -11765 0
9345 -11766 0
9345 -11767 0
11768 -10186 -11708 0
-11768 10186 0
-11768 11708 0
11769 -11694 -11708 0
-11769 11694 0
-11769 11708 0
11770 -11694 -10194 0
-11770 11694 0
-11770 10194 0
11771 -10186 -10194 -11672 0
-11771 10186 0
-11771 10194 0
-11771 11672 0
-9350 10225 11768 11769 11770 11771 0
9350 -10225 0
9350 -11768 0
9350 -11769 0
9350 -11770 0
9350 -11771 0
11772 -10191 -11685 0
-11772 10191 0
-11772 11685 0
11773 -11703 -10180 0
-11773 11703 0
-11773 10180 0
11774 -11703 -11685 0
-11774 11703 0
-11774 11685 0
11775 -10191 -10180 -11672 0
-11775 10191 0
-11775 10180 0
-11775 11672 0
-9355 10227 11772 11773 11774 11775 0
9355 -10227 0
9355 -11772 0
9355 -11773 0
9355 -11774 0
9355 -11775 0
11776 -10191 -11679 0
-11776 10191 0
-11776 11679 0
11777 -11703 -10177 0
-11777 11703 0
-11777 10177 0
11778 -11703 -11679 0
-11778 11703 0
-11778 11679 0
11779 -10191 -10177 -11672 0
-11779 10191 0
-11779 10177 0
-11779 11672 0
-9311 10229 11776 11777 11778 11779 0
9311 -10229 0
9311 -11776 0
9311 -11777 0
9311 -11778 0
9311 -11779 0
11780 -10191 -11694 0
-11780 10191 0
-11780 11694 0
11781 -11703 -10186 0
-11781 11703 0
-11781 10186 0
11782 -11703 -11694 0
-11782 11703 0
-11782 11694 0
11783 -10191 -10186 -11672 0
-11783 10191 0
-11783 10186 0
-11783 11672 0
-9360 10231 11780 11781 11782 11783 0
9360 -10231 0
9360 -11780 0
9360 -11781 0
9360 -11782 0
9360 -11783 0
11784 -10191 -11703 0
-11784 10191 0
-11784 11703 0
11785 -11703 -11703 0
-11785 11703 0
-11785 11703 0
11786 -11703 -10191 0
-11786 11703 0
-11786 10191 0
11787 -10191 -10191 -11672 0
-11787 10191 0
-11787 10191 0
-11787 11672 0
-9365 10233 11784 11785 11786 11787 0
9365 -10233 0
9365 -11784 0
9365 -11785 0
9365 -11786 0
9365 -11787 0
11788 -10880 -11789 0
-11788 10880 0
-11788 11789 0
11790 -11789 -11789 0
-11790 11789 0
-11790 11789 0
11791 -11789 -10880 0
-11791 11789 0
-11791 10880 0
11792 -10880 -10880 -11793 0
-11792 10880 0
-11792 10880 0
-11792 11793 0
-6580 10881 11788 11790 11791 11792 0
6580 -10881 0
6580 -11788 0
6580 -11790 0
6580 -11791 0
6580 -11792 0
11794 -10880 -11795 0
-11794 10880 0
-11794 11795 0
11796 -11789 -11795 0
-11796 11789 0
-11796 11795 0
11797 -11789 -10883 0
-11797 11789 0
-11797 10883 0
11798 -10880 -10883 -11793 0
-11798 10880 0
-11798 10883 0
-11798 11793 0
-9367 10884 11794 11796 11797 11798 0
9367 -10884 0
9367 -11794 0
9367 -11796 0
9367 -11797 0
9367 -11798 0
11799 -10880 -11800 0
-11799 10880 0
-11799 11800 0
11801 -11789 -10886 0
-11801 11789 0
-11801 10886 0
11802 -11789 -11800 0
-11802 11789 0
-11802 11800 0
11803 -10880 -10886 -11793 0
-11803 10880 0
-11803 10886 0
-11803 11793 0
-6579 10887 11799 11801 11802 11803 0
6579 -10887 0
6579 -11799 0
6579 -11801 0
6579 -11802 0
6579 -11803 0
11804 -10889 -11800 0
-11804 10889 0
-11804 11800 0
11805 -11806 -11800 0
-11805 11806 0
-11805 11800 0
11807 -11806 -10886 0
-11807 11806 0
-11807 10886 0
11808 -10889 -10886 -11793 0
-11808 10889 0
-11808 10886 0
-11808 11793 0
-6588 10890 11804 11805 11807 11808 0
6588 -10890 0
6588 -11804 0
6588 -11805 0
6588 -11807 0
6588 -11808 0
11809 -10880 -11810 0
-11809 10880 0
-11809 11810 0
11811 -11789 -11810 0
-11811 11789 0
-11811 11810 0
11812 -11789 -10892 0
-11812 11789 0
-11812 10892 0
11813 -10880 -10892 -11793 0
-11813 10880 0
-11813 10892 0
-11813 11793 0
-6583 10893 11809 11811 11812 11813 0
6583 -10893 0
6583 -11809 0
6583 -11811 0
6583 -11812 0
6583 -11813 0
11814 -10880 -11815 0
-11814 10880 0
-11814 11815 0
11816 -11789 -10895 0
-11816 11789 0
-11816 10895 0
11817 -11789 -11815 0
-11817 11789 0
-11817 11815 0
11818 -10880 -10895 -11793 0
-11818 10880 0
-11818 10895 0
-11818 11793 0
-6586 10896 11814 11816 11817 11818 0
6586 -10896 0
6586 -11814 0
6586 -11816 0
6586 -11817 0
6586 -11818 0
11819 -10889 -11815 0
-11819 10889 0
-11819 11815 0
11820 -11806 -11815 0
-11820 11806 0
-11820 11815 0
11821 -11806 -10895 0
-11821 11806 0
-11821 10895 0
11822 -10889 -10895 -11793 0
-11822 10889 0
-11822 10895 0
-11822 11793 0
-6589 10898 11819 11820 11821 11822 0
6589 -10898 0
6589 -11819 0
6589 -11820 0
6589 -11821 0
6589 -11822 0
11823 -10880 -11824 0
-11823 10880 0
-11823 11824 0
11825 -11789 -11824 0
-11825 11789 0
-11825 11824 0
11826 -11789 -10900 0
-11826 11789 0
-11826 10900 0
11827 -10880 -10900 -11793 0
-11827 10880 0
-11827 10900 0
-11827 11793 0
-6592 10901 11823 11825 11826 11827 0
6592 -10901 0
6592 -11823 0
6592 -11825 0
6592 -11826 0
6592 -11827 0
11828 -10880 -11829 0
-11828 10880 0
-11828 11829 0
11830 -11789 -10903 0
-11830 11789 0
-11830 10903 0
11831 -11789 -11829 0
-11831 11789 0
-11831 11829 0
11832 -10880 -10903 -11793 0
-11832 10880 0
-11832 10903 0
-11832 11793 0
-6595 10904 11828 11830 11831 11832 0
6595 -10904 0
6595 -11828 0
6595 -11830 0
6595 -11831 0
6595 -11832 0
11833 -10889 -11829 0
-11833 10889 0
-11833 11829 0
11834 -11806 -11829 0
-11834 11806 0
-11834 11829 0
11835 -11806 -10903 0
-11835 11806 0
-11835 10903 0
11836 -10889 -10903 -11793 0
-11836 10889 0
-11836 10903 0
-11836 11793 0
-6597 10906 11833 11834 11835 11836 0
6597 -10906 0
6597 -11833 0
6597 -11834 0
6597 -11835 0
6597 -11836 0
11837 -10883 -11806 0
-11837 10883 0
-11837 11806 0
11838 -11795 -10889 0
-11838 11795 0
-11838 10889 0
11839 -11795 -11806 0
-11839 11795 0
-11839 11806 0
11840 -10883 -10889 -11793 0
-11840 10883 0
-11840 10889 0
-11840 11793 0
-9384 10908 11837 11838 11839 11840 0
9384 -10908 0
9384 -11837 0
9384 -11838 0
9384 -11839 0
9384 -11840 0
11841 -10883 -11795 0
-11841 10883 0
-11841 11795 0
11842 -11795 -11795 0
-11842 11795 0
-11842 11795 0
11843 -11795 -10883 0
-11843 11795 0
-11843 10883 0
11844 -10883 -10883 -11793 0
-11844 10883 0
-11844 10883 0
-11844 11793 0
-9371 10910 11841 11842 11843 11844 0
9371 -10910 0
9371 -11841 0
9371 -11842 0
9371 -11843 0
9371 -11844 0
11845 -10883 -11810 0
-11845 10883 0
-11845 11810 0
11846 -11795 -11810 0
-11846 11795 0
-11846 11810 0
11847 -11795 -10892 0
-11847 11795 0
-11847 10892 0
11848 -10883 -10892 -11793 0
-11848 10883 0
-11848 10892 0
-11848 11793 0
-9373 10912 11845 11846 11847 11848 0
9373 -10912 0
9373 -11845 0
9373 -11846 0
9373 -11847 0
9373 -11848 0
11849 -10883 -11815 0
-11849 10883 0
-11849 11815 0
11850 -11795 -10895 0
-11850 11795 0
-11850 10895 0
11851 -11795 -11815 0
-11851 11795 0
-11851 11815 0
11852 -10883 -10895 -11793 0
-11852 10883 0
-11852 10895 0
-11852 11793 0
-9378 10914 11849 11850 11851 11852 0
9378 -10914 0
9378 -11849 0
9378 -11850 0
9378 -11851 0
9378 -11852 0
11853 -10886 -11815 0
-11853 10886 0
-11853 11815 0
11854 -11800 -11815 0
-11854 11800 0
-11854 11815 0
11855 -11800 -10895 0
-11855 11800 0
-11855 10895 0
11856 -10886 -10895 -11793 0
-11856 10886 0
-11856 10895 0
-11856 11793 0
-6585 10916 11853 11854 11855 11856 0
6585 -10916 0
6585 -11853 0
6585 -11854 0
6585 -11855 0
6585 -11856 0
11857 -10883 -11824 0
-11857 10883 0
-11857 11824 0
11858 -11795 -11824 0
-11858 11795 0
-11858 11824 0
11859 -11795 -10900 0
-11859 11795 0
-11859 10900 0
11860 -10883 -10900 -11793 0
-11860 10883 0
-11860 10900 0
-11860 11793 0
-9388 10918 11857 11858 11859 11860 0
9388 -10918 0
9388 -11857 0
9388 -11858 0
9388 -11859 0
9388 -11860 0
11861 -10883 -11829 0
-11861 10883 0
-11861 11829 0
11862 -11795 -10903 0
-11862 11795 0
-11862 10903 0
11863 -11795 -11829 0
-11863 11795 0
-11863 11829 0
11864 -10883 -10903 -11793 0
-11864 10883 0
-11864 10903 0
-11864 11793 0
-9393 10920 11861 11862 11863 11864 0
9393 -10920 0
9393 -11861 0
9393 -11862 0
9393 -11863 0
9393 -11864 0
11865 -10886 -11829 0
-11865 10886 0
-11865 11829 0
11866 -11800 -11829 0
-11866 11800 0
-11866 11829 0
11867 -11800 -10903 0
-11867 11800 0
-11867 10903 0
11868 -10886 -10903 -11793 0
-11868 10886 0
-11868 10903 0
-11868 11793 0
-6594 10922 11865 11866 11867 11868 0
6594 -10922 0
6594 -11865 0
6594 -11866 0
6594 -11867 0
6594 -11868 0
11869 -10892 -11806 0
-11869 10892 0
-11869 11806 0
11870 -11810 -10889 0
-11870 11810 0
-11870 10889 0
11871 -11810 -11806 0
-11871 11810 0
-11871 11806 0
11872 -10892 -10889 -11793 0
-11872 10892 0
-11872 10889 0
-11872 11793 0
-6599 10924 11869 11870 11871 11872 0
6599 -10924 0
6599 -11869 0
6599 -11870 0
6599 -11871 0
6599 -11872 0
11873 -10892 -11800 0
-11873 10892 0
-11873 11800 0
11874 -11810 -10886 0
-11874 11810 0
-11874 10886 0
11875 -11810 -11800 0
-11875 11810 0
-11875 11800 0
11876 -10892 -10886 -11793 0
-11876 10892 0
-11876 10886 0
-11876 11793 0
-6582 10926 11873 11874 11875 11876 0
6582 -10926 0
6582 -11873 0
6582 -11874 0
6582 -11875 0
6582 -11876 0
11877 -10892 -11810 0
-11877 10892 0
-11877 11810 0
11878 -11810 -11810 0
-11878 11810 0
-11878 11810 0
11879 -11810 -10892 0
-11879 11810 0
-11879 10892 0
11880 -10892 -10892 -11793 0
-11880 10892 0
-11880 10892 0
-11880 11793 0
-6601 10928 11877 11878 11879 11880 0
6601 -10928 0
6601 -11877 0
6601 -11878 0
6601 -11879 0
6601 -11880 0
11881 -10892 -11824 0
-11881 10892 0
-11881 11824 0
11882 -11810 -11824 0
-11882 11810 0
-11882 11824 0
11883 -11810 -10900 0
-11883 11810 0
-11883 10900 0
11884 -10892 -10900 -11793 0
-11884 10892 0
-11884 10900 0
-11884 11793 0
-6603 10930 11881 11882 11883 11884 0
6603 -10930 0
6603 -11881 0
6603 -11882 0
6603 -11883 0
6603 -11884 0
11885 -10892 -11829 0
-11885 10892 0
-11885 11829 0
11886 -11810 -10903 0
-11886 11810 0
-11886 10903 0
11887 -11810 -11829 0
-11887 11810 0
-11887 11829 0
11888 -10892 -10903 -11793 0
-11888 10892 0
-11888 10903 0
-11888 11793 0
-6605 10932 11885 11886 11887 11888 0
6605 -10932 0
6605 -11885 0
6605 -11886 0
6605 -11887 0
6605 -11888 0
11889 -10895 -11829 0
-11889 10895 0
-11889 11829 0
11890 -11815 -11829 0
-11890 11815 0
-11890 11829 0
11891 -11815 -10903 0
-11891 11815 0
-11891 10903 0
11892 -10895 -10903 -11793 0
-11892 10895 0
-11892 10903 0
-11892 11793 0
-6607 10934 11889 11890 11891 11892 0
6607 -10934 0
6607 -11889 0
6607 -11890 0
6607 -11891 0
6607 -11892 0
11893 -10900 -11806 0
-11893 10900 0
-11893 11806 0
11894 -11824 -10889 0
-11894 11824 0
-11894 10889 0
11895 -11824 -11806 0
-11895 11824 0
-11895 11806 0
11896 -10900 -10889 -11793 0
-11896 10900 0
-11896 10889 0
-11896 11793 0
-6609 10936 11893 11894 11895 11896 0
6609 -10936 0
6609 -11893 0
6609 -11894 0
6609 -11895 0
6609 -11896 0
11897 -10900 -11800 0
-11897 10900 0
-11897 11800 0
11898 -11824 -10886 0
-11898 11824 0
-11898 10886 0
11899 -11824 -11800 0
-11899 11824 0
-11899 11800 0
11900 -10900 -10886 -11793 0
-11900 10900 0
-11900 10886 0
-11900 11793 0
-6591 10938 11897 11898 11899 11900 0
6591 -10938 0
6591 -11897 0
6591 -11898 0
6591 -11899 0
6591 -11900 0
11901 -10900 -11815 0
-11901 10900 0
-11901 11815 0
11902 -11824 -10895 0
-11902 11824 0
-11902 10895 0
11903 -11824 -11815 0
-11903 11824 0
-11903 11815 0
11904 -10900 -10895 -11793 0
-11904 10900 0
-11904 10895 0
-11904 11793 0
-6611 10940 11901 11902 11903 11904 0
6611 -10940 0
6611 -11901 0
6611 -11902 0
6611 -11903 0
6611 -11904 0
11905 -10900 -11824 0
-11905 10900 0
-11905 11824 0
11906 -11824 -11824 0
-11906 11824 0
-11906 11824 0
11907 -11824 -10900 0
-11907 11824 0
-11907 10900 0
11908 -10900 -10900 -11793 0
-11908 10900 0
-11908 10900 0
-11908 11793 0
-6613 10942 11905 11906 11907 11908 0
6613 -10942 0
6613 -11905 0
6613 -11906 0
6613 -11907 0
6613 -11908 0
11909 -10131 -10131 0
-11909 10131 0
-11909 10131 0
-7797 10108 11909 0
7797 -10108 0
7797 -11909 0
11910 -10131 -10147 0
-11910 10131 0
-11910 10147 0
-7792 10111 11910 0
7792 -10111 0
7792 -11910 0
11911 -10131 -10149 0
-11911 10131 0
-11911 10149 0
-7791 10114 11911 0
7791 -10114 0
7791 -11911 0
11912 -10133 -10149 0
-11912 10133 0
-11912 10149 0
-7813 10117 11912 0
7813 -10117 0
7813 -11912 0
11913 -10131 -10254 0
-11913 10131 0
-11913 10254 0
-7804 10256 11913 0
7804 -10256 0
7804 -11913 0
11914 -10131 -10130 0
-11914 10131 0
-11914 10130 0
-7811 10107 11914 0
7811 -10107 0
7811 -11914 0
11915 -10133 -10130 0
-11915 10133 0
-11915 10130 0
-7818 10116 11915 0
7818 -10116 0
7818 -11915 0
11916 -10131 -10159 0
-11916 10131 0
-11916 10159 0
-7825 10120 11916 0
7825 -10120 0
7825 -11916 0
11917 -10131 -10161 0
-11917 10131 0
-11917 10161 0
-7832 10123 11917 0
7832 -10123 0
7832 -11917 0
11918 -10133 -10161 0
-11918 10133 0
-11918 10161 0
-7837 10125 11918 0
7837 -10125 0
7837 -11918 0
11919 -10147 -10133 0
-11919 10147 0
-11919 10133 0
-7815 10135 11919 0
7815 -10135 0
7815 -11919 0
11920 -10147 -10147 0
-11920 10147 0
-11920 10147 0
-7796 10137 11920 0
7796 -10137 0
7796 -11920 0
11921 -10147 -10254 0
-11921 10147 0
-11921 10254 0
-7799 10289 11921 0
7799 -10289 0
7799 -11921 0
11922 -10147 -10130 0
-11922 10147 0
-11922 10130 0
-7806 10110 11922 0
7806 -10110 0
7806 -11922 0
11923 -10149 -10130 0
-11923 10149 0
-11923 10130 0
-7808 10113 11923 0
7808 -10113 0
7808 -11923 0
11924 -10147 -10159 0
-11924 10147 0
-11924 10159 0
-7820 10139 11924 0
7820 -10139 0
7820 -11924 0
11925 -10147 -10161 0
-11925 10147 0
-11925 10161 0
-7827 10141 11925 0
7827 -10141 0
7827 -11925 0
11926 -10149 -10161 0
-11926 10149 0
-11926 10161 0
-7829 10143 11926 0
7829 -10143 0
7829 -11926 0
11927 -10254 -10133 0
-11927 10254 0
-11927 10133 0
-7842 10314 11927 0
7842 -10314 0
7842 -11927 0
11928 -10254 -10149 0
-11928 10254 0
-11928 10149 0
-7802 10319 11928 0
7802 -10319 0
7802 -11928 0
11929 -10254 -10254 0
-11929 10254 0
-11929 10254 0
-7847 10324 11929 0
7847 -10324 0
7847 -11929 0
11930 -10254 -10159 0
-11930 10254 0
-11930 10159 0
-7852 10329 11930 0
7852 -10329 0
7852 -11930 0
11931 -10254 -10161 0
-11931 10254 0
-11931 10161 0
-7857 10334 11931 0
7857 -10334 0
7857 -11931 0
11932 -10130 -10161 0
-11932 10130 0
-11932 10161 0
-7862 10122 11932 0
7862 -10122 0
7862 -11932 0
11933 -10159 -10133 0
-11933 10159 0
-11933 10133 0
-7867 10151 11933 0
7867 -10151 0
7867 -11933 0
11934 -10159 -10149 0
-11934 10159 0
-11934 10149 0
-7823 10153 11934 0
7823 -10153 0
7823 -11934 0
11935 -10159 -10130 0
-11935 10159 0
-11935 10130 0
-7872 10119 11935 0
7872 -10119 0
7872 -11935 0
11936 -10159 -10159 0
-11936 10159 0
-11936 10159 0
-7877 10155 11936 0
7877 -10155 0
7877 -11936 0
11937 -10356 -10425 0
-11937 10356 0
-11937 10425 0
11938 -10425 -10425 0
-11938 10425 0
-11938 10425 0
11939 -10425 -10356 0
-11939 10425 0
-11939 10356 0
11940 -10356 -10356 -10445 0
-11940 10356 0
-11940 10356 0
-11940 10445 0
-8490 10357 11937 11938 11939 11940 0
8490 -10357 0
8490 -11937 0
8490 -11938 0
8490 -11939 0
8490 -11940 0
11941 -10356 -10434 0
-11941 10356 0
-11941 10434 0
11942 -10425 -10434 0
-11942 10425 0
-11942 10434 0
11943 -10425 -10359 0
-11943 10425 0
-11943 10359 0
11944 -10356 -10359 -10445 0
-11944 10356 0
-11944 10359 0
-11944 10445 0
-8485 10360 11941 11942 11943 11944 0
8485 -10360 0
8485 -11941 0
8485 -11942 0
8485 -11943 0
8485 -11944 0
11945 -10356 -10443 0
-11945 10356 0
-11945 10443 0
11946 -10425 -10362 0
-11946 10425 0
-11946 10362 0
11947 -10425 -10443 0
-11947 10425 0
-11947 10443 0
11948 -10356 -10362 -10445 0
-11948 10356 0
-11948 10362 0
-11948 10445 0
-8484 10363 11945 11946 11947 11948 0
8484 -10363 0
8484 -11945 0
8484 -11946 0
8484 -11947 0
8484 -11948 0
11949 -10365 -10443 0
-11949 10365 0
-11949 10443 0
11950 -10441 -10443 0
-11950 10441 0
-11950 10443 0
11951 -10441 -10362 0
-11951 10441 0
-11951 10362 0
11952 -10365 -10362 -10445 0
-11952 10365 0
-11952 10362 0
-11952 10445 0
-8506 10366 11949 11950 11951 11952 0
8506 -10366 0
8506 -11949 0
8506 -11950 0
8506 -11951 0
8506 -11952 0
11953 -10356 -11240 0
-11953 10356 0
-11953 11240 0
11954 -10425 -11240 0
-11954 10425 0
-11954 11240 0
11955 -10425 -10368 0
-11955 10425 0
-11955 10368 0
11956 -10356 -10368 -10445 0
-11956 10356 0
-11956 10368 0
-11956 10445 0
-8497 10369 11953 11954 11955 11956 0
8497 -10369 0
8497 -11953 0
8497 -11954 0
8497 -11955 0
8497 -11956 0
11957 -10356 -10424 0
-11957 10356 0
-11957 10424 0
11958 -10425 -10371 0
-11958 10425 0
-11958 10371 0
11959 -10425 -10424 0
-11959 10425 0
-11959 10424 0
11960 -10356 -10371 -10445 0
-11960 10356 0
-11960 10371 0
-11960 10445 0
-8504 10372 11957 11958 11959 11960 0
8504 -10372 0
8504 -11957 0
8504 -11958 0
8504 -11959 0
8504 -11960 0
11961 -10365 -10424 0
-11961 10365 0
-11961 10424 0
11962 -10441 -10424 0
-11962 10441 0
-11962 10424 0
11963 -10441 -10371 0
-11963 10441 0
-11963 10371 0
11964 -10365 -10371 -10445 0
-11964 10365 0
-11964 10371 0
-11964 10445 0
-8511 10374 11961 11962 11963 11964 0
8511 -10374 0
8511 -11961 0
8511 -11962 0
8511 -11963 0
8511 -11964 0
11965 -10356 -10447 0
-11965 10356 0
-11965 10447 0
11966 -10425 -10447 0
-11966 10425 0
-11966 10447 0
11967 -10425 -10376 0
-11967 10425 0
-11967 10376 0
11968 -10356 -10376 -10445 0
-11968 10356 0
-11968 10376 0
-11968 10445 0
-8518 10377 11965 11966 11967 11968 0
8518 -10377 0
8518 -11965 0
8518 -11966 0
8518 -11967 0
8518 -11968 0
11969 -10356 -10449 0
-11969 10356 0
-11969 10449 0
11970 -10425 -10379 0
-11970 10425 0
-11970 10379 0
11971 -10425 -10449 0
-11971 10425 0
-11971 10449 0
11972 -10356 -10379 -10445 0
-11972 10356 0
-11972 10379 0
-11972 10445 0
-8525 10380 11969 11970 11971 11972 0
8525 -10380 0
8525 -11969 0
8525 -11970 0
8525 -11971 0
8525 -11972 0
11973 -10365 -10449 0
-11973 10365 0
-11973 10449 0
11974 -10441 -10449 0
-11974 10441 0
-11974 10449 0
11975 -10441 -10379 0
-11975 10441 0
-11975 10379 0
11976 -10365 -10379 -10445 0
-11976 10365 0
-11976 10379 0
-11976 10445 0
-8530 10382 11973 11974 11975 11976 0
8530 -10382 0
8530 -11973 0
8530 -11974 0
8530 -11975 0
8530 -11976 0
11977 -10359 -10441 0
-11977 10359 0
-11977 10441 0
11978 -10434 -10365 0
-11978 10434 0
-11978 10365 0
11979 -10434 -10441 0
-11979 10434 0
-11979 10441 0
11980 -10359 -10365 -10445 0
-11980 10359 0
-11980 10365 0
-11980 10445 0
-8508 10384 11977 11978 11979 11980 0
8508 -10384 0
8508 -11977 0
8508 -11978 0
8508 -11979 0
8508 -11980 0
11981 -10359 -10434 0
-11981 10359 0
-11981 10434 0
11982 -10434 -10434 0
-11982 10434 0
-11982 10434 0
11983 -10434 -10359 0
-11983 10434 0
-11983 10359 0
11984 -10359 -10359 -10445 0
-11984 10359 0
-11984 10359 0
-11984 10445 0
-8489 10386 11981 11982 11983 11984 0
8489 -10386 0
8489 -11981 0
8489 -11982 0
8489 -11983 0
8489 -11984 0
11985 -10359 -11240 0
-11985 10359 0
-11985 11240 0
11986 -10434 -11240 0
-11986 10434 0
-11986 11240 0
11987 -10434 -10368 0
-11987 10434 0
-11987 10368 0
11988 -10359 -10368 -10445 0
-11988 10359 0
-11988 10368 0
-11988 10445 0
-8492 10388 11985 11986 11987 11988 0
8492 -10388 0
8492 -11985 0
8492 -11986 0
8492 -11987 0
8492 -11988 0
11989 -10359 -10424 0
-11989 10359 0
-11989 10424 0
11990 -10434 -10371 0
-11990 10434 0
-11990 10371 0
11991 -10434 -10424 0
-11991 10434 0
-11991 10424 0
11992 -10359 -10371 -10445 0
-11992 10359 0
-11992 10371 0
-11992 10445 0
-8499 10390 11989 11990 11991 11992 0
8499 -10390 0
8499 -11989 0
8499 -11990 0
8499 -11991 0
8499 -11992 0
11993 -10362 -10424 0
-11993 10362 0
-11993 10424 0
11994 -10443 -10424 0
-11994 10443 0
-11994 10424 0
11995 -10443 -10371 0
-11995 10443 0
-11995 10371 0
11996 -10362 -10371 -10445 0
-11996 10362 0
-11996 10371 0
-11996 10445 0
-8501 10392 11993 11994 11995 11996 0
8501 -10392 0
8501 -11993 0
8501 -11994 0
8501 -11995 0
8501 -11996 0
11997 -10359 -10447 0
-11997 10359 0
-11997 10447 0
11998 -10434 -10447 0
-11998 10434 0
-11998 10447 0
11999 -10434 -10376 0
-11999 10434 0
-11999 10376 0
12000 -10359 -10376 -10445 0
-12000 10359 0
-12000 10376 0
-12000 10445 0
-8513 10394 11997 11998 11999 12000 0
8513 -10394 0
8513 -11997 0
8513 -11998 0
8513 -11999 0
8513 -12000 0
12001 -10359 -10449 0
-12001 10359 0
-12001 10449 0
12002 -10434 -10379 0
-12002 10434 0
-12002 10379 0
12003 -10434 -10449 0
-12003 10434 0
-12003 10449 0
12004 -10359 -10379 -10445 0
-12004 10359 0
-12004 10379 0
-12004 10445 0
-8520 10396 12001 12002 12003 12004 0
8520 -10396 0
8520 -12001 0
8520 -12002 0
8520 -12003 0
8520 -12004 0
12005 -10362 -10449 0
-12005 10362 0
-12005 10449 0
12006 -10443 -10449 0
-12006 10443 0
-12006 10449 0
12007 -10443 -10379 0
-12007 10443 0
-12007 10379 0
12008 -10362 -10379 -10445 0
-12008 10362 0
-12008 10379 0
-12008 10445 0
-8522 10398 12005 12006 12007 12008 0
8522 -10398 0
8522 -12005 0
8522 -12006 0
8522 -12007 0
8522 -12008 0
12009 -10368 -10441 0
-12009 10368 0
-12009 10441 0
12010 -11240 -10365 0
-12010 11240 0
-12010 10365 0
12011 -11240 -10441 0
-12011 11240 0
-12011 10441 0
12012 -10368 -10365 -10445 0
-12012 10368 0
-12012 10365 0
-12012 10445 0
-8535 10400 12009 12010 12011 12012 0
8535 -10400 0
8535 -12009 0
8535 -12010 0
8535 -12011 0
8535 -12012 0
12013 -10368 -10443 0
-12013 10368 0
-12013 10443 0
12014 -11240 -10362 0
-12014 11240 0
-12014 10362 0
12015 -11240 -10443 0
-12015 11240 0
-12015 10443 0
12016 -10368 -10362 -10445 0
-12016 10368 0
-12016 10362 0
-12016 10445 0
-8495 10402 12013 12014 12015 12016 0
8495 -10402 0
8495 -12013 0
8495 -12014 0
8495 -12015 0
8495 -12016 0
12017 -10368 -11240 0
-12017 10368 0
-12017 11240 0
11305 -11240 -11240 0
-11305 11240 0
-11305 11240 0
12018 -11240 -10368 0
-12018 11240 0
-12018 10368 0
12019 -10368 -10368 -10445 0
-12019 10368 0
-12019 10368 0
-12019 10445 0
-8540 10404 12017 11305 12018 12019 0
8540 -10404 0
8540 -12017 0
8540 -11305 0
8540 -12018 0
8540 -12019 0
12020 -10368 -10447 0
-12020 10368 0
-12020 10447 0
12021 -11240 -10447 0
-12021 11240 0
-12021 10447 0
12022 -11240 -10376 0
-12022 11240 0
-12022 10376 0
12023 -10368 -10376 -10445 0
-12023 10368 0
-12023 10376 0
-12023 10445 0
-8545 10406 12020 12021 12022 12023 0
8545 -10406 0
8545 -12020 0
8545 -12021 0
8545 -12022 0
8545 -12023 0
12024 -10368 -10449 0
-12024 10368 0
-12024 10449 0
12025 -11240 -10379 0
-12025 11240 0
-12025 10379 0
12026 -11240 -10449 0
-12026 11240 0
-12026 10449 0
12027 -10368 -10379 -10445 0
-12027 10368 0
-12027 10379 0
-12027 10445 0
-8550 10408 12024 12025 12026 12027 0
8550 -10408 0
8550 -12024 0
8550 -12025 0
8550 -12026 0
8550 -12027 0
12028 -10371 -10449 0
-12028 10371 0
-12028 10449 0
12029 -10424 -10449 0
-12029 10424 0
-12029 10449 0
12030 -10424 -10379 0
-12030 10424 0
-12030 10379 0
12031 -10371 -10379 -10445 0
-12031 10371 0
-12031 10379 0
-12031 10445 0
-8555 10410 12028 12029 12030 12031 0
8555 -10410 0
8555 -12028 0
8555 -12029 0
8555 -12030 0
8555 -12031 0
12032 -10376 -10441 0
-12032 10376 0
-12032 10441 0
12033 -10447 -10365 0
-12033 10447 0
-12033 10365 0
12034 -10447 -10441 0
-12034 10447 0
-12034 10441 0
12035 -10376 -10365 -10445 0
-12035 10376 0
-12035 10365 0
-12035 10445 0
-8560 10412 12032 12033 12034 12035 0
8560 -10412 0
8560 -12032 0
8560 -12033 0
8560 -12034 0
8560 -12035 0
12036 -10376 -10443 0
-12036 10376 0
-12036 10443 0
12037 -10447 -10362 0
-12037 10447 0
-12037 10362 0
12038 -10447 -10443 0
-12038 10447 0
-12038 10443 0
12039 -10376 -10362 -10445 0
-12039 10376 0
-12039 10362 0
-12039 10445 0
-8516 10414 12036 12037 12038 12039 0
8516 -10414 0
8516 -12036 0
8516 -12037 0
8516 -12038 0
8516 -12039 0
12040 -10376 -10424 0
-12040 10376 0
-12040 10424 0
12041 -10447 -10371 0
-12041 10447 0
-12041 10371 0
12042 -10447 -10424 0
-12042 10447 0
-12042 10424 0
12043 -10376 -10371 -10445 0
-12043 10376 0
-12043 10371 0
-12043 10445 0
-8565 10416 12040 12041 12042 12043 0
8565 -10416 0
8565 -12040 0
8565 -12041 0
8565 -12042 0
8565 -12043 0
12044 -10376 -10447 0
-12044 10376 0
-12044 10447 0
12045 -10447 -10447 0
-12045 10447 0
-12045 10447 0
12046 -10447 -10376 0
-12046 10447 0
-12046 10376 0
12047 -10376 -10376 -10445 0
-12047 10376 0
-12047 10376 0
-12047 10445 0
-8570 10418 12044 12045 12046 12047 0
8570 -10418 0
8570 -12044 0
8570 -12045 0
8570 -12046 0
8570 -12047 0
12048 -12049 -12049 0
-12048 12049 0
-12048 12049 0
-10108 1201 12048 0
10108 -1201 0
10108 -12048 0
12050 -12049 -12051 0
-12050 12049 0
-12050 12051 0
-10111 1202 12050 0
10111 -1202 0
10111 -12050 0
12052 -12049 -12053 0
-12052 12049 0
-12052 12053 0
-10114 12054 12052 0
10114 -12054 0
10114 -12052 0
12055 -12056 -12053 0
-12055 12056 0
-12055 12053 0
-10117 12057 12055 0
10117 -12057 0
10117 -12055 0
12058 -12049 -12059 0
-12058 12049 0
-12058 12059 0
-10256 1204 12058 0
10256 -1204 0
10256 -12058 0
12060 -12049 -12061 0
-12060 12049 0
-12060 12061 0
-10107 12062 12060 0
10107 -12062 0
10107 -12060 0
12063 -12056 -12061 0
-12063 12056 0
-12063 12061 0
-10116 12064 12063 0
10116 -12064 0
10116 -12063 0
12065 -12049 -12066 0
-12065 12049 0
-12065 12066 0
-10120 1207 12065 0
10120 -1207 0
10120 -12065 0
12067 -12049 -12068 0
-12067 12049 0
-12067 12068 0
-10123 12069 12067 0
10123 -12069 0
10123 -12067 0
12070 -12056 -12068 0
-12070 12056 0
-12070 12068 0
-10125 12071 12070 0
10125 -12071 0
10125 -12070 0
12072 -12049 -12073 0
-12072 12049 0
-12072 12073 0
-10128 1211 12072 0
10128 -1211 0
10128 -12072 0
12074 -12049 -12075 0
-12074 12049 0
-12074 12075 0
-10131 12076 12074 0
10131 -12076 0
10131 -12074 0
12077 -12056 -12075 0
-12077 12056 0
-12077 12075 0
-10133 12078 12077 0
10133 -12078 0
10133 -12077 0
12079 -12051 -12056 0
-12079 12051 0
-12079 12056 0
-10135 12080 12079 0
10135 -12080 0
10135 -12079 0
12081 -12051 -12051 0
-12081 12051 0
-12081 12051 0
-10137 1203 12081 0
10137 -1203 0
10137 -12081 0
12082 -12051 -12059 0
-12082 12051 0
-12082 12059 0
-10289 1205 12082 0
10289 -1205 0
10289 -12082 0
12083 -12051 -12061 0
-12083 12051 0
-12083 12061 0
-10110 12084 12083 0
10110 -12084 0
10110 -12083 0
12085 -12053 -12061 0
-12085 12053 0
-12085 12061 0
-10113 12086 12085 0
10113 -12086 0
10113 -12085 0
12087 -12051 -12066 0
-12087 12051 0
-12087 12066 0
-10139 1208 12087 0
10139 -1208 0
10139 -12087 0
12088 -12051 -12068 0
-12088 12051 0
-12088 12068 0
-10141 12089 12088 0
10141 -12089 0
10141 -12088 0
12090 -12053 -12068 0
-12090 12053 0
-12090 12068 0
-10143 12091 12090 0
10143 -12091 0
10143 -12090 0
12092 -12051 -12073 0
-12092 12051 0
-12092 12073 0
-10145 1212 12092 0
10145 -1212 0
10145 -12092 0
12093 -12051 -12075 0
-12093 12051 0
-12093 12075 0
-10147 12094 12093 0
10147 -12094 0
10147 -12093 0
12095 -12053 -12075 0
-12095 12053 0
-12095 12075 0
-10149 12096 12095 0
10149 -12096 0
10149 -12095 0
12097 -12059 -12056 0
-12097 12059 0
-12097 12056 0
-10314 12098 12097 0
10314 -12098 0
10314 -12097 0
12099 -12059 -12053 0
-12099 12059 0
-12099 12053 0
-10319 12100 12099 0
10319 -12100 0
10319 -12099 0
12101 -12059 -12059 0
-12101 12059 0
-12101 12059 0
-10324 1206 12101 0
10324 -1206 0
10324 -12101 0
12102 -12059 -12066 0
-12102 12059 0
-12102 12066 0
-10329 1209 12102 0
10329 -1209 0
10329 -12102 0
12103 -12059 -12068 0
-12103 12059 0
-12103 12068 0
-10334 12104 12103 0
10334 -12104 0
10334 -12103 0
12105 -12061 -12068 0
-12105 12061 0
-12105 12068 0
-10122 12106 12105 0
10122 -12106 0
10122 -12105 0
12107 -12059 -12073 0
-12107 12059 0
-12107 12073 0
-10251 1213 12107 0
10251 -1213 0
10251 -12107 0
12108 -12059 -12075 0
-12108 12059 0
-12108 12075 0
-10254 12109 12108 0
10254 -12109 0
10254 -12108 0
12110 -12061 -12075 0
-12110 12061 0
-12110 12075 0
-10130 12111 12110 0
10130 -12111 0
10130 -12110 0
12112 -12066 -12056 0
-12112 12066 0
-12112 12056 0
-10151 12113 12112 0
10151 -12113 0
10151 -12112 0
12114 -12066 -12053 0
-12114 12066 0
-12114 12053 0
-10153 12115 12114 0
10153 -12115 0
10153 -12114 0
12116 -12066 -12061 0
-12116 12066 0
-12116 12061 0
-10119 12117 12116 0
10119 -12117 0
10119 -12116 0
12118 -12066 -12066 0
-12118 12066 0
-12118 12066 0
-10155 1210 12118 0
10155 -1210 0
10155 -12118 0
12119 -12066 -12073 0
-12119 12066 0
-12119 12073 0
-10157 1214 12119 0
10157 -1214 0
10157 -12119 0
12120 -12066 -12075 0
-12120 12066 0
-12120 12075 0
-10159 12121 12120 0
10159 -12121 0
10159 -12120 0
12122 -12068 -12075 0
-12122 12068 0
-12122 12075 0
-10161 12123 12122 0
10161 -12123 0
10161 -12122 0
12124 -12073 -12056 0
-12124 12073 0
-12124 12056 0
-10163 12125 12124 0
10163 -12125 0
10163 -12124 0
12126 -12073 -12053 0
-12126 12073 0
-12126 12053 0
-10165 12127 12126 0
10165 -12127 0
10165 -12126 0
12128 -12073 -12061 0
-12128 12073 0
-12128 12061 0
-10127 12129 12128 0
10127 -12129 0
10127 -12128 0
12130 -12073 -12068 0
-12130 12073 0
-12130 12068 0
-10167 12131 12130 0
10167 -12131 0
10167 -12130 0
12132 -12073 -12073 0
-12132 12073 0
-12132 12073 0
-10169 1215 12132 0
10169 -1215 0
10169 -12132 0
12133 -12069 -12069 0
-12133 12069 0
-12133 12069 0
-10881 1201 12133 0
10881 -1201 0
10881 -12133 0
12134 -12069 -12089 0
-12134 12069 0
-12134 12089 0
-10884 1202 12134 0
10884 -1202 0
10884 -12134 0
12135 -12069 -12091 0
-12135 12069 0
-12135 12091 0
-10887 12054 12135 0
10887 -12054 0
10887 -12135 0
12136 -12071 -12091 0
-12136 12071 0
-12136 12091 0
-10890 12057 12136 0
10890 -12057 0
10890 -12136 0
12137 -12069 -12104 0
-12137 12069 0
-12137 12104 0
-11789 1204 12137 0
11789 -1204 0
11789 -12137 0
12138 -12069 -12106 0
-12138 12069 0
-12138 12106 0
-10880 12062 12138 0
10880 -12062 0
10880 -12138 0
12139 -12071 -12106 0
-12139 12071 0
-12139 12106 0
-10889 12064 12139 0
10889 -12064 0
10889 -12139 0
12140 -12069 -12131 0
-12140 12069 0
-12140 12131 0
-10893 1211 12140 0
10893 -1211 0
10893 -12140 0
12141 -12069 -12123 0
-12141 12069 0
-12141 12123 0
-10896 12076 12141 0
10896 -12076 0
10896 -12141 0
12142 -12071 -12123 0
-12142 12071 0
-12142 12123 0
-10898 12078 12142 0
10898 -12078 0
10898 -12142 0
12143 -12069 -12144 0
-12143 12069 0
-12143 12144 0
-10901 1216 12143 0
10901 -1216 0
10901 -12143 0
12145 -12069 -12068 0
-12145 12069 0
-12145 12068 0
-10904 12049 12145 0
10904 -12049 0
10904 -12145 0
12146 -12071 -12068 0
-12146 12071 0
-12146 12068 0
-10906 12056 12146 0
10906 -12056 0
10906 -12146 0
12147 -12089 -12071 0
-12147 12089 0
-12147 12071 0
-10908 12080 12147 0
10908 -12080 0
10908 -12147 0
12148 -12089 -12089 0
-12148 12089 0
-12148 12089 0
-10910 1203 12148 0
10910 -1203 0
10910 -12148 0
12149 -12089 -12104 0
-12149 12089 0
-12149 12104 0
-11795 1205 12149 0
11795 -1205 0
11795 -12149 0
12150 -12089 -12106 0
-12150 12089 0
-12150 12106 0
-10883 12084 12150 0
10883 -12084 0
10883 -12150 0
12151 -12091 -12106 0
-12151 12091 0
-12151 12106 0
-10886 12086 12151 0
10886 -12086 0
10886 -12151 0
12152 -12089 -12131 0
-12152 12089 0
-12152 12131 0
-10912 1212 12152 0
10912 -1212 0
10912 -12152 0
12153 -12089 -12123 0
-12153 12089 0
-12153 12123 0
-10914 12094 12153 0
10914 -12094 0
10914 -12153 0
12154 -12091 -12123 0
-12154 12091 0
-12154 12123 0
-10916 12096 12154 0
10916 -12096 0
10916 -12154 0
12155 -12089 -12144 0
-12155 12089 0
-12155 12144 0
-10918 1217 12155 0
10918 -1217 0
10918 -12155 0
12156 -12089 -12068 0
-12156 12089 0
-12156 12068 0
-10920 12051 12156 0
10920 -12051 0
10920 -12156 0
12157 -12091 -12068 0
-12157 12091 0
-12157 12068 0
-10922 12053 12157 0
10922 -12053 0
10922 -12157 0
12158 -12104 -12071 0
-12158 12104 0
-12158 12071 0
-11806 12098 12158 0
11806 -12098 0
11806 -12158 0
12159 -12104 -12091 0
-12159 12104 0
-12159 12091 0
-11800 12100 12159 0
11800 -12100 0
11800 -12159 0
12160 -12104 -12104 0
-12160 12104 0
-12160 12104 0
-11793 1206 12160 0
11793 -1206 0
11793 -12160 0
12161 -12104 -12131 0
-12161 12104 0
-12161 12131 0
-11810 1213 12161 0
11810 -1213 0
11810 -12161 0
12162 -12104 -12123 0
-12162 12104 0
-12162 12123 0
-11815 12109 12162 0
11815 -12109 0
11815 -12162 0
12163 -12106 -12123 0
-12163 12106 0
-12163 12123 0
-10895 12111 12163 0
10895 -12111 0
10895 -12163 0
12164 -12104 -12144 0
-12164 12104 0
-12164 12144 0
-11824 1218 12164 0
11824 -1218 0
11824 -12164 0
12165 -12104 -12068 0
-12165 12104 0
-12165 12068 0
-11829 12059 12165 0
11829 -12059 0
11829 -12165 0
12166 -12106 -12068 0
-12166 12106 0
-12166 12068 0
-10903 12061 12166 0
10903 -12061 0
10903 -12166 0
12167 -12131 -12071 0
-12167 12131 0
-12167 12071 0
-10924 12125 12167 0
10924 -12125 0
10924 -12167 0
12168 -12131 -12091 0
-12168 12131 0
-12168 12091 0
-10926 12127 12168 0
10926 -12127 0
10926 -12168 0
12169 -12131 -12106 0
-12169 12131 0
-12169 12106 0
-10892 12129 12169 0
10892 -12129 0
10892 -12169 0
12170 -12131 -12131 0
-12170 12131 0
-12170 12131 0
-10928 1215 12170 0
10928 -1215 0
10928 -12170 0
12171 -12131 -12144 0
-12171 12131 0
-12171 12144 0
-10930 1220 12171 0
10930 -1220 0
10930 -12171 0
12172 -12131 -12068 0
-12172 12131 0
-12172 12068 0
-10932 12073 12172 0
10932 -12073 0
10932 -12172 0
12173 -12123 -12068 0
-12173 12123 0
-12173 12068 0
-10934 12075 12173 0
10934 -12075 0
10934 -12173 0
12174 -12144 -12071 0
-12174 12144 0
-12174 12071 0
-10936 12175 12174 0
10936 -12175 0
10936 -12174 0
12176 -12144 -12091 0
-12176 12144 0
-12176 12091 0
-10938 12177 12176 0
10938 -12177 0
10938 -12176 0
12178 -12144 -12106 0
-12178 12144 0
-12178 12106 0
-10900 12179 12178 0
10900 -12179 0
10900 -12178 0
12180 -12144 -12123 0
-12180 12144 0
-12180 12123 0
-10940 12181 12180 0
10940 -12181 0
10940 -12180 0
12182 -12144 -12144 0
-12182 12144 0
-12182 12144 0
-10942 1221 12182 0
10942 -1221 0
10942 -12182 0
12183 -12076 -12076 0
-12183 12076 0
-12183 12076 0
-10632 1201 12183 0
10632 -1201 0
10632 -12183 0
12184 -12076 -12094 0
-12184 12076 0
-12184 12094 0
-10635 1202 12184 0
10635 -1202 0
10635 -12184 0
12185 -12076 -12096 0
-12185 12076 0
-12185 12096 0
-10638 12054 12185 0
10638 -12054 0
10638 -12185 0
12186 -12078 -12096 0
-12186 12078 0
-12186 12096 0
-10641 12057 12186 0
10641 -12057 0
10641 -12186 0
12187 -12076 -12109 0
-12187 12076 0
-12187 12109 0
-10644 1204 12187 0
10644 -1204 0
10644 -12187 0
12188 -12076 -12111 0
-12188 12076 0
-12188 12111 0
-10647 12062 12188 0
10647 -12062 0
10647 -12188 0
12189 -12078 -12111 0
-12189 12078 0
-12189 12111 0
-10649 12064 12189 0
10649 -12064 0
10649 -12189 0
12190 -12076 -12121 0
-12190 12076 0
-12190 12121 0
-10849 1207 12190 0
10849 -1207 0
10849 -12190 0
12191 -12076 -12123 0
-12191 12076 0
-12191 12123 0
-10631 12069 12191 0
10631 -12069 0
10631 -12191 0
12192 -12078 -12123 0
-12192 12078 0
-12192 12123 0
-10640 12071 12192 0
10640 -12071 0
10640 -12192 0
12193 -12076 -12181 0
-12193 12076 0
-12193 12181 0
-10652 1216 12193 0
10652 -1216 0
10652 -12193 0
12194 -12076 -12075 0
-12194 12076 0
-12194 12075 0
-10655 12049 12194 0
10655 -12049 0
10655 -12194 0
12195 -12078 -12075 0
-12195 12078 0
-12195 12075 0
-10657 12056 12195 0
10657 -12056 0
10657 -12195 0
12196 -12094 -12078 0
-12196 12094 0
-12196 12078 0
-10659 12080 12196 0
10659 -12080 0
10659 -12196 0
12197 -12094 -12094 0
-12197 12094 0
-12197 12094 0
-10661 1203 12197 0
10661 -1203 0
10661 -12197 0
12198 -12094 -12109 0
-12198 12094 0
-12198 12109 0
-10663 1205 12198 0
10663 -1205 0
10663 -12198 0
12199 -12094 -12111 0
-12199 12094 0
-12199 12111 0
-10665 12084 12199 0
10665 -12084 0
10665 -12199 0
12200 -12096 -12111 0
-12200 12096 0
-12200 12111 0
-10667 12086 12200 0
10667 -12086 0
10667 -12200 0
12201 -12094 -12121 0
-12201 12094 0
-12201 12121 0
-10858 1208 12201 0
10858 -1208 0
10858 -12201 0
12202 -12094 -12123 0
-12202 12094 0
-12202 12123 0
-10634 12089 12202 0
10634 -12089 0
10634 -12202 0
12203 -12096 -12123 0
-12203 12096 0
-12203 12123 0
-10637 12091 12203 0
10637 -12091 0
10637 -12203 0
12204 -12094 -12181 0
-12204 12094 0
-12204 12181 0
-10669 1217 12204 0
10669 -1217 0
10669 -12204 0
12205 -12094 -12075 0
-12205 12094 0
-12205 12075 0
-10671 12051 12205 0
10671 -12051 0
10671 -12205 0
12206 -12096 -12075 0
-12206 12096 0
-12206 12075 0
-10673 12053 12206 0
10673 -12053 0
10673 -12206 0
12207 -12109 -12078 0
-12207 12109 0
-12207 12078 0
-10675 12098 12207 0
10675 -12098 0
10675 -12207 0
12208 -12109 -12096 0
-12208 12109 0
-12208 12096 0
-10677 12100 12208 0
10677 -12100 0
10677 -12208 0
12209 -12109 -12109 0
-12209 12109 0
-12209 12109 0
-10679 1206 12209 0
10679 -1206 0
10679 -12209 0
12210 -12109 -12121 0
-12210 12109 0
-12210 12121 0
-10960 1209 12210 0
10960 -1209 0
10960 -12210 0
12211 -12109 -12123 0
-12211 12109 0
-12211 12123 0
-10643 12104 12211 0
10643 -12104 0
10643 -12211 0
12212 -12111 -12123 0
-12212 12111 0
-12212 12123 0
-10646 12106 12212 0
10646 -12106 0
10646 -12212 0
12213 -12109 -12181 0
-12213 12109 0
-12213 12181 0
-10681 1218 12213 0
10681 -1218 0
10681 -12213 0
12214 -12109 -12075 0
-12214 12109 0
-12214 12075 0
-10683 12059 12214 0
10683 -12059 0
10683 -12214 0
12215 -12111 -12075 0
-12215 12111 0
-12215 12075 0
-10685 12061 12215 0
10685 -12061 0
10685 -12215 0
12216 -12121 -12078 0
-12216 12121 0
-12216 12078 0
-10865 12113 12216 0
10865 -12113 0
10865 -12216 0
12217 -12121 -12096 0
-12217 12121 0
-12217 12096 0
-10867 12115 12217 0
10867 -12115 0
10867 -12217 0
12218 -12121 -12111 0
-12218 12121 0
-12218 12111 0
-10848 12117 12218 0
10848 -12117 0
10848 -12218 0
12219 -12121 -12121 0
-12219 12121 0
-12219 12121 0
-10869 1210 12219 0
10869 -1210 0
10869 -12219 0
12220 -12121 -12181 0
-12220 12121 0
-12220 12181 0
-10871 1219 12220 0
10871 -1219 0
10871 -12220 0
12221 -12121 -12075 0
-12221 12121 0
-12221 12075 0
-10873 12066 12221 0
10873 -12066 0
10873 -12221 0
12222 -12123 -12075 0
-12222 12123 0
-12222 12075 0
-10654 12068 12222 0
10654 -12068 0
10654 -12222 0
12223 -12181 -12078 0
-12223 12181 0
-12223 12078 0
-10687 12175 12223 0
10687 -12175 0
10687 -12223 0
12224 -12181 -12096 0
-12224 12181 0
-12224 12096 0
-10689 12177 12224 0
10689 -12177 0
10689 -12224 0
12225 -12181 -12111 0
-12225 12181 0
-12225 12111 0
-10691 12179 12225 0
10691 -12179 0
10691 -12225 0
12226 -12181 -12123 0
-12226 12181 0
-12226 12123 0
-10651 12144 12226 0
10651 -12144 0
10651 -12226 0
12227 -12181 -12181 0
-12227 12181 0
-12227 12181 0
-10693 1221 12227 0
10693 -1221 0
10693 -12227 0
12228 -12049 -1216 0
-12228 12049 0
-12228 1216 0
12229 -1216 -1216 0
-12229 1216 0
-12229 1216 0
12230 -1216 -12049 0
-12230 1216 0
-12230 12049 0
12231 -12049 -12049 -1221 0
-12231 12049 0
-12231 12049 0
-12231 1221 0
-10457 1201 12228 12229 12230 12231 0
10457 -1201 0
10457 -12228 0
10457 -12229 0
10457 -12230 0
10457 -12231 0
12232 -12049 -1217 0
-12232 12049 0
-12232 1217 0
12233 -1216 -1217 0
-12233 1216 0
-12233 1217 0
12234 -1216 -12051 0
-12234 1216 0
-12234 12051 0
12235 -12049 -12051 -1221 0
-12235 12049 0
-12235 12051 0
-12235 1221 0
-10460 1202 12232 12233 12234 12235 0
10460 -1202 0
10460 -12232 0
10460 -12233 0
10460 -12234 0
10460 -12235 0
12236 -12049 -12177 0
-12236 12049 0
-12236 12177 0
12237 -1216 -12053 0
-12237 1216 0
-12237 12053 0
12238 -1216 -12177 0
-12238 1216 0
-12238 12177 0
12239 -12049 -12053 -1221 0
-12239 12049 0
-12239 12053 0
-12239 1221 0
-10463 12054 12236 12237 12238 12239 0
10463 -12054 0
10463 -12236 0
10463 -12237 0
10463 -12238 0
10463 -12239 0
12240 -12056 -12177 0
-12240 12056 0
-12240 12177 0
12241 -12175 -12177 0
-12241 12175 0
-12241 12177 0
12242 -12175 -12053 0
-12242 12175 0
-12242 12053 0
12243 -12056 -12053 -1221 0
-12243 12056 0
-12243 12053 0
-12243 1221 0
-10466 12057 12240 12241 12242 12243 0
10466 -12057 0
10466 -12240 0
10466 -12241 0
10466 -12242 0
10466 -12243 0
12244 -12049 -1218 0
-12244 12049 0
-12244 1218 0
12245 -1216 -1218 0
-12245 1216 0
-12245 1218 0
12246 -1216 -12059 0
-12246 1216 0
-12246 12059 0
12247 -12049 -12059 -1221 0
-12247 12049 0
-12247 12059 0
-12247 1221 0
-10469 1204 12244 12245 12246 12247 0
10469 -1204 0
10469 -12244 0
10469 -12245 0
10469 -12246 0
10469 -12247 0
12248 -12049 -12179 0
-12248 12049 0
-12248 12179 0
12249 -1216 -12061 0
-12249 1216 0
-12249 12061 0
12250 -1216 -12179 0
-12250 1216 0
-12250 12179 0
12251 -12049 -12061 -1221 0
-12251 12049 0
-12251 12061 0
-12251 1221 0
-10472 12062 12248 12249 12250 12251 0
10472 -12062 0
10472 -12248 0
10472 -12249 0
10472 -12250 0
10472 -12251 0
12252 -12056 -12179 0
-12252 12056 0
-12252 12179 0
12253 -12175 -12179 0
-12253 12175 0
-12253 12179 0
12254 -12175 -12061 0
-12254 12175 0
-12254 12061 0
12255 -12056 -12061 -1221 0
-12255 12056 0
-12255 12061 0
-12255 1221 0
-10474 12064 12252 12253 12254 12255 0
10474 -12064 0
10474 -12252 0
10474 -12253 0
10474 -12254 0
10474 -12255 0
12256 -12049 -1219 0
-12256 12049 0
-12256 1219 0
12257 -1216 -1219 0
-12257 1216 0
-12257 1219 0
12258 -1216 -12066 0
-12258 1216 0
-12258 12066 0
12259 -12049 -12066 -1221 0
-12259 12049 0
-12259 12066 0
-12259 1221 0
-10700 1207 12256 12257 12258 12259 0
10700 -1207 0
10700 -12256 0
10700 -12257 0
10700 -12258 0
10700 -12259 0
12260 -12049 -12144 0
-12260 12049 0
-12260 12144 0
12261 -1216 -12068 0
-12261 1216 0
-12261 12068 0
12262 -1216 -12144 0
-12262 1216 0
-12262 12144 0
12263 -12049 -12068 -1221 0
-12263 12049 0
-12263 12068 0
-12263 1221 0
-10456 12069 12260 12261 12262 12263 0
10456 -12069 0
10456 -12260 0
10456 -12261 0
10456 -12262 0
10456 -12263 0
12264 -12056 -12144 0
-12264 12056 0
-12264 12144 0
12265 -12175 -12144 0
-12265 12175 0
-12265 12144 0
12266 -12175 -12068 0
-12266 12175 0
-12266 12068 0
12267 -12056 -12068 -1221 0
-12267 12056 0
-12267 12068 0
-12267 1221 0
-10465 12071 12264 12265 12266 12267 0
10465 -12071 0
10465 -12264 0
10465 -12265 0
10465 -12266 0
10465 -12267 0
12268 -12049 -1220 0
-12268 12049 0
-12268 1220 0
12269 -1216 -1220 0
-12269 1216 0
-12269 1220 0
12270 -1216 -12073 0
-12270 1216 0
-12270 12073 0
12271 -12049 -12073 -1221 0
-12271 12049 0
-12271 12073 0
-12271 1221 0
-10477 1211 12268 12269 12270 12271 0
10477 -1211 0
10477 -12268 0
10477 -12269 0
10477 -12270 0
10477 -12271 0
12272 -12049 -12181 0
-12272 12049 0
-12272 12181 0
12273 -1216 -12075 0
-12273 1216 0
-12273 12075 0
12274 -1216 -12181 0
-12274 1216 0
-12274 12181 0
12275 -12049 -12075 -1221 0
-12275 12049 0
-12275 12075 0
-12275 1221 0
-10480 12076 12272 12273 12274 12275 0
10480 -12076 0
10480 -12272 0
10480 -12273 0
10480 -12274 0
10480 -12275 0
12276 -12056 -12181 0
-12276 12056 0
-12276 12181 0
12277 -12175 -12181 0
-12277 12175 0
-12277 12181 0
12278 -12175 -12075 0
-12278 12175 0
-12278 12075 0
12279 -12056 -12075 -1221 0
-12279 12056 0
-12279 12075 0
-12279 1221 0
-10482 12078 12276 12277 12278 12279 0
10482 -12078 0
10482 -12276 0
10482 -12277 0
10482 -12278 0
10482 -12279 0
12280 -12051 -12175 0
-12280 12051 0
-12280 12175 0
12281 -1217 -12056 0
-12281 1217 0
-12281 12056 0
12282 -1217 -12175 0
-12282 1217 0
-12282 12175 0
12283 -12051 -12056 -1221 0
-12283 12051 0
-12283 12056 0
-12283 1221 0
-10484 12080 12280 12281 12282 12283 0
10484 -12080 0
10484 -12280 0
10484 -12281 0
10484 -12282 0
10484 -12283 0
12284 -12051 -1217 0
-12284 12051 0
-12284 1217 0
12285 -1217 -1217 0
-12285 1217 0
-12285 1217 0
12286 -1217 -12051 0
-12286 1217 0
-12286 12051 0
12287 -12051 -12051 -1221 0
-12287 12051 0
-12287 12051 0
-12287 1221 0
-10486 1203 12284 12285 12286 12287 0
10486 -1203 0
10486 -12284 0
10486 -12285 0
10486 -12286 0
10486 -12287 0
12288 -12051 -1218 0
-12288 12051 0
-12288 1218 0
12289 -1217 -1218 0
-12289 1217 0
-12289 1218 0
12290 -1217 -12059 0
-12290 1217 0
-12290 12059 0
12291 -12051 -12059 -1221 0
-12291 12051 0
-12291 12059 0
-12291 1221 0
-10488 1205 12288 12289 12290 12291 0
10488 -1205 0
10488 -12288 0
10488 -12289 0
10488 -12290 0
10488 -12291 0
12292 -12051 -12179 0
-12292 12051 0
-12292 12179 0
12293 -1217 -12061 0
-12293 1217 0
-12293 12061 0
12294 -1217 -12179 0
-12294 1217 0
-12294 12179 0
12295 -12051 -12061 -1221 0
-12295 12051 0
-12295 12061 0
-12295 1221 0
-10490 12084 12292 12293 12294 12295 0
10490 -12084 0
10490 -12292 0
10490 -12293 0
10490 -12294 0
10490 -12295 0
12296 -12053 -12179 0
-12296 12053 0
-12296 12179 0
12297 -12177 -12179 0
-12297 12177 0
-12297 12179 0
12298 -12177 -12061 0
-12298 12177 0
-12298 12061 0
12299 -12053 -12061 -1221 0
-12299 12053 0
-12299 12061 0
-12299 1221 0
-10492 12086 12296 12297 12298 12299 0
10492 -12086 0
10492 -12296 0
10492 -12297 0
10492 -12298 0
10492 -12299 0
12300 -12051 -1219 0
-12300 12051 0
-12300 1219 0
12301 -1217 -1219 0
-12301 1217 0
-12301 1219 0
12302 -1217 -12066 0
-12302 1217 0
-12302 12066 0
12303 -12051 -12066 -1221 0
-12303 12051 0
-12303 12066 0
-12303 1221 0
-10709 1208 12300 12301 12302 12303 0
10709 -1208 0
10709 -12300 0
10709 -12301 0
10709 -12302 0
10709 -12303 0
12304 -12051 -12144 0
-12304 12051 0
-12304 12144 0
12305 -1217 -12068 0
-12305 1217 0
-12305 12068 0
12306 -1217 -12144 0
-12306 1217 0
-12306 12144 0
12307 -12051 -12068 -1221 0
-12307 12051 0
-12307 12068 0
-12307 1221 0
-10459 12089 12304 12305 12306 12307 0
10459 -12089 0
10459 -12304 0
10459 -12305 0
10459 -12306 0
10459 -12307 0
12308 -12053 -12144 0
-12308 12053 0
-12308 12144 0
12309 -12177 -12144 0
-12309 12177 0
-12309 12144 0
12310 -12177 -12068 0
-12310 12177 0
-12310 12068 0
12311 -12053 -12068 -1221 0
-12311 12053 0
-12311 12068 0
-12311 1221 0
-10462 12091 12308 12309 12310 12311 0
10462 -12091 0
10462 -12308 0
10462 -12309 0
10462 -12310 0
10462 -12311 0
12312 -12051 -1220 0
-12312 12051 0
-12312 1220 0
12313 -1217 -1220 0
-12313 1217 0
-12313 1220 0
12314 -1217 -12073 0
-12314 1217 0
-12314 12073 0
12315 -12051 -12073 -1221 0
-12315 12051 0
-12315 12073 0
-12315 1221 0
-10494 1212 12312 12313 12314 12315 0
10494 -1212 0
10494 -12312 0
10494 -12313 0
10494 -12314 0
10494 -12315 0
12316 -12051 -12181 0
-12316 12051 0
-12316 12181 0
12317 -1217 -12075 0
-12317 1217 0
-12317 12075 0
12318 -1217 -12181 0
-12318 1217 0
-12318 12181 0
12319 -12051 -12075 -1221 0
-12319 12051 0
-12319 12075 0
-12319 1221 0
-10496 12094 12316 12317 12318 12319 0
10496 -12094 0
10496 -12316 0
10496 -12317 0
10496 -12318 0
10496 -12319 0
12320 -12053 -12181 0
-12320 12053 0
-12320 12181 0
12321 -12177 -12181 0
-12321 12177 0
-12321 12181 0
12322 -12177 -12075 0
-12322 12177 0
-12322 12075 0
12323 -12053 -12075 -1221 0
-12323 12053 0
-12323 12075 0
-12323 1221 0
-10498 12096 12320 12321 12322 12323 0
10498 -12096 0
10498 -12320 0
10498 -12321 0
10498 -12322 0
10498 -12323 0
12324 -12059 -12175 0
-12324 12059 0
-12324 12175 0
12325 -1218 -12056 0
-12325 1218 0
-12325 12056 0
12326 -1218 -12175 0
-12326 1218 0
-12326 12175 0
12327 -12059 -12056 -1221 0
-12327 12059 0
-12327 12056 0
-12327 1221 0
-10500 12098 12324 12325 12326 12327 0
10500 -12098 0
10500 -12324 0
10500 -12325 0
10500 -12326 0
10500 -12327 0
12328 -12059 -12177 0
-12328 12059 0
-12328 12177 0
12329 -1218 -12053 0
-12329 1218 0
-12329 12053 0
12330 -1218 -12177 0
-12330 1218 0
-12330 12177 0
12331 -12059 -12053 -1221 0
-12331 12059 0
-12331 12053 0
-12331 1221 0
-10502 12100 12328 12329 12330 12331 0
10502 -12100 0
10502 -12328 0
10502 -12329 0
10502 -12330 0
10502 -12331 0
12332 -12059 -1218 0
-12332 12059 0
-12332 1218 0
12333 -1218 -1218 0
-12333 1218 0
-12333 1218 0
12334 -1218 -12059 0
-12334 1218 0
-12334 12059 0
12335 -12059 -12059 -1221 0
-12335 12059 0
-12335 12059 0
-12335 1221 0
-10504 1206 12332 12333 12334 12335 0
10504 -1206 0
10504 -12332 0
10504 -12333 0
10504 -12334 0
10504 -12335 0
12336 -12059 -1219 0
-12336 12059 0
-12336 1219 0
12337 -1218 -1219 0
-12337 1218 0
-12337 1219 0
12338 -1218 -12066 0
-12338 1218 0
-12338 12066 0
12339 -12059 -12066 -1221 0
-12339 12059 0
-12339 12066 0
-12339 1221 0
-10747 1209 12336 12337 12338 12339 0
10747 -1209 0
10747 -12336 0
10747 -12337 0
10747 -12338 0
10747 -12339 0
12340 -12059 -12144 0
-12340 12059 0
-12340 12144 0
12341 -1218 -12068 0
-12341 1218 0
-12341 12068 0
12342 -1218 -12144 0
-12342 1218 0
-12342 12144 0
12343 -12059 -12068 -1221 0
-12343 12059 0
-12343 12068 0
-12343 1221 0
-10468 12104 12340 12341 12342 12343 0
10468 -12104 0
10468 -12340 0
10468 -12341 0
10468 -12342 0
10468 -12343 0
12344 -12061 -12144 0
-12344 12061 0
-12344 12144 0
12345 -12179 -12144 0
-12345 12179 0
-12345 12144 0
12346 -12179 -12068 0
-12346 12179 0
-12346 12068 0
12347 -12061 -12068 -1221 0
-12347 12061 0
-12347 12068 0
-12347 1221 0
-10471 12106 12344 12345 12346 12347 0
10471 -12106 0
10471 -12344 0
10471 -12345 0
10471 -12346 0
10471 -12347 0
12348 -12059 -1220 0
-12348 12059 0
-12348 1220 0
12349 -1218 -1220 0
-12349 1218 0
-12349 1220 0
12350 -1218 -12073 0
-12350 1218 0
-12350 12073 0
12351 -12059 -12073 -1221 0
-12351 12059 0
-12351 12073 0
-12351 1221 0
-10506 1213 12348 12349 12350 12351 0
10506 -1213 0
10506 -12348 0
10506 -12349 0
10506 -12350 0
10506 -12351 0
12352 -12059 -12181 0
-12352 12059 0
-12352 12181 0
12353 -1218 -12075 0
-12353 1218 0
-12353 12075 0
12354 -1218 -12181 0
-12354 1218 0
-12354 12181 0
12355 -12059 -12075 -1221 0
-12355 12059 0
-12355 12075 0
-12355 1221 0
-10508 12109 12352 12353 12354 12355 0
10508 -12109 0
10508 -12352 0
10508 -12353 0
10508 -12354 0
10508 -12355 0
12356 -12061 -12181 0
-12356 12061 0
-12356 12181 0
12357 -12179 -12181 0
-12357 12179 0
-12357 12181 0
12358 -12179 -12075 0
-12358 12179 0
-12358 12075 0
12359 -12061 -12075 -1221 0
-12359 12061 0
-12359 12075 0
-12359 1221 0
-10510 12111 12356 12357 12358 12359 0
10510 -12111 0
10510 -12356 0
10510 -12357 0
10510 -12358 0
10510 -12359 0
12360 -12066 -12175 0
-12360 12066 0
-12360 12175 0
12361 -1219 -12056 0
-12361 1219 0
-12361 12056 0
12362 -1219 -12175 0
-12362 1219 0
-12362 12175 0
12363 -12066 -12056 -1221 0
-12363 12066 0
-12363 12056 0
-12363 1221 0
-10716 12113 12360 12361 12362 12363 0
10716 -12113 0
10716 -12360 0
10716 -12361 0
10716 -12362 0
10716 -12363 0
12364 -12066 -12177 0
-12364 12066 0
-12364 12177 0
12365 -1219 -12053 0
-12365 1219 0
-12365 12053 0
12366 -1219 -12177 0
-12366 1219 0
-12366 12177 0
12367 -12066 -12053 -1221 0
-12367 12066 0
-12367 12053 0
-12367 1221 0
-10718 12115 12364 12365 12366 12367 0
10718 -12115 0
10718 -12364 0
10718 -12365 0
10718 -12366 0
10718 -12367 0
12368 -12066 -12179 0
-12368 12066 0
-12368 12179 0
12369 -1219 -12061 0
-12369 1219 0
-12369 12061 0
12370 -1219 -12179 0
-12370 1219 0
-12370 12179 0
12371 -12066 -12061 -1221 0
-12371 12066 0
-12371 12061 0
-12371 1221 0
-10699 12117 12368 12369 12370 12371 0
10699 -12117 0
10699 -12368 0
10699 -12369 0
10699 -12370 0
10699 -12371 0
12372 -12066 -1219 0
-12372 12066 0
-12372 1219 0
12373 -1219 -1219 0
-12373 1219 0
-12373 1219 0
12374 -1219 -12066 0
-12374 1219 0
-12374 12066 0
12375 -12066 -12066 -1221 0
-12375 12066 0
-12375 12066 0
-12375 1221 0
-10720 1210 12372 12373 12374 12375 0
10720 -1210 0
10720 -12372 0
10720 -12373 0
10720 -12374 0
10720 -12375 0
12376 -12066 -1220 0
-12376 12066 0
-12376 1220 0
12377 -1219 -1220 0
-12377 1219 0
-12377 1220 0
12378 -1219 -12073 0
-12378 1219 0
-12378 12073 0
12379 -12066 -12073 -1221 0
-12379 12066 0
-12379 12073 0
-12379 1221 0
-10722 1214 12376 12377 12378 12379 0
10722 -1214 0
10722 -12376 0
10722 -12377 0
10722 -12378 0
10722 -12379 0
12380 -12066 -12181 0
-12380 12066 0
-12380 12181 0
12381 -1219 -12075 0
-12381 1219 0
-12381 12075 0
12382 -1219 -12181 0
-12382 1219 0
-12382 12181 0
12383 -12066 -12075 -1221 0
-12383 12066 0
-12383 12075 0
-12383 1221 0
-10724 12121 12380 12381 12382 12383 0
10724 -12121 0
10724 -12380 0
10724 -12381 0
10724 -12382 0
10724 -12383 0
12384 -12068 -12181 0
-12384 12068 0
-12384 12181 0
12385 -12144 -12181 0
-12385 12144 0
-12385 12181 0
12386 -12144 -12075 0
-12386 12144 0
-12386 12075 0
12387 -12068 -12075 -1221 0
-12387 12068 0
-12387 12075 0
-12387 1221 0
-10479 12123 12384 12385 12386 12387 0
10479 -12123 0
10479 -12384 0
10479 -12385 0
10479 -12386 0
10479 -12387 0
12388 -12073 -12175 0
-12388 12073 0
-12388 12175 0
12389 -1220 -12056 0
-12389 1220 0
-12389 12056 0
12390 -1220 -12175 0
-12390 1220 0
-12390 12175 0
12391 -12073 -12056 -1221 0
-12391 12073 0
-12391 12056 0
-12391 1221 0
-10512 12125 12388 12389 12390 12391 0
10512 -12125 0
10512 -12388 0
10512 -12389 0
10512 -12390 0
10512 -12391 0
12392 -12073 -12177 0
-12392 12073 0
-12392 12177 0
12393 -1220 -12053 0
-12393 1220 0
-12393 12053 0
12394 -1220 -12177 0
-12394 1220 0
-12394 12177 0
12395 -12073 -12053 -1221 0
-12395 12073 0
-12395 12053 0
-12395 1221 0
-10514 12127 12392 12393 12394 12395 0
10514 -12127 0
10514 -12392 0
10514 -12393 0
10514 -12394 0
10514 -12395 0
12396 -12073 -12179 0
-12396 12073 0
-12396 12179 0
12397 -1220 -12061 0
-12397 1220 0
-12397 12061 0
12398 -1220 -12179 0
-12398 1220 0
-12398 12179 0
12399 -12073 -12061 -1221 0
-12399 12073 0
-12399 12061 0
-12399 1221 0
-10516 12129 12396 12397 12398 12399 0
10516 -12129 0
10516 -12396 0
10516 -12397 0
10516 -12398 0
10516 -12399 0
12400 -12073 -12144 0
-12400 12073 0
-12400 12144 0
12401 -1220 -12068 0
-12401 1220 0
-12401 12068 0
12402 -1220 -12144 0
-12402 1220 0
-12402 12144 0
12403 -12073 -12068 -1221 0
-12403 12073 0
-12403 12068 0
-12403 1221 0
-10476 12131 12400 12401 12402 12403 0
10476 -12131 0
10476 -12400 0
10476 -12401 0
10476 -12402 0
10476 -12403 0
12404 -12073 -1220 0
-12404 12073 0
-12404 1220 0
12405 -1220 -1220 0
-12405 1220 0
-12405 1220 0
12406 -1220 -12073 0
-12406 1220 0
-12406 12073 0
12407 -12073 -12073 -1221 0
-12407 12073 0
-12407 12073 0
-12407 1221 0
-10518 1215 12404 12405 12406 12407 0
10518 -1215 0
10518 -12404 0
10518 -12405 0
10518 -12406 0
10518 -12407 0
12408 -12069 -1207 0
-12408 12069 0
-12408 1207 0
12409 -1207 -1207 0
-12409 1207 0
-12409 1207 0
12410 -1207 -12069 0
-12410 1207 0
-12410 12069 0
12411 -12069 -12069 -1210 0
-12411 12069 0
-12411 12069 0
-12411 1210 0
-10172 1201 12408 12409 12410 12411 0
10172 -1201 0
10172 -12408 0
10172 -12409 0
10172 -12410 0
10172 -12411 0
12412 -12069 -1208 0
-12412 12069 0
-12412 1208 0
12413 -1207 -1208 0
-12413 1207 0
-12413 1208 0
12414 -1207 -12089 0
-12414 1207 0
-12414 12089 0
12415 -12069 -12089 -1210 0
-12415 12069 0
-12415 12089 0
-12415 1210 0
-10175 1202 12412 12413 12414 12415 0
10175 -1202 0
10175 -12412 0
10175 -12413 0
10175 -12414 0
10175 -12415 0
12416 -12069 -12115 0
-12416 12069 0
-12416 12115 0
12417 -1207 -12091 0
-12417 1207 0
-12417 12091 0
12418 -1207 -12115 0
-12418 1207 0
-12418 12115 0
12419 -12069 -12091 -1210 0
-12419 12069 0
-12419 12091 0
-12419 1210 0
-10178 12054 12416 12417 12418 12419 0
10178 -12054 0
10178 -12416 0
10178 -12417 0
10178 -12418 0
10178 -12419 0
12420 -12071 -12115 0
-12420 12071 0
-12420 12115 0
12421 -12113 -12115 0
-12421 12113 0
-12421 12115 0
12422 -12113 -12091 0
-12422 12113 0
-12422 12091 0
12423 -12071 -12091 -1210 0
-12423 12071 0
-12423 12091 0
-12423 1210 0
-10181 12057 12420 12421 12422 12423 0
10181 -12057 0
10181 -12420 0
10181 -12421 0
10181 -12422 0
10181 -12423 0
12424 -12069 -1209 0
-12424 12069 0
-12424 1209 0
12425 -1207 -1209 0
-12425 1207 0
-12425 1209 0
12426 -1207 -12104 0
-12426 1207 0
-12426 12104 0
12427 -12069 -12104 -1210 0
-12427 12069 0
-12427 12104 0
-12427 1210 0
-11668 1204 12424 12425 12426 12427 0
11668 -1204 0
11668 -12424 0
11668 -12425 0
11668 -12426 0
11668 -12427 0
12428 -12069 -12117 0
-12428 12069 0
-12428 12117 0
12429 -1207 -12106 0
-12429 1207 0
-12429 12106 0
12430 -1207 -12117 0
-12430 1207 0
-12430 12117 0
12431 -12069 -12106 -1210 0
-12431 12069 0
-12431 12106 0
-12431 1210 0
-10171 12062 12428 12429 12430 12431 0
10171 -12062 0
10171 -12428 0
10171 -12429 0
10171 -12430 0
10171 -12431 0
12432 -12071 -12117 0
-12432 12071 0
-12432 12117 0
12433 -12113 -12117 0
-12433 12113 0
-12433 12117 0
12434 -12113 -12106 0
-12434 12113 0
-12434 12106 0
12435 -12071 -12106 -1210 0
-12435 12071 0
-12435 12106 0
-12435 1210 0
-10180 12064 12432 12433 12434 12435 0
10180 -12064 0
10180 -12432 0
10180 -12433 0
10180 -12434 0
10180 -12435 0
12436 -12069 -1214 0
-12436 12069 0
-12436 1214 0
12437 -1207 -1214 0
-12437 1207 0
-12437 1214 0
12438 -1207 -12131 0
-12438 1207 0
-12438 12131 0
12439 -12069 -12131 -1210 0
-12439 12069 0
-12439 12131 0
-12439 1210 0
-10184 1211 12436 12437 12438 12439 0
10184 -1211 0
10184 -12436 0
10184 -12437 0
10184 -12438 0
10184 -12439 0
12440 -12069 -12121 0
-12440 12069 0
-12440 12121 0
12441 -1207 -12123 0
-12441 1207 0
-12441 12123 0
12442 -1207 -12121 0
-12442 1207 0
-12442 12121 0
12443 -12069 -12123 -1210 0
-12443 12069 0
-12443 12123 0
-12443 1210 0
-10187 12076 12440 12441 12442 12443 0
10187 -12076 0
10187 -12440 0
10187 -12441 0
10187 -12442 0
10187 -12443 0
12444 -12071 -12121 0
-12444 12071 0
-12444 12121 0
12445 -12113 -12121 0
-12445 12113 0
-12445 12121 0
12446 -12113 -12123 0
-12446 12113 0
-12446 12123 0
12447 -12071 -12123 -1210 0
-12447 12071 0
-12447 12123 0
-12447 1210 0
-10189 12078 12444 12445 12446 12447 0
10189 -12078 0
10189 -12444 0
10189 -12445 0
10189 -12446 0
10189 -12447 0
12448 -12069 -1219 0
-12448 12069 0
-12448 1219 0
12449 -1207 -1219 0
-12449 1207 0
-12449 1219 0
12450 -1207 -12144 0
-12450 1207 0
-12450 12144 0
12451 -12069 -12144 -1210 0
-12451 12069 0
-12451 12144 0
-12451 1210 0
-10192 1216 12448 12449 12450 12451 0
10192 -1216 0
10192 -12448 0
10192 -12449 0
10192 -12450 0
10192 -12451 0
12452 -12069 -12066 0
-12452 12069 0
-12452 12066 0
12453 -1207 -12068 0
-12453 1207 0
-12453 12068 0
12454 -1207 -12066 0
-12454 1207 0
-12454 12066 0
12455 -12069 -12068 -1210 0
-12455 12069 0
-12455 12068 0
-12455 1210 0
-10195 12049 12452 12453 12454 12455 0
10195 -12049 0
10195 -12452 0
10195 -12453 0
10195 -12454 0
10195 -12455 0
12456 -12071 -12066 0
-12456 12071 0
-12456 12066 0
12457 -12113 -12066 0
-12457 12113 0
-12457 12066 0
12458 -12113 -12068 0
-12458 12113 0
-12458 12068 0
12459 -12071 -12068 -1210 0
-12459 12071 0
-12459 12068 0
-12459 1210 0
-10197 12056 12456 12457 12458 12459 0
10197 -12056 0
10197 -12456 0
10197 -12457 0
10197 -12458 0
10197 -12459 0
12460 -12089 -12113 0
-12460 12089 0
-12460 12113 0
12461 -1208 -12071 0
-12461 1208 0
-12461 12071 0
12462 -1208 -12113 0
-12462 1208 0
-12462 12113 0
12463 -12089 -12071 -1210 0
-12463 12089 0
-12463 12071 0
-12463 1210 0
-10199 12080 12460 12461 12462 12463 0
10199 -12080 0
10199 -12460 0
10199 -12461 0
10199 -12462 0
10199 -12463 0
12464 -12089 -1208 0
-12464 12089 0
-12464 1208 0
12465 -1208 -1208 0
-12465 1208 0
-12465 1208 0
12466 -1208 -12089 0
-12466 1208 0
-12466 12089 0
12467 -12089 -12089 -1210 0
-12467 12089 0
-12467 12089 0
-12467 1210 0
-10201 1203 12464 12465 12466 12467 0
10201 -1203 0
10201 -12464 0
10201 -12465 0
10201 -12466 0
10201 -12467 0
12468 -12089 -1209 0
-12468 12089 0
-12468 1209 0
12469 -1208 -1209 0
-12469 1208 0
-12469 1209 0
12470 -1208 -12104 0
-12470 1208 0
-12470 12104 0
12471 -12089 -12104 -1210 0
-12471 12089 0
-12471 12104 0
-12471 1210 0
-11674 1205 12468 12469 12470 12471 0
11674 -1205 0
11674 -12468 0
11674 -12469 0
11674 -12470 0
11674 -12471 0
12472 -12089 -12117 0
-12472 12089 0
-12472 12117 0
12473 -1208 -12106 0
-12473 1208 0
-12473 12106 0
12474 -1208 -12117 0
-12474 1208 0
-12474 12117 0
12475 -12089 -12106 -1210 0
-12475 12089 0
-12475 12106 0
-12475 1210 0
-10174 12084 12472 12473 12474 12475 0
10174 -12084 0
10174 -12472 0
10174 -12473 0
10174 -12474 0
10174 -12475 0
12476 -12091 -12117 0
-12476 12091 0
-12476 12117 0
12477 -12115 -12117 0
-12477 12115 0
-12477 12117 0
12478 -12115 -12106 0
-12478 12115 0
-12478 12106 0
12479 -12091 -12106 -1210 0
-12479 12091 0
-12479 12106 0
-12479 1210 0
-10177 12086 12476 12477 12478 12479 0
10177 -12086 0
10177 -12476 0
10177 -12477 0
10177 -12478 0
10177 -12479 0
12480 -12089 -1214 0
-12480 12089 0
-12480 1214 0
12481 -1208 -1214 0
-12481 1208 0
-12481 1214 0
12482 -1208 -12131 0
-12482 1208 0
-12482 12131 0
12483 -12089 -12131 -1210 0
-12483 12089 0
-12483 12131 0
-12483 1210 0
-10203 1212 12480 12481 12482 12483 0
10203 -1212 0
10203 -12480 0
10203 -12481 0
10203 -12482 0
10203 -12483 0
12484 -12089 -12121 0
-12484 12089 0
-12484 12121 0
12485 -1208 -12123 0
-12485 1208 0
-12485 12123 0
12486 -1208 -12121 0
-12486 1208 0
-12486 12121 0
12487 -12089 -12123 -1210 0
-12487 12089 0
-12487 12123 0
-12487 1210 0
-10205 12094 12484 12485 12486 12487 0
10205 -12094 0
10205 -12484 0
10205 -12485 0
10205 -12486 0
10205 -12487 0
12488 -12091 -12121 0
-12488 12091 0
-12488 12121 0
12489 -12115 -12121 0
-12489 12115 0
-12489 12121 0
12490 -12115 -12123 0
-12490 12115 0
-12490 12123 0
12491 -12091 -12123 -1210 0
-12491 12091 0
-12491 12123 0
-12491 1210 0
-10207 12096 12488 12489 12490 12491 0
10207 -12096 0
10207 -12488 0
10207 -12489 0
10207 -12490 0
10207 -12491 0
12492 -12089 -1219 0
-12492 12089 0
-12492 1219 0
12493 -1208 -1219 0
-12493 1208 0
-12493 1219 0
12494 -1208 -12144 0
-12494 1208 0
-12494 12144 0
12495 -12089 -12144 -1210 0
-12495 12089 0
-12495 12144 0
-12495 1210 0
-10209 1217 12492 12493 12494 12495 0
10209 -1217 0
10209 -12492 0
10209 -12493 0
10209 -12494 0
10209 -12495 0
12496 -12089 -12066 0
-12496 12089 0
-12496 12066 0
12497 -1208 -12068 0
-12497 1208 0
-12497 12068 0
12498 -1208 -12066 0
-12498 1208 0
-12498 12066 0
12499 -12089 -12068 -1210 0
-12499 12089 0
-12499 12068 0
-12499 1210 0
-10211 12051 12496 12497 12498 12499 0
10211 -12051 0
10211 -12496 0
10211 -12497 0
10211 -12498 0
10211 -12499 0
12500 -12091 -12066 0
-12500 12091 0
-12500 12066 0
12501 -12115 -12066 0
-12501 12115 0
-12501 12066 0
12502 -12115 -12068 0
-12502 12115 0
-12502 12068 0
12503 -12091 -12068 -1210 0
-12503 12091 0
-12503 12068 0
-12503 1210 0
-10213 12053 12500 12501 12502 12503 0
10213 -12053 0
10213 -12500 0
10213 -12501 0
10213 -12502 0
10213 -12503 0
12504 -12104 -12113 0
-12504 12104 0
-12504 12113 0
12505 -1209 -12071 0
-12505 1209 0
-12505 12071 0
12506 -1209 -12113 0
-12506 1209 0
-12506 12113 0
12507 -12104 -12071 -1210 0
-12507 12104 0
-12507 12071 0
-12507 1210 0
-11685 12098 12504 12505 12506 12507 0
11685 -12098 0
11685 -12504 0
11685 -12505 0
11685 -12506 0
11685 -12507 0
12508 -12104 -12115 0
-12508 12104 0
-12508 12115 0
12509 -1209 -12091 0
-12509 1209 0
-12509 12091 0
12510 -1209 -12115 0
-12510 1209 0
-12510 12115 0
12511 -12104 -12091 -1210 0
-12511 12104 0
-12511 12091 0
-12511 1210 0
-11679 12100 12508 12509 12510 12511 0
11679 -12100 0
11679 -12508 0
11679 -12509 0
11679 -12510 0
11679 -12511 0
12512 -12104 -1209 0
-12512 12104 0
-12512 1209 0
12513 -1209 -1209 0
-12513 1209 0
-12513 1209 0
12514 -1209 -12104 0
-12514 1209 0
-12514 12104 0
12515 -12104 -12104 -1210 0
-12515 12104 0
-12515 12104 0
-12515 1210 0
-11672 1206 12512 12513 12514 12515 0
11672 -1206 0
11672 -12512 0
11672 -12513 0
11672 -12514 0
11672 -12515 0
12516 -12104 -1214 0
-12516 12104 0
-12516 1214 0
12517 -1209 -1214 0
-12517 1209 0
-12517 1214 0
12518 -1209 -12131 0
-12518 1209 0
-12518 12131 0
12519 -12104 -12131 -1210 0
-12519 12104 0
-12519 12131 0
-12519 1210 0
-11689 1213 12516 12517 12518 12519 0
11689 -1213 0
11689 -12516 0
11689 -12517 0
11689 -12518 0
11689 -12519 0
12520 -12104 -12121 0
-12520 12104 0
-12520 12121 0
12521 -1209 -12123 0
-12521 1209 0
-12521 12123 0
12522 -1209 -12121 0
-12522 1209 0
-12522 12121 0
12523 -12104 -12123 -1210 0
-12523 12104 0
-12523 12123 0
-12523 1210 0
-11694 12109 12520 12521 12522 12523 0
11694 -12109 0
11694 -12520 0
11694 -12521 0
11694 -12522 0
11694 -12523 0
12524 -12106 -12121 0
-12524 12106 0
-12524 12121 0
12525 -12117 -12121 0
-12525 12117 0
-12525 12121 0
12526 -12117 -12123 0
-12526 12117 0
-12526 12123 0
12527 -12106 -12123 -1210 0
-12527 12106 0
-12527 12123 0
-12527 1210 0
-10186 12111 12524 12525 12526 12527 0
10186 -12111 0
10186 -12524 0
10186 -12525 0
10186 -12526 0
10186 -12527 0
12528 -12104 -1219 0
-12528 12104 0
-12528 1219 0
12529 -1209 -1219 0
-12529 1209 0
-12529 1219 0
12530 -1209 -12144 0
-12530 1209 0
-12530 12144 0
12531 -12104 -12144 -1210 0
-12531 12104 0
-12531 12144 0
-12531 1210 0
-11703 1218 12528 12529 12530 12531 0
11703 -1218 0
11703 -12528 0
11703 -12529 0
11703 -12530 0
11703 -12531 0
12532 -12104 -12066 0
-12532 12104 0
-12532 12066 0
12533 -1209 -12068 0
-12533 1209 0
-12533 12068 0
12534 -1209 -12066 0
-12534 1209 0
-12534 12066 0
12535 -12104 -12068 -1210 0
-12535 12104 0
-12535 12068 0
-12535 1210 0
-11708 12059 12532 12533 12534 12535 0
11708 -12059 0
11708 -12532 0
11708 -12533 0
11708 -12534 0
11708 -12535 0
12536 -12106 -12066 0
-12536 12106 0
-12536 12066 0
12537 -12117 -12066 0
-12537 12117 0
-12537 12066 0
12538 -12117 -12068 0
-12538 12117 0
-12538 12068 0
12539 -12106 -12068 -1210 0
-12539 12106 0
-12539 12068 0
-12539 1210 0
-10194 12061 12536 12537 12538 12539 0
10194 -12061 0
10194 -12536 0
10194 -12537 0
10194 -12538 0
10194 -12539 0
12540 -12131 -12113 0
-12540 12131 0
-12540 12113 0
12541 -1214 -12071 0
-12541 1214 0
-12541 12071 0
12542 -1214 -12113 0
-12542 1214 0
-12542 12113 0
12543 -12131 -12071 -1210 0
-12543 12131 0
-12543 12071 0
-12543 1210 0
-10215 12125 12540 12541 12542 12543 0
10215 -12125 0
10215 -12540 0
10215 -12541 0
10215 -12542 0
10215 -12543 0
12544 -12131 -12115 0
-12544 12131 0
-12544 12115 0
12545 -1214 -12091 0
-12545 1214 0
-12545 12091 0
12546 -1214 -12115 0
-12546 1214 0
-12546 12115 0
12547 -12131 -12091 -1210 0
-12547 12131 0
-12547 12091 0
-12547 1210 0
-10217 12127 12544 12545 12546 12547 0
10217 -12127 0
10217 -12544 0
10217 -12545 0
10217 -12546 0
10217 -12547 0
12548 -12131 -12117 0
-12548 12131 0
-12548 12117 0
12549 -1214 -12106 0
-12549 1214 0
-12549 12106 0
12550 -1214 -12117 0
-12550 1214 0
-12550 12117 0
12551 -12131 -12106 -1210 0
-12551 12131 0
-12551 12106 0
-12551 1210 0
-10183 12129 12548 12549 12550 12551 0
10183 -12129 0
10183 -12548 0
10183 -12549 0
10183 -12550 0
10183 -12551 0
12552 -12131 -1214 0
-12552 12131 0
-12552 1214 0
12553 -1214 -1214 0
-12553 1214 0
-12553 1214 0
12554 -1214 -12131 0
-12554 1214 0
-12554 12131 0
12555 -12131 -12131 -1210 0
-12555 12131 0
-12555 12131 0
-12555 1210 0
-10219 1215 12552 12553 12554 12555 0
10219 -1215 0
10219 -12552 0
10219 -12553 0
10219 -12554 0
10219 -12555 0
12556 -12131 -1219 0
-12556 12131 0
-12556 1219 0
12557 -1214 -1219 0
-12557 1214 0
-12557 1219 0
12558 -1214 -12144 0
-12558 1214 0
-12558 12144 0
12559 -12131 -12144 -1210 0
-12559 12131 0
-12559 12144 0
-12559 1210 0
-10221 1220 12556 12557 12558 12559 0
10221 -1220 0
10221 -12556 0
10221 -12557 0
10221 -12558 0
10221 -12559 0
12560 -12131 -12066 0
-12560 12131 0
-12560 12066 0
12561 -1214 -12068 0
-12561 1214 0
-12561 12068 0
12562 -1214 -12066 0
-12562 1214 0
-12562 12066 0
12563 -12131 -12068 -1210 0
-12563 12131 0
-12563 12068 0
-12563 1210 0
-10223 12073 12560 12561 12562 12563 0
10223 -12073 0
10223 -12560 0
10223 -12561 0
10223 -12562 0
10223 -12563 0
12564 -12123 -12066 0
-12564 12123 0
-12564 12066 0
12565 -12121 -12066 0
-12565 12121 0
-12565 12066 0
12566 -12121 -12068 0
-12566 12121 0
-12566 12068 0
12567 -12123 -12068 -1210 0
-12567 12123 0
-12567 12068 0
-12567 1210 0
-10225 12075 12564 12565 12566 12567 0
10225 -12075 0
10225 -12564 0
10225 -12565 0
10225 -12566 0
10225 -12567 0
12568 -12144 -12113 0
-12568 12144 0
-12568 12113 0
12569 -1219 -12071 0
-12569 1219 0
-12569 12071 0
12570 -1219 -12113 0
-12570 1219 0
-12570 12113 0
12571 -12144 -12071 -1210 0
-12571 12144 0
-12571 12071 0
-12571 1210 0
-10227 12175 12568 12569 12570 12571 0
10227 -12175 0
10227 -12568 0
10227 -12569 0
10227 -12570 0
10227 -12571 0
12572 -12144 -12115 0
-12572 12144 0
-12572 12115 0
12573 -1219 -12091 0
-12573 1219 0
-12573 12091 0
12574 -1219 -12115 0
-12574 1219 0
-12574 12115 0
12575 -12144 -12091 -1210 0
-12575 12144 0
-12575 12091 0
-12575 1210 0
-10229 12177 12572 12573 12574 12575 0
10229 -12177 0
10229 -12572 0
10229 -12573 0
10229 -12574 0
10229 -12575 0
12576 -12144 -12117 0
-12576 12144 0
-12576 12117 0
12577 -1219 -12106 0
-12577 1219 0
-12577 12106 0
12578 -1219 -12117 0
-12578 1219 0
-12578 12117 0
12579 -12144 -12106 -1210 0
-12579 12144 0
-12579 12106 0
-12579 1210 0
-10191 12179 12576 12577 12578 12579 0
10191 -12179 0
10191 -12576 0
10191 -12577 0
10191 -12578 0
10191 -12579 0
12580 -12144 -12121 0
-12580 12144 0
-12580 12121 0
12581 -1219 -12123 0
-12581 1219 0
-12581 12123 0
12582 -1219 -12121 0
-12582 1219 0
-12582 12121 0
12583 -12144 -12123 -1210 0
-12583 12144 0
-12583 12123 0
-12583 1210 0
-10231 12181 12580 12581 12582 12583 0
10231 -12181 0
10231 -12580 0
10231 -12581 0
10231 -12582 0
10231 -12583 0
12584 -12144 -1219 0
-12584 12144 0
-12584 1219 0
12373 -1219 -1219 0
-12373 1219 0
-12373 1219 0
12585 -1219 -12144 0
-12585 1219 0
-12585 12144 0
12586 -12144 -12144 -1210 0
-12586 12144 0
-12586 12144 0
-12586 1210 0
-10233 1221 12584 12373 12585 12586 0
10233 -1221 0
10233 -12584 0
10233 -12373 0
10233 -12585 0
10233 -12586 0
12587 -12076 -1211 0
-12587 12076 0
-12587 1211 0
12588 -1211 -1211 0
-12588 1211 0
-12588 1211 0
12589 -1211 -12076 0
-12589 1211 0
-12589 12076 0
12590 -12076 -12076 -1215 0
-12590 12076 0
-12590 12076 0
-12590 1215 0
-10357 1201 12587 12588 12589 12590 0
10357 -1201 0
10357 -12587 0
10357 -12588 0
10357 -12589 0
10357 -12590 0
12591 -12076 -1212 0
-12591 12076 0
-12591 1212 0
12592 -1211 -1212 0
-12592 1211 0
-12592 1212 0
12593 -1211 -12094 0
-12593 1211 0
-12593 12094 0
12594 -12076 -12094 -1215 0
-12594 12076 0
-12594 12094 0
-12594 1215 0
-10360 1202 12591 12592 12593 12594 0
10360 -1202 0
10360 -12591 0
10360 -12592 0
10360 -12593 0
10360 -12594 0
12595 -12076 -12127 0
-12595 12076 0
-12595 12127 0
12596 -1211 -12096 0
-12596 1211 0
-12596 12096 0
12597 -1211 -12127 0
-12597 1211 0
-12597 12127 0
12598 -12076 -12096 -1215 0
-12598 12076 0
-12598 12096 0
-12598 1215 0
-10363 12054 12595 12596 12597 12598 0
10363 -12054 0
10363 -12595 0
10363 -12596 0
10363 -12597 0
10363 -12598 0
12599 -12078 -12127 0
-12599 12078 0
-12599 12127 0
12600 -12125 -12127 0
-12600 12125 0
-12600 12127 0
12601 -12125 -12096 0
-12601 12125 0
-12601 12096 0
12602 -12078 -12096 -1215 0
-12602 12078 0
-12602 12096 0
-12602 1215 0
-10366 12057 12599 12600 12601 12602 0
10366 -12057 0
10366 -12599 0
10366 -12600 0
10366 -12601 0
10366 -12602 0
12603 -12076 -1213 0
-12603 12076 0
-12603 1213 0
12604 -1211 -1213 0
-12604 1211 0
-12604 1213 0
12605 -1211 -12109 0
-12605 1211 0
-12605 12109 0
12606 -12076 -12109 -1215 0
-12606 12076 0
-12606 12109 0
-12606 1215 0
-10425 1204 12603 12604 12605 12606 0
10425 -1204 0
10425 -12603 0
10425 -12604 0
10425 -12605 0
10425 -12606 0
12607 -12076 -12129 0
-12607 12076 0
-12607 12129 0
12608 -1211 -12111 0
-12608 1211 0
-12608 12111 0
12609 -1211 -12129 0
-12609 1211 0
-12609 12129 0
12610 -12076 -12111 -1215 0
-12610 12076 0
-12610 12111 0
-12610 1215 0
-10356 12062 12607 12608 12609 12610 0
10356 -12062 0
10356 -12607 0
10356 -12608 0
10356 -12609 0
10356 -12610 0
12611 -12078 -12129 0
-12611 12078 0
-12611 12129 0
12612 -12125 -12129 0
-12612 12125 0
-12612 12129 0
12613 -12125 -12111 0
-12613 12125 0
-12613 12111 0
12614 -12078 -12111 -1215 0
-12614 12078 0
-12614 12111 0
-12614 1215 0
-10365 12064 12611 12612 12613 12614 0
10365 -12064 0
10365 -12611 0
10365 -12612 0
10365 -12613 0
10365 -12614 0
12615 -12076 -1214 0
-12615 12076 0
-12615 1214 0
12616 -1211 -1214 0
-12616 1211 0
-12616 1214 0
12617 -1211 -12121 0
-12617 1211 0
-12617 12121 0
12618 -12076 -12121 -1215 0
-12618 12076 0
-12618 12121 0
-12618 1215 0
-10369 1207 12615 12616 12617 12618 0
10369 -1207 0
10369 -12615 0
10369 -12616 0
10369 -12617 0
10369 -12618 0
12619 -12076 -12131 0
-12619 12076 0
-12619 12131 0
12620 -1211 -12123 0
-12620 1211 0
-12620 12123 0
12621 -1211 -12131 0
-12621 1211 0
-12621 12131 0
12622 -12076 -12123 -1215 0
-12622 12076 0
-12622 12123 0
-12622 1215 0
-10372 12069 12619 12620 12621 12622 0
10372 -12069 0
10372 -12619 0
10372 -12620 0
10372 -12621 0
10372 -12622 0
12623 -12078 -12131 0
-12623 12078 0
-12623 12131 0
12624 -12125 -12131 0
-12624 12125 0
-12624 12131 0
12625 -12125 -12123 0
-12625 12125 0
-12625 12123 0
12626 -12078 -12123 -1215 0
-12626 12078 0
-12626 12123 0
-12626 1215 0
-10374 12071 12623 12624 12625 12626 0
10374 -12071 0
10374 -12623 0
10374 -12624 0
10374 -12625 0
10374 -12626 0
12627 -12076 -1220 0
-12627 12076 0
-12627 1220 0
12628 -1211 -1220 0
-12628 1211 0
-12628 1220 0
12629 -1211 -12181 0
-12629 1211 0
-12629 12181 0
12630 -12076 -12181 -1215 0
-12630 12076 0
-12630 12181 0
-12630 1215 0
-10377 1216 12627 12628 12629 12630 0
10377 -1216 0
10377 -12627 0
10377 -12628 0
10377 -12629 0
10377 -12630 0
12631 -12076 -12073 0
-12631 12076 0
-12631 12073 0
12632 -1211 -12075 0
-12632 1211 0
-12632 12075 0
12633 -1211 -12073 0
-12633 1211 0
-12633 12073 0
12634 -12076 -12075 -1215 0
-12634 12076 0
-12634 12075 0
-12634 1215 0
-10380 12049 12631 12632 12633 12634 0
10380 -12049 0
10380 -12631 0
10380 -12632 0
10380 -12633 0
10380 -12634 0
12635 -12078 -12073 0
-12635 12078 0
-12635 12073 0
12636 -12125 -12073 0
-12636 12125 0
-12636 12073 0
12637 -12125 -12075 0
-12637 12125 0
-12637 12075 0
12638 -12078 -12075 -1215 0
-12638 12078 0
-12638 12075 0
-12638 1215 0
-10382 12056 12635 12636 12637 12638 0
10382 -12056 0
10382 -12635 0
10382 -12636 0
10382 -12637 0
10382 -12638 0
12639 -12094 -12125 0
-12639 12094 0
-12639 12125 0
12640 -1212 -12078 0
-12640 1212 0
-12640 12078 0
12641 -1212 -12125 0
-12641 1212 0
-12641 12125 0
12642 -12094 -12078 -1215 0
-12642 12094 0
-12642 12078 0
-12642 1215 0
-10384 12080 12639 12640 12641 12642 0
10384 -12080 0
10384 -12639 0
10384 -12640 0
10384 -12641 0
10384 -12642 0
12643 -12094 -1212 0
-12643 12094 0
-12643 1212 0
12644 -1212 -1212 0
-12644 1212 0
-12644 1212 0
12645 -1212 -12094 0
-12645 1212 0
-12645 12094 0
12646 -12094 -12094 -1215 0
-12646 12094 0
-12646 12094 0
-12646 1215 0
-10386 1203 12643 12644 12645 12646 0
10386 -1203 0
10386 -12643 0
10386 -12644 0
10386 -12645 0
10386 -12646 0
12647 -12094 -1213 0
-12647 12094 0
-12647 1213 0
12648 -1212 -1213 0
-12648 1212 0
-12648 1213 0
12649 -1212 -12109 0
-12649 1212 0
-12649 12109 0
12650 -12094 -12109 -1215 0
-12650 12094 0
-12650 12109 0
-12650 1215 0
-10434 1205 12647 12648 12649 12650 0
10434 -1205 0
10434 -12647 0
10434 -12648 0
10434 -12649 0
10434 -12650 0
12651 -12094 -12129 0
-12651 12094 0
-12651 12129 0
12652 -1212 -12111 0
-12652 1212 0
-12652 12111 0
12653 -1212 -12129 0
-12653 1212 0
-12653 12129 0
12654 -12094 -12111 -1215 0
-12654 12094 0
-12654 12111 0
-12654 1215 0
-10359 12084 12651 12652 12653 12654 0
10359 -12084 0
10359 -12651 0
10359 -12652 0
10359 -12653 0
10359 -12654 0
12655 -12096 -12129 0
-12655 12096 0
-12655 12129 0
12656 -12127 -12129 0
-12656 12127 0
-12656 12129 0
12657 -12127 -12111 0
-12657 12127 0
-12657 12111 0
12658 -12096 -12111 -1215 0
-12658 12096 0
-12658 12111 0
-12658 1215 0
-10362 12086 12655 12656 12657 12658 0
10362 -12086 0
10362 -12655 0
10362 -12656 0
10362 -12657 0
10362 -12658 0
12659 -12094 -1214 0
-12659 12094 0
-12659 1214 0
12660 -1212 -1214 0
-12660 1212 0
-12660 1214 0
12661 -1212 -12121 0
-12661 1212 0
-12661 12121 0
12662 -12094 -12121 -1215 0
-12662 12094 0
-12662 12121 0
-12662 1215 0
-10388 1208 12659 12660 12661 12662 0
10388 -1208 0
10388 -12659 0
10388 -12660 0
10388 -12661 0
10388 -12662 0
12663 -12094 -12131 0
-12663 12094 0
-12663 12131 0
12664 -1212 -12123 0
-12664 1212 0
-12664 12123 0
12665 -1212 -12131 0
-12665 1212 0
-12665 12131 0
12666 -12094 -12123 -1215 0
-12666 12094 0
-12666 12123 0
-12666 1215 0
-10390 12089 12663 12664 12665 12666 0
10390 -12089 0
10390 -12663 0
10390 -12664 0
10390 -12665 0
10390 -12666 0
12667 -12096 -12131 0
-12667 12096 0
-12667 12131 0
12668 -12127 -12131 0
-12668 12127 0
-12668 12131 0
12669 -12127 -12123 0
-12669 12127 0
-12669 12123 0
12670 -12096 -12123 -1215 0
-12670 12096 0
-12670 12123 0
-12670 1215 0
-10392 12091 12667 12668 12669 12670 0
10392 -12091 0
10392 -12667 0
10392 -12668 0
10392 -12669 0
10392 -12670 0
12671 -12094 -1220 0
-12671 12094 0
-12671 1220 0
12672 -1212 -1220 0
-12672 1212 0
-12672 1220 0
12673 -1212 -12181 0
-12673 1212 0
-12673 12181 0
12674 -12094 -12181 -1215 0
-12674 12094 0
-12674 12181 0
-12674 1215 0
-10394 1217 12671 12672 12673 12674 0
10394 -1217 0
10394 -12671 0
10394 -12672 0
10394 -12673 0
10394 -12674 0
12675 -12094 -12073 0
-12675 12094 0
-12675 12073 0
12676 -1212 -12075 0
-12676 1212 0
-12676 12075 0
12677 -1212 -12073 0
-12677 1212 0
-12677 12073 0
12678 -12094 -12075 -1215 0
-12678 12094 0
-12678 12075 0
-12678 1215 0
-10396 12051 12675 12676 12677 12678 0
10396 -12051 0
10396 -12675 0
10396 -12676 0
10396 -12677 0
10396 -12678 0
12679 -12096 -12073 0
-12679 12096 0
-12679 12073 0
12680 -12127 -12073 0
-12680 12127 0
-12680 12073 0
12681 -12127 -12075 0
-12681 12127 0
-12681 12075 0
12682 -12096 -12075 -1215 0
-12682 12096 0
-12682 12075 0
-12682 1215 0
-10398 12053 12679 12680 12681 12682 0
10398 -12053 0
10398 -12679 0
10398 -12680 0
10398 -12681 0
10398 -12682 0
12683 -12109 -12125 0
-12683 12109 0
-12683 12125 0
12684 -1213 -12078 0
-12684 1213 0
-12684 12078 0
12685 -1213 -12125 0
-12685 1213 0
-12685 12125 0
12686 -12109 -12078 -1215 0
-12686 12109 0
-12686 12078 0
-12686 1215 0
-10441 12098 12683 12684 12685 12686 0
10441 -12098 0
10441 -12683 0
10441 -12684 0
10441 -12685 0
10441 -12686 0
12687 -12109 -12127 0
-12687 12109 0
-12687 12127 0
12688 -1213 -12096 0
-12688 1213 0
-12688 12096 0
12689 -1213 -12127 0
-12689 1213 0
-12689 12127 0
12690 -12109 -12096 -1215 0
-12690 12109 0
-12690 12096 0
-12690 1215 0
-10443 12100 12687 12688 12689 12690 0
10443 -12100 0
10443 -12687 0
10443 -12688 0
10443 -12689 0
10443 -12690 0
12691 -12109 -1213 0
-12691 12109 0
-12691 1213 0
12692 -1213 -1213 0
-12692 1213 0
-12692 1213 0
12693 -1213 -12109 0
-12693 1213 0
-12693 12109 0
12694 -12109 -12109 -1215 0
-12694 12109 0
-12694 12109 0
-12694 1215 0
-10445 1206 12691 12692 12693 12694 0
10445 -1206 0
10445 -12691 0
10445 -12692 0
10445 -12693 0
10445 -12694 0
12695 -12109 -1214 0
-12695 12109 0
-12695 1214 0
12696 -1213 -1214 0
-12696 1213 0
-12696 1214 0
12697 -1213 -12121 0
-12697 1213 0
-12697 12121 0
12698 -12109 -12121 -1215 0
-12698 12109 0
-12698 12121 0
-12698 1215 0
-11240 1209 12695 12696 12697 12698 0
11240 -1209 0
11240 -12695 0
11240 -12696 0
11240 -12697 0
11240 -12698 0
12699 -12109 -12131 0
-12699 12109 0
-12699 12131 0
12700 -1213 -12123 0
-12700 1213 0
-12700 12123 0
12701 -1213 -12131 0
-12701 1213 0
-12701 12131 0
12702 -12109 -12123 -1215 0
-12702 12109 0
-12702 12123 0
-12702 1215 0
-10424 12104 12699 12700 12701 12702 0
10424 -12104 0
10424 -12699 0
10424 -12700 0
10424 -12701 0
10424 -12702 0
12703 -12111 -12131 0
-12703 12111 0
-12703 12131 0
12704 -12129 -12131 0
-12704 12129 0
-12704 12131 0
12705 -12129 -12123 0
-12705 12129 0
-12705 12123 0
12706 -12111 -12123 -1215 0
-12706 12111 0
-12706 12123 0
-12706 1215 0
-10371 12106 12703 12704 12705 12706 0
10371 -12106 0
10371 -12703 0
10371 -12704 0
10371 -12705 0
10371 -12706 0
12707 -12109 -1220 0
-12707 12109 0
-12707 1220 0
12708 -1213 -1220 0
-12708 1213 0
-12708 1220 0
12709 -1213 -12181 0
-12709 1213 0
-12709 12181 0
12710 -12109 -12181 -1215 0
-12710 12109 0
-12710 12181 0
-12710 1215 0
-10447 1218 12707 12708 12709 12710 0
10447 -1218 0
10447 -12707 0
10447 -12708 0
10447 -12709 0
10447 -12710 0
12711 -12109 -12073 0
-12711 12109 0
-12711 12073 0
12712 -1213 -12075 0
-12712 1213 0
-12712 12075 0
12713 -1213 -12073 0
-12713 1213 0
-12713 12073 0
12714 -12109 -12075 -1215 0
-12714 12109 0
-12714 12075 0
-12714 1215 0
-10449 12059 12711 12712 12713 12714 0
10449 -12059 0
10449 -12711 0
10449 -12712 0
10449 -12713 0
10449 -12714 0
12715 -12111 -12073 0
-12715 12111 0
-12715 12073 0
12716 -12129 -12073 0
-12716 12129 0
-12716 12073 0
12717 -12129 -12075 0
-12717 12129 0
-12717 12075 0
12718 -12111 -12075 -1215 0
-12718 12111 0
-12718 12075 0
-12718 1215 0
-10379 12061 12715 12716 12717 12718 0
10379 -12061 0
10379 -12715 0
10379 -12716 0
10379 -12717 0
10379 -12718 0
12719 -12121 -12125 0
-12719 12121 0
-12719 12125 0
12720 -1214 -12078 0
-12720 1214 0
-12720 12078 0
12721 -1214 -12125 0
-12721 1214 0
-12721 12125 0
12722 -12121 -12078 -1215 0
-12722 12121 0
-12722 12078 0
-12722 1215 0
-10400 12113 12719 12720 12721 12722 0
10400 -12113 0
10400 -12719 0
10400 -12720 0
10400 -12721 0
10400 -12722 0
12723 -12121 -12127 0
-12723 12121 0
-12723 12127 0
12724 -1214 -12096 0
-12724 1214 0
-12724 12096 0
12725 -1214 -12127 0
-12725 1214 0
-12725 12127 0
12726 -12121 -12096 -1215 0
-12726 12121 0
-12726 12096 0
-12726 1215 0
-10402 12115 12723 12724 12725 12726 0
10402 -12115 0
10402 -12723 0
10402 -12724 0
10402 -12725 0
10402 -12726 0
12727 -12121 -12129 0
-12727 12121 0
-12727 12129 0
12728 -1214 -12111 0
-12728 1214 0
-12728 12111 0
12729 -1214 -12129 0
-12729 1214 0
-12729 12129 0
12730 -12121 -12111 -1215 0
-12730 12121 0
-12730 12111 0
-12730 1215 0
-10368 12117 12727 12728 12729 12730 0
10368 -12117 0
10368 -12727 0
10368 -12728 0
10368 -12729 0
10368 -12730 0
12731 -12121 -1214 0
-12731 12121 0
-12731 1214 0
12553 -1214 -1214 0
-12553 1214 0
-12553 1214 0
12732 -1214 -12121 0
-12732 1214 0
-12732 12121 0
12733 -12121 -12121 -1215 0
-12733 12121 0
-12733 12121 0
-12733 1215 0
-10404 1210 12731 12553 12732 12733 0
10404 -1210 0
10404 -12731 0
10404 -12553 0
10404 -12732 0
10404 -12733 0
12734 -12121 -1220 0
-12734 12121 0
-12734 1220 0
12735 -1214 -1220 0
-12735 1214 0
-12735 1220 0
12736 -1214 -12181 0
-12736 1214 0
-12736 12181 0
12737 -12121 -12181 -1215 0
-12737 12121 0
-12737 12181 0
-12737 1215 0
-10406 1219 12734 12735 12736 12737 0
10406 -1219 0
10406 -12734 0
10406 -12735 0
10406 -12736 0
10406 -12737 0
12738 -12121 -12073 0
-12738 12121 0
-12738 12073 0
12739 -1214 -12075 0
-12739 1214 0
-12739 12075 0
12740 -1214 -12073 0
-12740 1214 0
-12740 12073 0
12741 -12121 -12075 -1215 0
-12741 12121 0
-12741 12075 0
-12741 1215 0
-10408 12066 12738 12739 12740 12741 0
10408 -12066 0
10408 -12738 0
10408 -12739 0
10408 -12740 0
10408 -12741 0
12742 -12123 -12073 0
-12742 12123 0
-12742 12073 0
12743 -12131 -12073 0
-12743 12131 0
-12743 12073 0
12744 -12131 -12075 0
-12744 12131 0
-12744 12075 0
12745 -12123 -12075 -1215 0
-12745 12123 0
-12745 12075 0
-12745 1215 0
-10410 12068 12742 12743 12744 12745 0
10410 -12068 0
10410 -12742 0
10410 -12743 0
10410 -12744 0
10410 -12745 0
12746 -12181 -12125 0
-12746 12181 0
-12746 12125 0
12747 -1220 -12078 0
-12747 1220 0
-12747 12078 0
12748 -1220 -12125 0
-12748 1220 0
-12748 12125 0
12749 -12181 -12078 -1215 0
-12749 12181 0
-12749 12078 0
-12749 1215 0
-10412 12175 12746 12747 12748 12749 0
10412 -12175 0
10412 -12746 0
10412 -12747 0
10412 -12748 0
10412 -12749 0
12750 -12181 -12127 0
-12750 12181 0
-12750 12127 0
12751 -1220 -12096 0
-12751 1220 0
-12751 12096 0
12752 -1220 -12127 0
-12752 1220 0
-12752 12127 0
12753 -12181 -12096 -1215 0
-12753 12181 0
-12753 12096 0
-12753 1215 0
-10414 12177 12750 12751 12752 12753 0
10414 -12177 0
10414 -12750 0
10414 -12751 0
10414 -12752 0
10414 -12753 0
12754 -12181 -12129 0
-12754 12181 0
-12754 12129 0
12755 -1220 -12111 0
-12755 1220 0
-12755 12111 0
12756 -1220 -12129 0
-12756 1220 0
-12756 12129 0
12757 -12181 -12111 -1215 0
-12757 12181 0
-12757 12111 0
-12757 1215 0
-10376 12179 12754 12755 12756 12757 0
10376 -12179 0
10376 -12754 0
10376 -12755 0
10376 -12756 0
10376 -12757 0
12758 -12181 -12131 0
-12758 12181 0
-12758 12131 0
12759 -1220 -12123 0
-12759 1220 0
-12759 12123 0
12760 -1220 -12131 0
-12760 1220 0
-12760 12131 0
12761 -12181 -12123 -1215 0
-12761 12181 0
-12761 12123 0
-12761 1215 0
-10416 12144 12758 12759 12760 12761 0
10416 -12144 0
10416 -12758 0
10416 -12759 0
10416 -12760 0
10416 -12761 0
12762 -12181 -1220 0
-12762 12181 0
-12762 1220 0
12405 -1220 -1220 0
-12405 1220 0
-12405 1220 0
12763 -1220 -12181 0
-12763 1220 0
-12763 12181 0
12764 -12181 -12181 -1215 0
-12764 12181 0
-12764 12181 0
-12764 1215 0
-10418 1221 12762 12405 12763 12764 0
10418 -1221 0
10418 -12762 0
10418 -12405 0
10418 -12763 0
10418 -12764 0
