c Standarized MaxSat Instance
c{
c "sha1sum": "218c826feb13fee94295dc7416ea088709d7917b",
c "nvars": 12764,
c "ncls": 46236,
c "total_lits": 112632,
c "nhards": 46097,
c "nhard_nlits": 112493,
c "nhard_len_stats":
c    { "min": 1,
c      "max": 6,
c      "ave": 2.4404,
c      "stddev": 0.9093 },
c "nsofts": 139,
c "nsoft_nlits": 139,
c "nsoft_len_stats":
c    { "min": 1,
c      "max": 1,
c      "ave": 1.0000,
c      "stddev": 0.0000 },
c "nsoft_wts": 1,
c "soft_wt_stats":
c    { "min": 1,
c      "max": 1,
c      "ave": 1.0000,
c      "stddev": 0.0000 }
c}
p cnf 12764 46236
-1 0
-1 2 3 4 5 0
1 -2 0
1 -3 0
1 -4 0
1 -5 0
-6 0
-6 7 8 9 10 0
6 -7 0
6 -8 0
6 -9 0
6 -10 0
11 0
-11 12 13 14 15 0
11 -12 0
11 -13 0
11 -14 0
11 -15 0
16 0
-16 17 18 19 20 0
16 -17 0
16 -18 0
16 -19 0
16 -20 0
21 0
-21 22 23 24 25 0
21 -22 0
21 -23 0
21 -24 0
21 -25 0
-26 0
-26 27 28 29 30 0
26 -27 0
26 -28 0
26 -29 0
26 -30 0
-31 0
-31 32 33 34 35 0
31 -32 0
31 -33 0
31 -34 0
31 -35 0
-36 0
-36 37 38 39 40 0
36 -37 0
36 -38 0
36 -39 0
36 -40 0
-41 0
-41 42 43 44 45 0
41 -42 0
41 -43 0
41 -44 0
41 -45 0
-46 0
-46 47 48 49 50 0
46 -47 0
46 -48 0
46 -49 0
46 -50 0
51 0
-51 52 53 54 55 0
51 -52 0
51 -53 0
51 -54 0
51 -55 0
-56 0
-56 57 58 59 60 0
56 -57 0
56 -58 0
56 -59 0
56 -60 0
61 0
-61 62 63 64 65 0
61 -62 0
61 -63 0
61 -64 0
61 -65 0
66 0
-66 67 68 69 70 0
66 -67 0
66 -68 0
66 -69 0
66 -70 0
71 0
-71 72 73 74 75 0
71 -72 0
71 -73 0
71 -74 0
71 -75 0
-76 0
-76 77 78 79 80 0
76 -77 0
76 -78 0
76 -79 0
76 -80 0
-81 0
-81 82 83 84 85 0
81 -82 0
81 -83 0
81 -84 0
81 -85 0
-86 0
-86 87 88 89 90 0
86 -87 0
86 -88 0
86 -89 0
86 -90 0
-91 0
-91 92 93 94 95 0
91 -92 0
91 -93 0
91 -94 0
91 -95 0
-96 0
-96 97 98 99 100 0
96 -97 0
96 -98 0
96 -99 0
96 -100 0
-101 0
-101 102 103 104 105 0
101 -102 0
101 -103 0
101 -104 0
101 -105 0
-106 0
-106 107 108 109 110 0
106 -107 0
106 -108 0
106 -109 0
106 -110 0
-111 0
-111 112 113 114 115 0
111 -112 0
111 -113 0
111 -114 0
111 -115 0
116 0
-116 117 118 119 120 0
116 -117 0
116 -118 0
116 -119 0
116 -120 0
121 0
-121 122 123 124 125 0
121 -122 0
121 -123 0
121 -124 0
121 -125 0
126 0
-126 127 128 129 130 0
126 -127 0
126 -128 0
126 -129 0
126 -130 0
131 0
-131 132 133 134 135 0
131 -132 0
131 -133 0
131 -134 0
131 -135 0
136 0
-136 137 138 139 140 0
136 -137 0
136 -138 0
136 -139 0
136 -140 0
141 0
-141 142 143 144 145 0
141 -142 0
141 -143 0
141 -144 0
141 -145 0
146 0
-146 147 148 149 150 0
146 -147 0
146 -148 0
146 -149 0
146 -150 0
151 0
-151 152 153 154 155 0
151 -152 0
151 -153 0
151 -154 0
151 -155 0
156 0
-156 157 158 159 160 0
156 -157 0
156 -158 0
156 -159 0
156 -160 0
161 0
-161 162 163 164 165 0
161 -162 0
161 -163 0
161 -164 0
161 -165 0
-166 0
-166 167 168 169 170 0
166 -167 0
166 -168 0
166 -169 0
166 -170 0
171 0
-171 172 173 174 175 0
171 -172 0
171 -173 0
171 -174 0
171 -175 0
-176 0
-176 177 178 179 180 0
176 -177 0
176 -178 0
176 -179 0
176 -180 0
-181 0
-181 182 183 184 185 0
181 -182 0
181 -183 0
181 -184 0
181 -185 0
-186 0
-186 187 188 189 190 0
186 -187 0
186 -188 0
186 -189 0
186 -190 0
-191 0
-191 192 193 194 195 0
191 -192 0
191 -193 0
191 -194 0
191 -195 0
-196 0
-196 197 198 199 200 0
196 -197 0
196 -198 0
196 -199 0
196 -200 0
201 0
-201 202 203 204 205 0
201 -202 0
201 -203 0
201 -204 0
201 -205 0
206 0
-206 207 208 209 210 0
206 -207 0
206 -208 0
206 -209 0
206 -210 0
-211 0
-211 212 213 214 215 0
211 -212 0
211 -213 0
211 -214 0
211 -215 0
-216 0
-216 217 218 219 220 0
216 -217 0
216 -218 0
216 -219 0
216 -220 0
-221 0
-221 222 223 224 225 0
221 -222 0
221 -223 0
221 -224 0
221 -225 0
-226 0
-226 227 228 229 230 0
226 -227 0
226 -228 0
226 -229 0
226 -230 0
-231 0
-231 232 233 234 235 0
231 -232 0
231 -233 0
231 -234 0
231 -235 0
-236 0
-236 237 238 239 240 0
236 -237 0
236 -238 0
236 -239 0
236 -240 0
-241 0
-241 242 243 244 245 0
241 -242 0
241 -243 0
241 -244 0
241 -245 0
-246 0
-246 247 248 249 250 0
246 -247 0
246 -248 0
246 -249 0
246 -250 0
-251 0
-251 252 253 254 255 0
251 -252 0
251 -253 0
251 -254 0
251 -255 0
-256 0
-256 257 258 259 260 0
256 -257 0
256 -258 0
256 -259 0
256 -260 0
-261 0
-261 262 263 264 265 0
261 -262 0
261 -263 0
261 -264 0
261 -265 0
-266 0
-266 267 268 269 270 0
266 -267 0
266 -268 0
266 -269 0
266 -270 0
271 0
-271 272 273 274 275 0
271 -272 0
271 -273 0
271 -274 0
271 -275 0
276 0
-276 277 278 279 280 0
276 -277 0
276 -278 0
276 -279 0
276 -280 0
281 0
-281 282 283 284 285 0
281 -282 0
281 -283 0
281 -284 0
281 -285 0
286 0
-286 287 288 289 290 0
286 -287 0
286 -288 0
286 -289 0
286 -290 0
291 0
-291 292 293 294 295 0
291 -292 0
291 -293 0
291 -294 0
291 -295 0
-296 0
-296 297 298 299 300 0
296 -297 0
296 -298 0
296 -299 0
296 -300 0
-301 0
-301 302 303 304 305 0
301 -302 0
301 -303 0
301 -304 0
301 -305 0
-306 0
-306 307 308 309 310 0
306 -307 0
306 -308 0
306 -309 0
306 -310 0
-311 0
-311 312 313 314 315 0
311 -312 0
311 -313 0
311 -314 0
311 -315 0
316 0
-316 317 318 319 320 0
316 -317 0
316 -318 0
316 -319 0
316 -320 0
321 0
-321 322 323 324 325 0
321 -322 0
321 -323 0
321 -324 0
321 -325 0
326 0
-326 327 328 329 330 0
326 -327 0
326 -328 0
326 -329 0
326 -330 0
331 0
-331 332 333 334 335 0
331 -332 0
331 -333 0
331 -334 0
331 -335 0
336 0
-336 337 338 339 340 0
336 -337 0
336 -338 0
336 -339 0
336 -340 0
341 0
-341 342 343 344 345 0
341 -342 0
341 -343 0
341 -344 0
341 -345 0
346 0
-346 347 348 349 350 0
346 -347 0
346 -348 0
346 -349 0
346 -350 0
351 0
-351 352 353 354 355 0
351 -352 0
351 -353 0
351 -354 0
351 -355 0
356 0
-356 357 358 359 360 0
356 -357 0
356 -358 0
356 -359 0
356 -360 0
361 0
-361 362 363 364 365 0
361 -362 0
361 -363 0
361 -364 0
361 -365 0
366 0
-366 367 368 369 370 0
366 -367 0
366 -368 0
366 -369 0
366 -370 0
-371 0
-371 372 373 374 375 0
371 -372 0
371 -373 0
371 -374 0
371 -375 0
-376 0
-376 377 378 379 380 0
376 -377 0
376 -378 0
376 -379 0
376 -380 0
-381 0
-381 382 383 384 385 0
381 -382 0
381 -383 0
381 -384 0
381 -385 0
-386 0
-386 387 388 389 390 0
386 -387 0
386 -388 0
386 -389 0
386 -390 0
-391 0
-391 392 393 394 395 0
391 -392 0
391 -393 0
391 -394 0
391 -395 0
-396 0
-396 397 398 399 400 0
396 -397 0
396 -398 0
396 -399 0
396 -400 0
-401 0
-401 402 403 404 405 0
401 -402 0
401 -403 0
401 -404 0
401 -405 0
-406 0
-406 407 408 409 410 0
406 -407 0
406 -408 0
406 -409 0
406 -410 0
-411 0
-411 412 413 414 415 0
411 -412 0
411 -413 0
411 -414 0
411 -415 0
-416 0
-416 417 418 419 420 0
416 -417 0
416 -418 0
416 -419 0
416 -420 0
-421 0
-421 422 423 424 425 0
421 -422 0
421 -423 0
421 -424 0
421 -425 0
-426 0
-426 427 428 429 430 0
426 -427 0
426 -428 0
426 -429 0
426 -430 0
-431 0
-431 432 433 434 435 0
431 -432 0
431 -433 0
431 -434 0
431 -435 0
436 0
-436 437 438 439 440 0
436 -437 0
436 -438 0
436 -439 0
436 -440 0
441 0
-441 442 443 444 445 0
441 -442 0
441 -443 0
441 -444 0
441 -445 0
446 0
-446 447 448 449 450 0
446 -447 0
446 -448 0
446 -449 0
446 -450 0
451 0
-451 452 453 454 455 0
451 -452 0
451 -453 0
451 -454 0
451 -455 0
456 0
-456 457 458 459 460 0
456 -457 0
456 -458 0
456 -459 0
456 -460 0
461 0
-461 462 463 464 465 0
461 -462 0
461 -463 0
461 -464 0
461 -465 0
466 0
-466 467 468 469 470 0
466 -467 0
466 -468 0
466 -469 0
466 -470 0
471 0
-471 472 473 474 475 0
471 -472 0
471 -473 0
471 -474 0
471 -475 0
476 0
-476 477 478 479 480 0
476 -477 0
476 -478 0
476 -479 0
476 -480 0
481 0
-481 482 483 484 485 0
481 -482 0
481 -483 0
481 -484 0
481 -485 0
486 0
-486 487 488 489 490 0
486 -487 0
486 -488 0
486 -489 0
486 -490 0
491 0
-491 492 493 494 495 0
491 -492 0
491 -493 0
491 -494 0
491 -495 0
496 0
-496 497 498 499 500 0
496 -497 0
496 -498 0
496 -499 0
496 -500 0
-501 0
-501 502 503 504 505 0
501 -502 0
501 -503 0
501 -504 0
501 -505 0
-506 0
-506 507 508 509 510 0
506 -507 0
506 -508 0
506 -509 0
506 -510 0
511 0
-511 512 513 514 515 0
511 -512 0
511 -513 0
511 -514 0
511 -515 0
516 0
-516 517 518 519 520 0
516 -517 0
516 -518 0
516 -519 0
516 -520 0
-521 0
-521 522 523 524 525 0
521 -522 0
521 -523 0
521 -524 0
521 -525 0
-526 0
-526 527 528 529 530 0
526 -527 0
526 -528 0
526 -529 0
526 -530 0
-531 0
-531 532 533 534 535 0
531 -532 0
531 -533 0
531 -534 0
531 -535 0
-536 0
-536 537 538 539 540 0
536 -537 0
536 -538 0
536 -539 0
536 -540 0
-541 0
-541 542 543 544 545 0
541 -542 0
541 -543 0
541 -544 0
541 -545 0
-546 0
-546 547 548 549 550 0
546 -547 0
546 -548 0
546 -549 0
546 -550 0
-551 0
-551 552 553 554 555 0
551 -552 0
551 -553 0
551 -554 0
551 -555 0
-556 0
-556 557 558 559 560 0
556 -557 0
556 -558 0
556 -559 0
556 -560 0
-561 0
-561 562 563 564 565 0
561 -562 0
561 -563 0
561 -564 0
561 -565 0
566 0
-566 567 568 569 570 0
566 -567 0
566 -568 0
566 -569 0
566 -570 0
-571 0
-571 572 573 574 575 0
571 -572 0
571 -573 0
571 -574 0
571 -575 0
-576 0
-576 577 578 579 580 0
576 -577 0
576 -578 0
576 -579 0
576 -580 0
-581 0
-581 582 583 584 585 0
581 -582 0
581 -583 0
581 -584 0
581 -585 0
-586 0
-586 587 588 589 590 0
586 -587 0
586 -588 0
586 -589 0
586 -590 0
-591 0
-591 592 593 594 595 0
591 -592 0
591 -593 0
591 -594 0
591 -595 0
-596 0
-596 597 598 599 600 0
596 -597 0
596 -598 0
596 -599 0
596 -600 0
-601 0
-601 602 603 604 605 0
601 -602 0
601 -603 0
601 -604 0
601 -605 0
-606 0
-606 607 608 609 610 0
606 -607 0
606 -608 0
606 -609 0
606 -610 0
-611 0
-611 612 613 614 615 0
611 -612 0
611 -613 0
611 -614 0
611 -615 0
-616 0
-616 617 618 619 620 0
616 -617 0
616 -618 0
616 -619 0
616 -620 0
-621 0
-621 622 623 624 625 0
621 -622 0
621 -623 0
621 -624 0
621 -625 0
-626 0
-626 627 628 629 630 0
626 -627 0
626 -628 0
626 -629 0
626 -630 0
-631 0
-631 632 633 634 635 0
631 -632 0
631 -633 0
631 -634 0
631 -635 0
-636 0
-636 637 638 639 640 0
636 -637 0
636 -638 0
636 -639 0
636 -640 0
-641 0
-641 642 643 644 645 0
641 -642 0
641 -643 0
641 -644 0
641 -645 0
-646 0
-646 647 648 649 650 0
646 -647 0
646 -648 0
646 -649 0
646 -650 0
-651 0
-651 652 653 654 655 0
651 -652 0
651 -653 0
651 -654 0
651 -655 0
-656 0
-656 657 658 659 660 0
656 -657 0
656 -658 0
656 -659 0
656 -660 0
-661 0
-661 662 663 664 665 0
661 -662 0
661 -663 0
661 -664 0
661 -665 0
666 0
-666 667 668 669 670 0
666 -667 0
666 -668 0
666 -669 0
666 -670 0
-671 0
-671 672 673 674 675 0
671 -672 0
671 -673 0
671 -674 0
671 -675 0
676 0
-676 677 678 679 680 0
676 -677 0
676 -678 0
676 -679 0
676 -680 0
681 0
-681 682 683 684 685 0
681 -682 0
681 -683 0
681 -684 0
681 -685 0
686 0
-686 687 688 689 690 0
686 -687 0
686 -688 0
686 -689 0
686 -690 0
691 0
-691 692 693 694 695 0
691 -692 0
691 -693 0
691 -694 0
691 -695 0
696 0
-696 697 698 699 700 0
696 -697 0
696 -698 0
696 -699 0
696 -700 0
701 0
-701 702 703 704 705 0
701 -702 0
701 -703 0
701 -704 0
701 -705 0
-706 0
-706 707 708 709 710 0
706 -707 0
706 -708 0
706 -709 0
706 -710 0
-711 0
-711 712 713 714 715 0
711 -712 0
711 -713 0
711 -714 0
711 -715 0
-716 0
-716 717 718 719 720 0
716 -717 0
716 -718 0
716 -719 0
716 -720 0
-721 0
-721 722 723 724 725 0
721 -722 0
721 -723 0
721 -724 0
721 -725 0
-726 0
-726 727 728 729 730 0
726 -727 0
726 -728 0
726 -729 0
726 -730 0
-731 0
-731 732 733 734 735 0
731 -732 0
731 -733 0
731 -734 0
731 -735 0
736 0
-736 737 738 739 740 0
736 -737 0
736 -738 0
736 -739 0
736 -740 0
741 0
-741 742 743 744 745 0
741 -742 0
741 -743 0
741 -744 0
741 -745 0
746 0
-746 747 748 749 750 0
746 -747 0
746 -748 0
746 -749 0
746 -750 0
751 0
-751 752 753 754 755 0
751 -752 0
751 -753 0
751 -754 0
751 -755 0
756 0
-756 757 758 759 760 0
756 -757 0
756 -758 0
756 -759 0
756 -760 0
761 0
-761 762 763 764 765 0
761 -762 0
761 -763 0
761 -764 0
761 -765 0
766 0
-766 767 768 769 770 0
766 -767 0
766 -768 0
766 -769 0
766 -770 0
771 0
-771 772 773 774 775 0
771 -772 0
771 -773 0
771 -774 0
771 -775 0
776 0
-776 777 778 779 780 0
776 -777 0
776 -778 0
776 -779 0
776 -780 0
781 0
-781 782 783 784 785 0
781 -782 0
781 -783 0
781 -784 0
781 -785 0
786 0
-786 787 788 789 790 0
786 -787 0
786 -788 0
786 -789 0
786 -790 0
791 0
-791 792 793 794 795 0
791 -792 0
791 -793 0
791 -794 0
791 -795 0
796 0
-796 797 798 799 800 0
796 -797 0
796 -798 0
796 -799 0
796 -800 0
801 0
-801 802 803 804 805 0
801 -802 0
801 -803 0
801 -804 0
801 -805 0
806 0
-806 807 808 809 810 0
806 -807 0
806 -808 0
806 -809 0
806 -810 0
-811 0
-811 812 813 814 815 0
811 -812 0
811 -813 0
811 -814 0
811 -815 0
-816 0
-816 817 818 819 820 0
816 -817 0
816 -818 0
816 -819 0
816 -820 0
-821 0
-821 822 823 824 825 0
821 -822 0
821 -823 0
821 -824 0
821 -825 0
-826 0
-826 827 828 829 830 0
826 -827 0
826 -828 0
826 -829 0
826 -830 0
-831 0
-831 832 833 834 835 0
831 -832 0
831 -833 0
831 -834 0
831 -835 0
-836 0
-836 837 838 839 840 0
836 -837 0
836 -838 0
836 -839 0
836 -840 0
-841 0
-841 842 843 844 845 0
841 -842 0
841 -843 0
841 -844 0
841 -845 0
-846 0
-846 847 848 849 850 0
846 -847 0
846 -848 0
846 -849 0
846 -850 0
-851 0
-851 852 853 854 855 0
851 -852 0
851 -853 0
851 -854 0
851 -855 0
-856 0
-856 857 858 859 860 0
856 -857 0
856 -858 0
856 -859 0
856 -860 0
-861 0
-861 862 863 864 865 0
861 -862 0
861 -863 0
861 -864 0
861 -865 0
866 0
-866 867 868 869 870 0
866 -867 0
866 -868 0
866 -869 0
866 -870 0
871 0
-871 872 873 874 875 0
871 -872 0
871 -873 0
871 -874 0
871 -875 0
876 0
-876 877 878 879 880 0
876 -877 0
876 -878 0
876 -879 0
876 -880 0
881 0
-881 882 883 884 885 0
881 -882 0
881 -883 0
881 -884 0
881 -885 0
886 0
-886 887 888 889 890 0
886 -887 0
886 -888 0
886 -889 0
886 -890 0
891 0
-891 892 893 894 895 0
891 -892 0
891 -893 0
891 -894 0
891 -895 0
896 0
-896 897 898 899 900 0
896 -897 0
896 -898 0
896 -899 0
896 -900 0
901 0
-901 902 903 904 905 0
901 -902 0
901 -903 0
901 -904 0
901 -905 0
-906 0
-906 907 908 909 910 0
906 -907 0
906 -908 0
906 -909 0
906 -910 0
911 0
-911 912 913 914 915 0
911 -912 0
911 -913 0
911 -914 0
911 -915 0
-916 0
-916 917 918 919 920 0
916 -917 0
916 -918 0
916 -919 0
916 -920 0
-921 0
-921 922 923 924 925 0
921 -922 0
921 -923 0
921 -924 0
921 -925 0
-926 0
-926 927 928 929 930 0
926 -927 0
926 -928 0
926 -929 0
926 -930 0
-931 0
-931 932 933 934 935 0
931 -932 0
931 -933 0
931 -934 0
931 -935 0
-936 0
-936 937 938 939 940 0
936 -937 0
936 -938 0
936 -939 0
936 -940 0
-941 0
-941 942 943 944 945 0
941 -942 0
941 -943 0
941 -944 0
941 -945 0
-946 0
-946 947 948 949 950 0
946 -947 0
946 -948 0
946 -949 0
946 -950 0
-951 0
-951 952 953 954 955 0
951 -952 0
951 -953 0
951 -954 0
951 -955 0
-956 0
-956 957 958 959 960 0
956 -957 0
956 -958 0
956 -959 0
956 -960 0
-961 0
-961 962 963 964 965 0
961 -962 0
961 -963 0
961 -964 0
961 -965 0
-966 0
-966 967 968 969 970 0
966 -967 0
966 -968 0
966 -969 0
966 -970 0
-971 0
-971 972 973 974 975 0
971 -972 0
971 -973 0
971 -974 0
971 -975 0
-976 0
-976 977 978 979 980 0
976 -977 0
976 -978 0
976 -979 0
976 -980 0
-981 0
-981 982 983 984 985 0
981 -982 0
981 -983 0
981 -984 0
981 -985 0
-986 0
-986 987 988 989 990 0
986 -987 0
986 -988 0
986 -989 0
986 -990 0
-991 0
-991 992 993 994 995 0
991 -992 0
991 -993 0
991 -994 0
991 -995 0
-996 0
-996 997 998 999 1000 0
996 -997 0
996 -998 0
996 -999 0
996 -1000 0
-1001 0
-1001 1002 1003 1004 1005 0
1001 -1002 0
1001 -1003 0
1001 -1004 0
1001 -1005 0
-1006 0
-1006 1007 1008 1009 1010 0
1006 -1007 0
1006 -1008 0
1006 -1009 0
1006 -1010 0
-1011 0
-1011 1012 1013 1014 1015 0
1011 -1012 0
1011 -1013 0
1011 -1014 0
1011 -1015 0
-1016 0
-1016 1017 1018 1019 1020 0
1016 -1017 0
1016 -1018 0
1016 -1019 0
1016 -1020 0
-1021 0
-1021 1022 1023 1024 1025 0
1021 -1022 0
1021 -1023 0
1021 -1024 0
1021 -1025 0
1026 0
-1026 1027 1028 1029 1030 0
1026 -1027 0
1026 -1028 0
1026 -1029 0
1026 -1030 0
1031 0
-1031 1032 1033 1034 1035 0
1031 -1032 0
1031 -1033 0
1031 -1034 0
1031 -1035 0
1036 0
-1036 1037 1038 1039 1040 0
1036 -1037 0
1036 -1038 0
1036 -1039 0
1036 -1040 0
1041 0
-1041 1042 1043 1044 1045 0
1041 -1042 0
1041 -1043 0
1041 -1044 0
1041 -1045 0
-1046 0
-1046 1047 1048 1049 1050 0
1046 -1047 0
1046 -1048 0
1046 -1049 0
1046 -1050 0
-1051 0
-1051 1052 1053 1054 1055 0
1051 -1052 0
1051 -1053 0
1051 -1054 0
1051 -1055 0
-1056 0
-1056 1057 1058 1059 1060 0
1056 -1057 0
1056 -1058 0
1056 -1059 0
1056 -1060 0
-1061 0
-1061 1062 1063 1064 1065 0
1061 -1062 0
1061 -1063 0
1061 -1064 0
1061 -1065 0
1066 0
-1066 1067 1068 1069 1070 0
1066 -1067 0
1066 -1068 0
1066 -1069 0
1066 -1070 0
1071 0
-1071 1072 1073 1074 1075 0
1071 -1072 0
1071 -1073 0
1071 -1074 0
1071 -1075 0
1076 0
-1076 1077 1078 1079 1080 0
1076 -1077 0
1076 -1078 0
1076 -1079 0
1076 -1080 0
1081 0
-1081 1082 1083 1084 1085 0
1081 -1082 0
1081 -1083 0
1081 -1084 0
1081 -1085 0
1086 0
-1086 1087 1088 1089 1090 0
1086 -1087 0
1086 -1088 0
1086 -1089 0
1086 -1090 0
1091 0
-1091 1092 1093 1094 1095 0
1091 -1092 0
1091 -1093 0
1091 -1094 0
1091 -1095 0
1096 0
-1096 1097 1098 1099 1100 0
1096 -1097 0
1096 -1098 0
1096 -1099 0
1096 -1100 0
1101 0
-1101 1102 1103 1104 1105 0
1101 -1102 0
1101 -1103 0
1101 -1104 0
1101 -1105 0
1106 0
-1106 1107 1108 1109 1110 0
1106 -1107 0
1106 -1108 0
1106 -1109 0
1106 -1110 0
-1111 0
-1111 1112 1113 1114 1115 0
1111 -1112 0
1111 -1113 0
1111 -1114 0
1111 -1115 0
-1116 0
-1116 1117 1118 1119 1120 0
1116 -1117 0
1116 -1118 0
1116 -1119 0
1116 -1120 0
-1121 0
-1121 1122 1123 1124 1125 0
1121 -1122 0
1121 -1123 0
1121 -1124 0
1121 -1125 0
-1126 0
-1126 1127 1128 1129 1130 0
1126 -1127 0
1126 -1128 0
1126 -1129 0
1126 -1130 0
-1131 0
-1131 1132 1133 1134 1135 0
1131 -1132 0
1131 -1133 0
1131 -1134 0
1131 -1135 0
1136 0
-1136 1137 1138 1139 1140 0
1136 -1137 0
1136 -1138 0
1136 -1139 0
1136 -1140 0
1141 0
-1141 1142 1143 1144 1145 0
1141 -1142 0
1141 -1143 0
1141 -1144 0
1141 -1145 0
-1146 0
-1146 1147 1148 1149 1150 0
1146 -1147 0
1146 -1148 0
1146 -1149 0
1146 -1150 0
-1151 0
-1151 1152 1153 1154 1155 0
1151 -1152 0
1151 -1153 0
1151 -1154 0
1151 -1155 0
-1156 0
-1156 1157 1158 1159 1160 0
1156 -1157 0
1156 -1158 0
1156 -1159 0
1156 -1160 0
-1161 0
-1161 1162 1163 1164 1165 0
1161 -1162 0
1161 -1163 0
1161 -1164 0
1161 -1165 0
-1166 0
-1166 1167 1168 1169 1170 0
1166 -1167 0
1166 -1168 0
1166 -1169 0
1166 -1170 0
-1171 0
-1171 1172 1173 1174 1175 0
1171 -1172 0
1171 -1173 0
1171 -1174 0
1171 -1175 0
1176 0
-1176 1177 1178 1179 1180 0
1176 -1177 0
1176 -1178 0
1176 -1179 0
1176 -1180 0
-1181 0
-1181 1182 1183 1184 1185 0
1181 -1182 0
1181 -1183 0
1181 -1184 0
1181 -1185 0
1186 0
-1186 1187 1188 1189 1190 0
1186 -1187 0
1186 -1188 0
1186 -1189 0
1186 -1190 0
1191 0
-1191 1192 1193 1194 1195 0
1191 -1192 0
1191 -1193 0
1191 -1194 0
1191 -1195 0
-1196 0
-1196 1197 1198 1199 1200 0
1196 -1197 0
1196 -1198 0
1196 -1199 0
1196 -1200 0
-1201 0
-1202 0
-1203 0
-1204 0
-1205 0
-1206 0
-1207 0
-1208 0
-1209 0
-1210 0
-1211 0
-1212 0
-1213 0
-1214 0
-1215 0
-1216 0
-1217 0
-1218 0
-1219 0
-1220 0
-1221 0
1222 -1223 -1224 0
-1222 1223 0
-1222 1224 0
1225 -1224 -1224 0
-1225 1224 0
-1225 1224 0
1226 -1224 -1223 0
-1226 1224 0
-1226 1223 0
1227 -1223 -1223 -1228 0
-1227 1223 0
-1227 1223 0
-1227 1228 0
-1229 1230 1222 1225 1226 1227 0
1229 -1230 0
1229 -1222 0
1229 -1225 0
1229 -1226 0
1229 -1227 0
1231 -1223 -1232 0
-1231 1223 0
-1231 1232 0
1233 -1224 -1232 0
-1233 1224 0
-1233 1232 0
1234 -1224 -1235 0
-1234 1224 0
-1234 1235 0
1236 -1223 -1235 -1228 0
-1236 1223 0
-1236 1235 0
-1236 1228 0
-984 1237 1231 1233 1234 1236 0
984 -1237 0
984 -1231 0
984 -1233 0
984 -1234 0
984 -1236 0
1238 -1223 -1239 0
-1238 1223 0
-1238 1239 0
1240 -1224 -1241 0
-1240 1224 0
-1240 1241 0
1242 -1224 -1239 0
-1242 1224 0
-1242 1239 0
1243 -1223 -1241 -1228 0
-1243 1223 0
-1243 1241 0
-1243 1228 0
-982 1244 1238 1240 1242 1243 0
982 -1244 0
982 -1238 0
982 -1240 0
982 -1242 0
982 -1243 0
1245 -1246 -1239 0
-1245 1246 0
-1245 1239 0
1247 -1248 -1239 0
-1247 1248 0
-1247 1239 0
1249 -1248 -1241 0
-1249 1248 0
-1249 1241 0
1250 -1246 -1241 -1228 0
-1250 1246 0
-1250 1241 0
-1250 1228 0
-985 1251 1245 1247 1249 1250 0
985 -1251 0
985 -1245 0
985 -1247 0
985 -1249 0
985 -1250 0
1252 -1235 -1248 0
-1252 1235 0
-1252 1248 0
1253 -1232 -1246 0
-1253 1232 0
-1253 1246 0
1254 -1232 -1248 0
-1254 1232 0
-1254 1248 0
1255 -1235 -1246 -1228 0
-1255 1235 0
-1255 1246 0
-1255 1228 0
-983 1256 1252 1253 1254 1255 0
983 -1256 0
983 -1252 0
983 -1253 0
983 -1254 0
983 -1255 0
1257 -1235 -1232 0
-1257 1235 0
-1257 1232 0
1258 -1232 -1232 0
-1258 1232 0
-1258 1232 0
1259 -1232 -1235 0
-1259 1232 0
-1259 1235 0
1260 -1235 -1235 -1228 0
-1260 1235 0
-1260 1235 0
-1260 1228 0
-1261 1262 1257 1258 1259 1260 0
1261 -1262 0
1261 -1257 0
1261 -1258 0
1261 -1259 0
1261 -1260 0
1263 -1264 -1265 0
-1263 1264 0
-1263 1265 0
1266 -1265 -1265 0
-1266 1265 0
-1266 1265 0
1267 -1265 -1264 0
-1267 1265 0
-1267 1264 0
1268 -1264 -1264 -1269 0
-1268 1264 0
-1268 1264 0
-1268 1269 0
-1270 1271 1263 1266 1267 1268 0
1270 -1271 0
1270 -1263 0
1270 -1266 0
1270 -1267 0
1270 -1268 0
1272 -1264 -1273 0
-1272 1264 0
-1272 1273 0
1274 -1265 -1273 0
-1274 1265 0
-1274 1273 0
1275 -1265 -1276 0
-1275 1265 0
-1275 1276 0
1277 -1264 -1276 -1269 0
-1277 1264 0
-1277 1276 0
-1277 1269 0
-274 1278 1272 1274 1275 1277 0
274 -1278 0
274 -1272 0
274 -1274 0
274 -1275 0
274 -1277 0
1279 -1264 -1280 0
-1279 1264 0
-1279 1280 0
1281 -1265 -1282 0
-1281 1265 0
-1281 1282 0
1283 -1265 -1280 0
-1283 1265 0
-1283 1280 0
1284 -1264 -1282 -1269 0
-1284 1264 0
-1284 1282 0
-1284 1269 0
-272 1285 1279 1281 1283 1284 0
272 -1285 0
272 -1279 0
272 -1281 0
272 -1283 0
272 -1284 0
1286 -1287 -1280 0
-1286 1287 0
-1286 1280 0
1288 -1289 -1280 0
-1288 1289 0
-1288 1280 0
1290 -1289 -1282 0
-1290 1289 0
-1290 1282 0
1291 -1287 -1282 -1269 0
-1291 1287 0
-1291 1282 0
-1291 1269 0
-275 1292 1286 1288 1290 1291 0
275 -1292 0
275 -1286 0
275 -1288 0
275 -1290 0
275 -1291 0
1293 -1276 -1289 0
-1293 1276 0
-1293 1289 0
1294 -1273 -1287 0
-1294 1273 0
-1294 1287 0
1295 -1273 -1289 0
-1295 1273 0
-1295 1289 0
1296 -1276 -1287 -1269 0
-1296 1276 0
-1296 1287 0
-1296 1269 0
-273 1297 1293 1294 1295 1296 0
273 -1297 0
273 -1293 0
273 -1294 0
273 -1295 0
273 -1296 0
1298 -1276 -1273 0
-1298 1276 0
-1298 1273 0
1299 -1273 -1273 0
-1299 1273 0
-1299 1273 0
1300 -1273 -1276 0
-1300 1273 0
-1300 1276 0
1301 -1276 -1276 -1269 0
-1301 1276 0
-1301 1276 0
-1301 1269 0
-1302 1303 1298 1299 1300 1301 0
1302 -1303 0
1302 -1298 0
1302 -1299 0
1302 -1300 0
1302 -1301 0
1304 -1305 -1306 0
-1304 1305 0
-1304 1306 0
1307 -1306 -1306 0
-1307 1306 0
-1307 1306 0
1308 -1306 -1305 0
-1308 1306 0
-1308 1305 0
1309 -1305 -1305 -1310 0
-1309 1305 0
-1309 1305 0
-1309 1310 0
-1311 1312 1304 1307 1308 1309 0
1311 -1312 0
1311 -1304 0
1311 -1307 0
1311 -1308 0
1311 -1309 0
1313 -1305 -1314 0
-1313 1305 0
-1313 1314 0
1315 -1306 -1314 0
-1315 1306 0
-1315 1314 0
1316 -1306 -1317 0
-1316 1306 0
-1316 1317 0
1318 -1305 -1317 -1310 0
-1318 1305 0
-1318 1317 0
-1318 1310 0
-924 1319 1313 1315 1316 1318 0
924 -1319 0
924 -1313 0
924 -1315 0
924 -1316 0
924 -1318 0
1320 -1305 -1321 0
-1320 1305 0
-1320 1321 0
1322 -1306 -1323 0
-1322 1306 0
-1322 1323 0
1324 -1306 -1321 0
-1324 1306 0
-1324 1321 0
1325 -1305 -1323 -1310 0
-1325 1305 0
-1325 1323 0
-1325 1310 0
-922 1326 1320 1322 1324 1325 0
922 -1326 0
922 -1320 0
922 -1322 0
922 -1324 0
922 -1325 0
1327 -1328 -1321 0
-1327 1328 0
-1327 1321 0
1329 -1330 -1321 0
-1329 1330 0
-1329 1321 0
1331 -1330 -1323 0
-1331 1330 0
-1331 1323 0
1332 -1328 -1323 -1310 0
-1332 1328 0
-1332 1323 0
-1332 1310 0
-925 1333 1327 1329 1331 1332 0
925 -1333 0
925 -1327 0
925 -1329 0
925 -1331 0
925 -1332 0
1334 -1317 -1330 0
-1334 1317 0
-1334 1330 0
1335 -1314 -1328 0
-1335 1314 0
-1335 1328 0
1336 -1314 -1330 0
-1336 1314 0
-1336 1330 0
1337 -1317 -1328 -1310 0
-1337 1317 0
-1337 1328 0
-1337 1310 0
-923 1338 1334 1335 1336 1337 0
923 -1338 0
923 -1334 0
923 -1335 0
923 -1336 0
923 -1337 0
1339 -1317 -1314 0
-1339 1317 0
-1339 1314 0
1340 -1314 -1314 0
-1340 1314 0
-1340 1314 0
1341 -1314 -1317 0
-1341 1314 0
-1341 1317 0
1342 -1317 -1317 -1310 0
-1342 1317 0
-1342 1317 0
-1342 1310 0
-1343 1344 1339 1340 1341 1342 0
1343 -1344 0
1343 -1339 0
1343 -1340 0
1343 -1341 0
1343 -1342 0
1345 -1346 -1347 0
-1345 1346 0
-1345 1347 0
1348 -1347 -1347 0
-1348 1347 0
-1348 1347 0
1349 -1347 -1346 0
-1349 1347 0
-1349 1346 0
1350 -1346 -1346 -1351 0
-1350 1346 0
-1350 1346 0
-1350 1351 0
-1352 1353 1345 1348 1349 1350 0
1352 -1353 0
1352 -1345 0
1352 -1348 0
1352 -1349 0
1352 -1350 0
1354 -1346 -1355 0
-1354 1346 0
-1354 1355 0
1356 -1347 -1355 0
-1356 1347 0
-1356 1355 0
1357 -1347 -1358 0
-1357 1347 0
-1357 1358 0
1359 -1346 -1358 -1351 0
-1359 1346 0
-1359 1358 0
-1359 1351 0
-644 1360 1354 1356 1357 1359 0
644 -1360 0
644 -1354 0
644 -1356 0
644 -1357 0
644 -1359 0
1361 -1346 -1362 0
-1361 1346 0
-1361 1362 0
1363 -1347 -1364 0
-1363 1347 0
-1363 1364 0
1365 -1347 -1362 0
-1365 1347 0
-1365 1362 0
1366 -1346 -1364 -1351 0
-1366 1346 0
-1366 1364 0
-1366 1351 0
-642 1367 1361 1363 1365 1366 0
642 -1367 0
642 -1361 0
642 -1363 0
642 -1365 0
642 -1366 0
1368 -1369 -1362 0
-1368 1369 0
-1368 1362 0
1370 -1371 -1362 0
-1370 1371 0
-1370 1362 0
1372 -1371 -1364 0
-1372 1371 0
-1372 1364 0
1373 -1369 -1364 -1351 0
-1373 1369 0
-1373 1364 0
-1373 1351 0
-645 1374 1368 1370 1372 1373 0
645 -1374 0
645 -1368 0
645 -1370 0
645 -1372 0
645 -1373 0
1375 -1358 -1371 0
-1375 1358 0
-1375 1371 0
1376 -1355 -1369 0
-1376 1355 0
-1376 1369 0
1377 -1355 -1371 0
-1377 1355 0
-1377 1371 0
1378 -1358 -1369 -1351 0
-1378 1358 0
-1378 1369 0
-1378 1351 0
-643 1379 1375 1376 1377 1378 0
643 -1379 0
643 -1375 0
643 -1376 0
643 -1377 0
643 -1378 0
1380 -1358 -1355 0
-1380 1358 0
-1380 1355 0
1381 -1355 -1355 0
-1381 1355 0
-1381 1355 0
1382 -1355 -1358 0
-1382 1355 0
-1382 1358 0
1383 -1358 -1358 -1351 0
-1383 1358 0
-1383 1358 0
-1383 1351 0
-1384 1385 1380 1381 1382 1383 0
1384 -1385 0
1384 -1380 0
1384 -1381 0
1384 -1382 0
1384 -1383 0
1386 -1387 -1388 0
-1386 1387 0
-1386 1388 0
1389 -1388 -1388 0
-1389 1388 0
-1389 1388 0
1390 -1388 -1387 0
-1390 1388 0
-1390 1387 0
1391 -1387 -1387 -1392 0
-1391 1387 0
-1391 1387 0
-1391 1392 0
-1393 1394 1386 1389 1390 1391 0
1393 -1394 0
1393 -1386 0
1393 -1389 0
1393 -1390 0
1393 -1391 0
1395 -1387 -1396 0
-1395 1387 0
-1395 1396 0
1397 -1388 -1396 0
-1397 1388 0
-1397 1396 0
1398 -1388 -1399 0
-1398 1388 0
-1398 1399 0
1400 -1387 -1399 -1392 0
-1400 1387 0
-1400 1399 0
-1400 1392 0
-674 1401 1395 1397 1398 1400 0
674 -1401 0
674 -1395 0
674 -1397 0
674 -1398 0
674 -1400 0
1402 -1387 -1403 0
-1402 1387 0
-1402 1403 0
1404 -1388 -1405 0
-1404 1388 0
-1404 1405 0
1406 -1388 -1403 0
-1406 1388 0
-1406 1403 0
1407 -1387 -1405 -1392 0
-1407 1387 0
-1407 1405 0
-1407 1392 0
-672 1408 1402 1404 1406 1407 0
672 -1408 0
672 -1402 0
672 -1404 0
672 -1406 0
672 -1407 0
1409 -1410 -1403 0
-1409 1410 0
-1409 1403 0
1411 -1412 -1403 0
-1411 1412 0
-1411 1403 0
1413 -1412 -1405 0
-1413 1412 0
-1413 1405 0
1414 -1410 -1405 -1392 0
-1414 1410 0
-1414 1405 0
-1414 1392 0
-675 1415 1409 1411 1413 1414 0
675 -1415 0
675 -1409 0
675 -1411 0
675 -1413 0
675 -1414 0
1416 -1399 -1412 0
-1416 1399 0
-1416 1412 0
1417 -1396 -1410 0
-1417 1396 0
-1417 1410 0
1418 -1396 -1412 0
-1418 1396 0
-1418 1412 0
1419 -1399 -1410 -1392 0
-1419 1399 0
-1419 1410 0
-1419 1392 0
-673 1420 1416 1417 1418 1419 0
673 -1420 0
673 -1416 0
673 -1417 0
673 -1418 0
673 -1419 0
1421 -1399 -1396 0
-1421 1399 0
-1421 1396 0
1422 -1396 -1396 0
-1422 1396 0
-1422 1396 0
1423 -1396 -1399 0
-1423 1396 0
-1423 1399 0
1424 -1399 -1399 -1392 0
-1424 1399 0
-1424 1399 0
-1424 1392 0
-1425 1426 1421 1422 1423 1424 0
1425 -1426 0
1425 -1421 0
1425 -1422 0
1425 -1423 0
1425 -1424 0
1427 -1428 -1429 0
-1427 1428 0
-1427 1429 0
1430 -1429 -1429 0
-1430 1429 0
-1430 1429 0
1431 -1429 -1428 0
-1431 1429 0
-1431 1428 0
1432 -1428 -1428 -1433 0
-1432 1428 0
-1432 1428 0
-1432 1433 0
-1434 1435 1427 1430 1431 1432 0
1434 -1435 0
1434 -1427 0
1434 -1430 0
1434 -1431 0
1434 -1432 0
1436 -1428 -1437 0
-1436 1428 0
-1436 1437 0
1438 -1429 -1437 0
-1438 1429 0
-1438 1437 0
1439 -1429 -1440 0
-1439 1429 0
-1439 1440 0
1441 -1428 -1440 -1433 0
-1441 1428 0
-1441 1440 0
-1441 1433 0
-69 1442 1436 1438 1439 1441 0
69 -1442 0
69 -1436 0
69 -1438 0
69 -1439 0
69 -1441 0
1443 -1428 -1444 0
-1443 1428 0
-1443 1444 0
1445 -1429 -1446 0
-1445 1429 0
-1445 1446 0
1447 -1429 -1444 0
-1447 1429 0
-1447 1444 0
1448 -1428 -1446 -1433 0
-1448 1428 0
-1448 1446 0
-1448 1433 0
-67 1449 1443 1445 1447 1448 0
67 -1449 0
67 -1443 0
67 -1445 0
67 -1447 0
67 -1448 0
1450 -1451 -1444 0
-1450 1451 0
-1450 1444 0
1452 -1453 -1444 0
-1452 1453 0
-1452 1444 0
1454 -1453 -1446 0
-1454 1453 0
-1454 1446 0
1455 -1451 -1446 -1433 0
-1455 1451 0
-1455 1446 0
-1455 1433 0
-70 1456 1450 1452 1454 1455 0
70 -1456 0
70 -1450 0
70 -1452 0
70 -1454 0
70 -1455 0
1457 -1440 -1453 0
-1457 1440 0
-1457 1453 0
1458 -1437 -1451 0
-1458 1437 0
-1458 1451 0
1459 -1437 -1453 0
-1459 1437 0
-1459 1453 0
1460 -1440 -1451 -1433 0
-1460 1440 0
-1460 1451 0
-1460 1433 0
-68 1461 1457 1458 1459 1460 0
68 -1461 0
68 -1457 0
68 -1458 0
68 -1459 0
68 -1460 0
1462 -1440 -1437 0
-1462 1440 0
-1462 1437 0
1463 -1437 -1437 0
-1463 1437 0
-1463 1437 0
1464 -1437 -1440 0
-1464 1437 0
-1464 1440 0
1465 -1440 -1440 -1433 0
-1465 1440 0
-1465 1440 0
-1465 1433 0
-1466 1467 1462 1463 1464 1465 0
1466 -1467 0
1466 -1462 0
1466 -1463 0
1466 -1464 0
1466 -1465 0
1468 -1469 -1470 0
-1468 1469 0
-1468 1470 0
1471 -1470 -1470 0
-1471 1470 0
-1471 1470 0
1472 -1470 -1469 0
-1472 1470 0
-1472 1469 0
1473 -1469 -1469 -1474 0
-1473 1469 0
-1473 1469 0
-1473 1474 0
-1475 1476 1468 1471 1472 1473 0
1475 -1476 0
1475 -1468 0
1475 -1471 0
1475 -1472 0
1475 -1473 0
1477 -1469 -1478 0
-1477 1469 0
-1477 1478 0
1479 -1470 -1478 0
-1479 1470 0
-1479 1478 0
1480 -1470 -1481 0
-1480 1470 0
-1480 1481 0
1482 -1469 -1481 -1474 0
-1482 1469 0
-1482 1481 0
-1482 1474 0
-249 1483 1477 1479 1480 1482 0
249 -1483 0
249 -1477 0
249 -1479 0
249 -1480 0
249 -1482 0
1484 -1469 -1485 0
-1484 1469 0
-1484 1485 0
1486 -1470 -1487 0
-1486 1470 0
-1486 1487 0
1488 -1470 -1485 0
-1488 1470 0
-1488 1485 0
1489 -1469 -1487 -1474 0
-1489 1469 0
-1489 1487 0
-1489 1474 0
-247 1490 1484 1486 1488 1489 0
247 -1490 0
247 -1484 0
247 -1486 0
247 -1488 0
247 -1489 0
1491 -1492 -1485 0
-1491 1492 0
-1491 1485 0
1493 -1494 -1485 0
-1493 1494 0
-1493 1485 0
1495 -1494 -1487 0
-1495 1494 0
-1495 1487 0
1496 -1492 -1487 -1474 0
-1496 1492 0
-1496 1487 0
-1496 1474 0
-250 1497 1491 1493 1495 1496 0
250 -1497 0
250 -1491 0
250 -1493 0
250 -1495 0
250 -1496 0
1498 -1481 -1494 0
-1498 1481 0
-1498 1494 0
1499 -1478 -1492 0
-1499 1478 0
-1499 1492 0
1500 -1478 -1494 0
-1500 1478 0
-1500 1494 0
1501 -1481 -1492 -1474 0
-1501 1481 0
-1501 1492 0
-1501 1474 0
-248 1502 1498 1499 1500 1501 0
248 -1502 0
248 -1498 0
248 -1499 0
248 -1500 0
248 -1501 0
1503 -1481 -1478 0
-1503 1481 0
-1503 1478 0
1504 -1478 -1478 0
-1504 1478 0
-1504 1478 0
1505 -1478 -1481 0
-1505 1478 0
-1505 1481 0
1506 -1481 -1481 -1474 0
-1506 1481 0
-1506 1481 0
-1506 1474 0
-1507 1508 1503 1504 1505 1506 0
1507 -1508 0
1507 -1503 0
1507 -1504 0
1507 -1505 0
1507 -1506 0
1509 -1510 -1510 0
-1509 1510 0
-1509 1510 0
-1511 1512 1509 0
1511 -1512 0
1511 -1509 0
1513 -1510 -1514 0
-1513 1510 0
-1513 1514 0
-1089 1515 1513 0
1089 -1515 0
1089 -1513 0
1516 -1510 -1517 0
-1516 1510 0
-1516 1517 0
-1087 1518 1516 0
1087 -1518 0
1087 -1516 0
1519 -1520 -1517 0
-1519 1520 0
-1519 1517 0
-1090 1521 1519 0
1090 -1521 0
1090 -1519 0
1522 -1514 -1520 0
-1522 1514 0
-1522 1520 0
-1088 1523 1522 0
1088 -1523 0
1088 -1522 0
1524 -1514 -1514 0
-1524 1514 0
-1524 1514 0
-1525 1526 1524 0
1525 -1526 0
1525 -1524 0
1527 -1387 -1387 0
-1527 1387 0
-1527 1387 0
-1528 1394 1527 0
1528 -1394 0
1528 -1527 0
1529 -1387 -1399 0
-1529 1387 0
-1529 1399 0
-1019 1401 1529 0
1019 -1401 0
1019 -1529 0
1530 -1387 -1405 0
-1530 1387 0
-1530 1405 0
-1017 1408 1530 0
1017 -1408 0
1017 -1530 0
1531 -1410 -1405 0
-1531 1410 0
-1531 1405 0
-1020 1415 1531 0
1020 -1415 0
1020 -1531 0
1532 -1399 -1410 0
-1532 1399 0
-1532 1410 0
-1018 1420 1532 0
1018 -1420 0
1018 -1532 0
1533 -1399 -1399 0
-1533 1399 0
-1533 1399 0
-1534 1426 1533 0
1534 -1426 0
1534 -1533 0
1535 -1536 -1536 0
-1535 1536 0
-1535 1536 0
-1537 1538 1535 0
1537 -1538 0
1537 -1535 0
1539 -1536 -1540 0
-1539 1536 0
-1539 1540 0
-259 1541 1539 0
259 -1541 0
259 -1539 0
1542 -1536 -1543 0
-1542 1536 0
-1542 1543 0
-257 1544 1542 0
257 -1544 0
257 -1542 0
1545 -1546 -1543 0
-1545 1546 0
-1545 1543 0
-260 1547 1545 0
260 -1547 0
260 -1545 0
1548 -1540 -1546 0
-1548 1540 0
-1548 1546 0
-258 1549 1548 0
258 -1549 0
258 -1548 0
1550 -1540 -1540 0
-1550 1540 0
-1550 1540 0
-1551 1552 1550 0
1551 -1552 0
1551 -1550 0
1553 -1554 -1554 0
-1553 1554 0
-1553 1554 0
-1555 1556 1553 0
1555 -1556 0
1555 -1553 0
1557 -1554 -1558 0
-1557 1554 0
-1557 1558 0
-1109 1559 1557 0
1109 -1559 0
1109 -1557 0
1560 -1554 -1561 0
-1560 1554 0
-1560 1561 0
-1107 1562 1560 0
1107 -1562 0
1107 -1560 0
1563 -1564 -1561 0
-1563 1564 0
-1563 1561 0
-1110 1565 1563 0
1110 -1565 0
1110 -1563 0
1566 -1558 -1564 0
-1566 1558 0
-1566 1564 0
-1108 1567 1566 0
1108 -1567 0
1108 -1566 0
1568 -1558 -1558 0
-1568 1558 0
-1568 1558 0
-1569 1570 1568 0
1569 -1570 0
1569 -1568 0
1571 -1572 -1572 0
-1571 1572 0
-1571 1572 0
-1573 1574 1571 0
1573 -1574 0
1573 -1571 0
1575 -1572 -1576 0
-1575 1572 0
-1575 1576 0
-319 1577 1575 0
319 -1577 0
319 -1575 0
1578 -1572 -1579 0
-1578 1572 0
-1578 1579 0
-317 1580 1578 0
317 -1580 0
317 -1578 0
1581 -1582 -1579 0
-1581 1582 0
-1581 1579 0
-320 1583 1581 0
320 -1583 0
320 -1581 0
1584 -1576 -1582 0
-1584 1576 0
-1584 1582 0
-318 1585 1584 0
318 -1585 0
318 -1584 0
1586 -1576 -1576 0
-1586 1576 0
-1586 1576 0
-1587 1588 1586 0
1587 -1588 0
1587 -1586 0
1589 -1590 -1591 0
-1589 1590 0
-1589 1591 0
1592 -1591 -1591 0
-1592 1591 0
-1592 1591 0
1593 -1591 -1590 0
-1593 1591 0
-1593 1590 0
1594 -1590 -1590 -1595 0
-1594 1590 0
-1594 1590 0
-1594 1595 0
-1596 1597 1589 1592 1593 1594 0
1596 -1597 0
1596 -1589 0
1596 -1592 0
1596 -1593 0
1596 -1594 0
1598 -1590 -1599 0
-1598 1590 0
-1598 1599 0
1600 -1591 -1599 0
-1600 1591 0
-1600 1599 0
1601 -1591 -1602 0
-1601 1591 0
-1601 1602 0
1603 -1590 -1602 -1595 0
-1603 1590 0
-1603 1602 0
-1603 1595 0
-229 1604 1598 1600 1601 1603 0
229 -1604 0
229 -1598 0
229 -1600 0
229 -1601 0
229 -1603 0
1605 -1590 -1606 0
-1605 1590 0
-1605 1606 0
1607 -1591 -1608 0
-1607 1591 0
-1607 1608 0
1609 -1591 -1606 0
-1609 1591 0
-1609 1606 0
1610 -1590 -1608 -1595 0
-1610 1590 0
-1610 1608 0
-1610 1595 0
-227 1611 1605 1607 1609 1610 0
227 -1611 0
227 -1605 0
227 -1607 0
227 -1609 0
227 -1610 0
1612 -1613 -1606 0
-1612 1613 0
-1612 1606 0
1614 -1615 -1606 0
-1614 1615 0
-1614 1606 0
1616 -1615 -1608 0
-1616 1615 0
-1616 1608 0
1617 -1613 -1608 -1595 0
-1617 1613 0
-1617 1608 0
-1617 1595 0
-230 1618 1612 1614 1616 1617 0
230 -1618 0
230 -1612 0
230 -1614 0
230 -1616 0
230 -1617 0
1619 -1602 -1615 0
-1619 1602 0
-1619 1615 0
1620 -1599 -1613 0
-1620 1599 0
-1620 1613 0
1621 -1599 -1615 0
-1621 1599 0
-1621 1615 0
1622 -1602 -1613 -1595 0
-1622 1602 0
-1622 1613 0
-1622 1595 0
-228 1623 1619 1620 1621 1622 0
228 -1623 0
228 -1619 0
228 -1620 0
228 -1621 0
228 -1622 0
1624 -1602 -1599 0
-1624 1602 0
-1624 1599 0
1625 -1599 -1599 0
-1625 1599 0
-1625 1599 0
1626 -1599 -1602 0
-1626 1599 0
-1626 1602 0
1627 -1602 -1602 -1595 0
-1627 1602 0
-1627 1602 0
-1627 1595 0
-1628 1629 1624 1625 1626 1627 0
1628 -1629 0
1628 -1624 0
1628 -1625 0
1628 -1626 0
1628 -1627 0
1630 -1631 -1632 0
-1630 1631 0
-1630 1632 0
1633 -1632 -1632 0
-1633 1632 0
-1633 1632 0
1634 -1632 -1631 0
-1634 1632 0
-1634 1631 0
1635 -1631 -1631 -1636 0
-1635 1631 0
-1635 1631 0
-1635 1636 0
-1637 1638 1630 1633 1634 1635 0
1637 -1638 0
1637 -1630 0
1637 -1633 0
1637 -1634 0
1637 -1635 0
1639 -1631 -1640 0
-1639 1631 0
-1639 1640 0
1641 -1632 -1640 0
-1641 1632 0
-1641 1640 0
1642 -1632 -1643 0
-1642 1632 0
-1642 1643 0
1644 -1631 -1643 -1636 0
-1644 1631 0
-1644 1643 0
-1644 1636 0
-494 1645 1639 1641 1642 1644 0
494 -1645 0
494 -1639 0
494 -1641 0
494 -1642 0
494 -1644 0
1646 -1631 -1647 0
-1646 1631 0
-1646 1647 0
1648 -1632 -1649 0
-1648 1632 0
-1648 1649 0
1650 -1632 -1647 0
-1650 1632 0
-1650 1647 0
1651 -1631 -1649 -1636 0
-1651 1631 0
-1651 1649 0
-1651 1636 0
-492 1652 1646 1648 1650 1651 0
492 -1652 0
492 -1646 0
492 -1648 0
492 -1650 0
492 -1651 0
1653 -1654 -1647 0
-1653 1654 0
-1653 1647 0
1655 -1656 -1647 0
-1655 1656 0
-1655 1647 0
1657 -1656 -1649 0
-1657 1656 0
-1657 1649 0
1658 -1654 -1649 -1636 0
-1658 1654 0
-1658 1649 0
-1658 1636 0
-495 1659 1653 1655 1657 1658 0
495 -1659 0
495 -1653 0
495 -1655 0
495 -1657 0
495 -1658 0
1660 -1643 -1656 0
-1660 1643 0
-1660 1656 0
1661 -1640 -1654 0
-1661 1640 0
-1661 1654 0
1662 -1640 -1656 0
-1662 1640 0
-1662 1656 0
1663 -1643 -1654 -1636 0
-1663 1643 0
-1663 1654 0
-1663 1636 0
-493 1664 1660 1661 1662 1663 0
493 -1664 0
493 -1660 0
493 -1661 0
493 -1662 0
493 -1663 0
1665 -1643 -1640 0
-1665 1643 0
-1665 1640 0
1666 -1640 -1640 0
-1666 1640 0
-1666 1640 0
1667 -1640 -1643 0
-1667 1640 0
-1667 1643 0
1668 -1643 -1643 -1636 0
-1668 1643 0
-1668 1643 0
-1668 1636 0
-1669 1670 1665 1666 1667 1668 0
1669 -1670 0
1669 -1665 0
1669 -1666 0
1669 -1667 0
1669 -1668 0
1671 -1672 -1672 0
-1671 1672 0
-1671 1672 0
-1673 1674 1671 0
1673 -1674 0
1673 -1671 0
1675 -1672 -1676 0
-1675 1672 0
-1675 1676 0
-634 1677 1675 0
634 -1677 0
634 -1675 0
1678 -1672 -1679 0
-1678 1672 0
-1678 1679 0
-632 1680 1678 0
632 -1680 0
632 -1678 0
1681 -1682 -1679 0
-1681 1682 0
-1681 1679 0
-635 1683 1681 0
635 -1683 0
635 -1681 0
1684 -1676 -1682 0
-1684 1676 0
-1684 1682 0
-633 1685 1684 0
633 -1685 0
633 -1684 0
1686 -1676 -1676 0
-1686 1676 0
-1686 1676 0
-1687 1688 1686 0
1687 -1688 0
1687 -1686 0
1689 -1690 -1691 0
-1689 1690 0
-1689 1691 0
1692 -1691 -1691 0
-1692 1691 0
-1692 1691 0
1693 -1691 -1690 0
-1693 1691 0
-1693 1690 0
1694 -1690 -1690 -1695 0
-1694 1690 0
-1694 1690 0
-1694 1695 0
-1696 1697 1689 1692 1693 1694 0
1696 -1697 0
1696 -1689 0
1696 -1692 0
1696 -1693 0
1696 -1694 0
1698 -1690 -1699 0
-1698 1690 0
-1698 1699 0
1700 -1691 -1699 0
-1700 1691 0
-1700 1699 0
1701 -1691 -1702 0
-1701 1691 0
-1701 1702 0
1703 -1690 -1702 -1695 0
-1703 1690 0
-1703 1702 0
-1703 1695 0
-124 1704 1698 1700 1701 1703 0
124 -1704 0
124 -1698 0
124 -1700 0
124 -1701 0
124 -1703 0
1705 -1690 -1706 0
-1705 1690 0
-1705 1706 0
1707 -1691 -1708 0
-1707 1691 0
-1707 1708 0
1709 -1691 -1706 0
-1709 1691 0
-1709 1706 0
1710 -1690 -1708 -1695 0
-1710 1690 0
-1710 1708 0
-1710 1695 0
-122 1711 1705 1707 1709 1710 0
122 -1711 0
122 -1705 0
122 -1707 0
122 -1709 0
122 -1710 0
1712 -1713 -1706 0
-1712 1713 0
-1712 1706 0
1714 -1715 -1706 0
-1714 1715 0
-1714 1706 0
1716 -1715 -1708 0
-1716 1715 0
-1716 1708 0
1717 -1713 -1708 -1695 0
-1717 1713 0
-1717 1708 0
-1717 1695 0
-125 1718 1712 1714 1716 1717 0
125 -1718 0
125 -1712 0
125 -1714 0
125 -1716 0
125 -1717 0
1719 -1702 -1715 0
-1719 1702 0
-1719 1715 0
1720 -1699 -1713 0
-1720 1699 0
-1720 1713 0
1721 -1699 -1715 0
-1721 1699 0
-1721 1715 0
1722 -1702 -1713 -1695 0
-1722 1702 0
-1722 1713 0
-1722 1695 0
-123 1723 1719 1720 1721 1722 0
123 -1723 0
123 -1719 0
123 -1720 0
123 -1721 0
123 -1722 0
1724 -1702 -1699 0
-1724 1702 0
-1724 1699 0
1725 -1699 -1699 0
-1725 1699 0
-1725 1699 0
1726 -1699 -1702 0
-1726 1699 0
-1726 1702 0
1727 -1702 -1702 -1695 0
-1727 1702 0
-1727 1702 0
-1727 1695 0
-1728 1729 1724 1725 1726 1727 0
1728 -1729 0
1728 -1724 0
1728 -1725 0
1728 -1726 0
1728 -1727 0
1730 -1731 -1732 0
-1730 1731 0
-1730 1732 0
1733 -1732 -1732 0
-1733 1732 0
-1733 1732 0
1734 -1732 -1731 0
-1734 1732 0
-1734 1731 0
1735 -1731 -1731 -1736 0
-1735 1731 0
-1735 1731 0
-1735 1736 0
-1737 1738 1730 1733 1734 1735 0
1737 -1738 0
1737 -1730 0
1737 -1733 0
1737 -1734 0
1737 -1735 0
1739 -1731 -1740 0
-1739 1731 0
-1739 1740 0
1741 -1732 -1740 0
-1741 1732 0
-1741 1740 0
1742 -1732 -1743 0
-1742 1732 0
-1742 1743 0
1744 -1731 -1743 -1736 0
-1744 1731 0
-1744 1743 0
-1744 1736 0
-344 1745 1739 1741 1742 1744 0
344 -1745 0
344 -1739 0
344 -1741 0
344 -1742 0
344 -1744 0
1746 -1731 -1747 0
-1746 1731 0
-1746 1747 0
1748 -1732 -1749 0
-1748 1732 0
-1748 1749 0
1750 -1732 -1747 0
-1750 1732 0
-1750 1747 0
1751 -1731 -1749 -1736 0
-1751 1731 0
-1751 1749 0
-1751 1736 0
-342 1752 1746 1748 1750 1751 0
342 -1752 0
342 -1746 0
342 -1748 0
342 -1750 0
342 -1751 0
1753 -1754 -1747 0
-1753 1754 0
-1753 1747 0
1755 -1756 -1747 0
-1755 1756 0
-1755 1747 0
1757 -1756 -1749 0
-1757 1756 0
-1757 1749 0
1758 -1754 -1749 -1736 0
-1758 1754 0
-1758 1749 0
-1758 1736 0
-345 1759 1753 1755 1757 1758 0
345 -1759 0
345 -1753 0
345 -1755 0
345 -1757 0
345 -1758 0
1760 -1743 -1756 0
-1760 1743 0
-1760 1756 0
1761 -1740 -1754 0
-1761 1740 0
-1761 1754 0
1762 -1740 -1756 0
-1762 1740 0
-1762 1756 0
1763 -1743 -1754 -1736 0
-1763 1743 0
-1763 1754 0
-1763 1736 0
-343 1764 1760 1761 1762 1763 0
343 -1764 0
343 -1760 0
343 -1761 0
343 -1762 0
343 -1763 0
1765 -1743 -1740 0
-1765 1743 0
-1765 1740 0
1766 -1740 -1740 0
-1766 1740 0
-1766 1740 0
1767 -1740 -1743 0
-1767 1740 0
-1767 1743 0
1768 -1743 -1743 -1736 0
-1768 1743 0
-1768 1743 0
-1768 1736 0
-1769 1770 1765 1766 1767 1768 0
1769 -1770 0
1769 -1765 0
1769 -1766 0
1769 -1767 0
1769 -1768 0
1771 -1772 -1773 0
-1771 1772 0
-1771 1773 0
1774 -1773 -1773 0
-1774 1773 0
-1774 1773 0
1775 -1773 -1772 0
-1775 1773 0
-1775 1772 0
1776 -1772 -1772 -1777 0
-1776 1772 0
-1776 1772 0
-1776 1777 0
-1778 1779 1771 1774 1775 1776 0
1778 -1779 0
1778 -1771 0
1778 -1774 0
1778 -1775 0
1778 -1776 0
1780 -1772 -1781 0
-1780 1772 0
-1780 1781 0
1782 -1773 -1781 0
-1782 1773 0
-1782 1781 0
1783 -1773 -1784 0
-1783 1773 0
-1783 1784 0
1785 -1772 -1784 -1777 0
-1785 1772 0
-1785 1784 0
-1785 1777 0
-1104 1786 1780 1782 1783 1785 0
1104 -1786 0
1104 -1780 0
1104 -1782 0
1104 -1783 0
1104 -1785 0
1787 -1772 -1788 0
-1787 1772 0
-1787 1788 0
1789 -1773 -1790 0
-1789 1773 0
-1789 1790 0
1791 -1773 -1788 0
-1791 1773 0
-1791 1788 0
1792 -1772 -1790 -1777 0
-1792 1772 0
-1792 1790 0
-1792 1777 0
-1102 1793 1787 1789 1791 1792 0
1102 -1793 0
1102 -1787 0
1102 -1789 0
1102 -1791 0
1102 -1792 0
1794 -1795 -1788 0
-1794 1795 0
-1794 1788 0
1796 -1797 -1788 0
-1796 1797 0
-1796 1788 0
1798 -1797 -1790 0
-1798 1797 0
-1798 1790 0
1799 -1795 -1790 -1777 0
-1799 1795 0
-1799 1790 0
-1799 1777 0
-1105 1800 1794 1796 1798 1799 0
1105 -1800 0
1105 -1794 0
1105 -1796 0
1105 -1798 0
1105 -1799 0
1801 -1784 -1797 0
-1801 1784 0
-1801 1797 0
1802 -1781 -1795 0
-1802 1781 0
-1802 1795 0
1803 -1781 -1797 0
-1803 1781 0
-1803 1797 0
1804 -1784 -1795 -1777 0
-1804 1784 0
-1804 1795 0
-1804 1777 0
-1103 1805 1801 1802 1803 1804 0
1103 -1805 0
1103 -1801 0
1103 -1802 0
1103 -1803 0
1103 -1804 0
1806 -1784 -1781 0
-1806 1784 0
-1806 1781 0
1807 -1781 -1781 0
-1807 1781 0
-1807 1781 0
1808 -1781 -1784 0
-1808 1781 0
-1808 1784 0
1809 -1784 -1784 -1777 0
-1809 1784 0
-1809 1784 0
-1809 1777 0
-1810 1811 1806 1807 1808 1809 0
1810 -1811 0
1810 -1806 0
1810 -1807 0
1810 -1808 0
1810 -1809 0
1812 -1813 -1813 0
-1812 1813 0
-1812 1813 0
-1814 1815 1812 0
1814 -1815 0
1814 -1812 0
1816 -1813 -1817 0
-1816 1813 0
-1816 1817 0
-949 1818 1816 0
949 -1818 0
949 -1816 0
1819 -1813 -1820 0
-1819 1813 0
-1819 1820 0
-947 1821 1819 0
947 -1821 0
947 -1819 0
1822 -1823 -1820 0
-1822 1823 0
-1822 1820 0
-950 1824 1822 0
950 -1824 0
950 -1822 0
1825 -1817 -1823 0
-1825 1817 0
-1825 1823 0
-948 1826 1825 0
948 -1826 0
948 -1825 0
1827 -1817 -1817 0
-1827 1817 0
-1827 1817 0
-1828 1829 1827 0
1828 -1829 0
1828 -1827 0
1830 -1831 -1832 0
-1830 1831 0
-1830 1832 0
1833 -1832 -1832 0
-1833 1832 0
-1833 1832 0
1834 -1832 -1831 0
-1834 1832 0
-1834 1831 0
1835 -1831 -1831 -1836 0
-1835 1831 0
-1835 1831 0
-1835 1836 0
-1837 1838 1830 1833 1834 1835 0
1837 -1838 0
1837 -1830 0
1837 -1833 0
1837 -1834 0
1837 -1835 0
1839 -1831 -1840 0
-1839 1831 0
-1839 1840 0
1841 -1832 -1840 0
-1841 1832 0
-1841 1840 0
1842 -1832 -1843 0
-1842 1832 0
-1842 1843 0
1844 -1831 -1843 -1836 0
-1844 1831 0
-1844 1843 0
-1844 1836 0
-294 1845 1839 1841 1842 1844 0
294 -1845 0
294 -1839 0
294 -1841 0
294 -1842 0
294 -1844 0
1846 -1831 -1847 0
-1846 1831 0
-1846 1847 0
1848 -1832 -1849 0
-1848 1832 0
-1848 1849 0
1850 -1832 -1847 0
-1850 1832 0
-1850 1847 0
1851 -1831 -1849 -1836 0
-1851 1831 0
-1851 1849 0
-1851 1836 0
-292 1852 1846 1848 1850 1851 0
292 -1852 0
292 -1846 0
292 -1848 0
292 -1850 0
292 -1851 0
1853 -1854 -1847 0
-1853 1854 0
-1853 1847 0
1855 -1856 -1847 0
-1855 1856 0
-1855 1847 0
1857 -1856 -1849 0
-1857 1856 0
-1857 1849 0
1858 -1854 -1849 -1836 0
-1858 1854 0
-1858 1849 0
-1858 1836 0
-295 1859 1853 1855 1857 1858 0
295 -1859 0
295 -1853 0
295 -1855 0
295 -1857 0
295 -1858 0
1860 -1843 -1856 0
-1860 1843 0
-1860 1856 0
1861 -1840 -1854 0
-1861 1840 0
-1861 1854 0
1862 -1840 -1856 0
-1862 1840 0
-1862 1856 0
1863 -1843 -1854 -1836 0
-1863 1843 0
-1863 1854 0
-1863 1836 0
-293 1864 1860 1861 1862 1863 0
293 -1864 0
293 -1860 0
293 -1861 0
293 -1862 0
293 -1863 0
1865 -1843 -1840 0
-1865 1843 0
-1865 1840 0
1866 -1840 -1840 0
-1866 1840 0
-1866 1840 0
1867 -1840 -1843 0
-1867 1840 0
-1867 1843 0
1868 -1843 -1843 -1836 0
-1868 1843 0
-1868 1843 0
-1868 1836 0
-1869 1870 1865 1866 1867 1868 0
1869 -1870 0
1869 -1865 0
1869 -1866 0
1869 -1867 0
1869 -1868 0
1871 -1872 -1873 0
-1871 1872 0
-1871 1873 0
1874 -1873 -1873 0
-1874 1873 0
-1874 1873 0
1875 -1873 -1872 0
-1875 1873 0
-1875 1872 0
1876 -1872 -1872 -1877 0
-1876 1872 0
-1876 1872 0
-1876 1877 0
-1878 1879 1871 1874 1875 1876 0
1878 -1879 0
1878 -1871 0
1878 -1874 0
1878 -1875 0
1878 -1876 0
1880 -1872 -1881 0
-1880 1872 0
-1880 1881 0
1882 -1873 -1881 0
-1882 1873 0
-1882 1881 0
1883 -1873 -1884 0
-1883 1873 0
-1883 1884 0
1885 -1872 -1884 -1877 0
-1885 1872 0
-1885 1884 0
-1885 1877 0
-419 1886 1880 1882 1883 1885 0
419 -1886 0
419 -1880 0
419 -1882 0
419 -1883 0
419 -1885 0
1887 -1872 -1888 0
-1887 1872 0
-1887 1888 0
1889 -1873 -1890 0
-1889 1873 0
-1889 1890 0
1891 -1873 -1888 0
-1891 1873 0
-1891 1888 0
1892 -1872 -1890 -1877 0
-1892 1872 0
-1892 1890 0
-1892 1877 0
-417 1893 1887 1889 1891 1892 0
417 -1893 0
417 -1887 0
417 -1889 0
417 -1891 0
417 -1892 0
1894 -1895 -1888 0
-1894 1895 0
-1894 1888 0
1896 -1897 -1888 0
-1896 1897 0
-1896 1888 0
1898 -1897 -1890 0
-1898 1897 0
-1898 1890 0
1899 -1895 -1890 -1877 0
-1899 1895 0
-1899 1890 0
-1899 1877 0
-420 1900 1894 1896 1898 1899 0
420 -1900 0
420 -1894 0
420 -1896 0
420 -1898 0
420 -1899 0
1901 -1884 -1897 0
-1901 1884 0
-1901 1897 0
1902 -1881 -1895 0
-1902 1881 0
-1902 1895 0
1903 -1881 -1897 0
-1903 1881 0
-1903 1897 0
1904 -1884 -1895 -1877 0
-1904 1884 0
-1904 1895 0
-1904 1877 0
-418 1905 1901 1902 1903 1904 0
418 -1905 0
418 -1901 0
418 -1902 0
418 -1903 0
418 -1904 0
1906 -1884 -1881 0
-1906 1884 0
-1906 1881 0
1907 -1881 -1881 0
-1907 1881 0
-1907 1881 0
1908 -1881 -1884 0
-1908 1881 0
-1908 1884 0
1909 -1884 -1884 -1877 0
-1909 1884 0
-1909 1884 0
-1909 1877 0
-1910 1911 1906 1907 1908 1909 0
1910 -1911 0
1910 -1906 0
1910 -1907 0
1910 -1908 0
1910 -1909 0
1912 -1913 -1913 0
-1912 1913 0
-1912 1913 0
-1914 1915 1912 0
1914 -1915 0
1914 -1912 0
1916 -1913 -1917 0
-1916 1913 0
-1916 1917 0
-544 1918 1916 0
544 -1918 0
544 -1916 0
1919 -1913 -1920 0
-1919 1913 0
-1919 1920 0
-542 1921 1919 0
542 -1921 0
542 -1919 0
1922 -1923 -1920 0
-1922 1923 0
-1922 1920 0
-545 1924 1922 0
545 -1924 0
545 -1922 0
1925 -1917 -1923 0
-1925 1917 0
-1925 1923 0
-543 1926 1925 0
543 -1926 0
543 -1925 0
1927 -1917 -1917 0
-1927 1917 0
-1927 1917 0
-1928 1929 1927 0
1928 -1929 0
1928 -1927 0
1930 -1931 -1932 0
-1930 1931 0
-1930 1932 0
1933 -1932 -1932 0
-1933 1932 0
-1933 1932 0
1934 -1932 -1931 0
-1934 1932 0
-1934 1931 0
1935 -1931 -1931 -1936 0
-1935 1931 0
-1935 1931 0
-1935 1936 0
-1937 1938 1930 1933 1934 1935 0
1937 -1938 0
1937 -1930 0
1937 -1933 0
1937 -1934 0
1937 -1935 0
1939 -1931 -1940 0
-1939 1931 0
-1939 1940 0
1941 -1932 -1940 0
-1941 1932 0
-1941 1940 0
1942 -1932 -1943 0
-1942 1932 0
-1942 1943 0
1944 -1931 -1943 -1936 0
-1944 1931 0
-1944 1943 0
-1944 1936 0
-284 1945 1939 1941 1942 1944 0
284 -1945 0
284 -1939 0
284 -1941 0
284 -1942 0
284 -1944 0
1946 -1931 -1947 0
-1946 1931 0
-1946 1947 0
1948 -1932 -1949 0
-1948 1932 0
-1948 1949 0
1950 -1932 -1947 0
-1950 1932 0
-1950 1947 0
1951 -1931 -1949 -1936 0
-1951 1931 0
-1951 1949 0
-1951 1936 0
-282 1952 1946 1948 1950 1951 0
282 -1952 0
282 -1946 0
282 -1948 0
282 -1950 0
282 -1951 0
1953 -1954 -1947 0
-1953 1954 0
-1953 1947 0
1955 -1956 -1947 0
-1955 1956 0
-1955 1947 0
1957 -1956 -1949 0
-1957 1956 0
-1957 1949 0
1958 -1954 -1949 -1936 0
-1958 1954 0
-1958 1949 0
-1958 1936 0
-285 1959 1953 1955 1957 1958 0
285 -1959 0
285 -1953 0
285 -1955 0
285 -1957 0
285 -1958 0
1960 -1943 -1956 0
-1960 1943 0
-1960 1956 0
1961 -1940 -1954 0
-1961 1940 0
-1961 1954 0
1962 -1940 -1956 0
-1962 1940 0
-1962 1956 0
1963 -1943 -1954 -1936 0
-1963 1943 0
-1963 1954 0
-1963 1936 0
-283 1964 1960 1961 1962 1963 0
283 -1964 0
283 -1960 0
283 -1961 0
283 -1962 0
283 -1963 0
1965 -1943 -1940 0
-1965 1943 0
-1965 1940 0
1966 -1940 -1940 0
-1966 1940 0
-1966 1940 0
1967 -1940 -1943 0
-1967 1940 0
-1967 1943 0
1968 -1943 -1943 -1936 0
-1968 1943 0
-1968 1943 0
-1968 1936 0
-1969 1970 1965 1966 1967 1968 0
1969 -1970 0
1969 -1965 0
1969 -1966 0
1969 -1967 0
1969 -1968 0
1971 -1371 -1371 0
-1971 1371 0
-1971 1371 0
-1972 1351 1971 0
1972 -1351 0
1972 -1971 0
1973 -1371 -1379 0
-1973 1371 0
-1973 1379 0
-919 1355 1973 0
919 -1355 0
919 -1973 0
1974 -1371 -1374 0
-1974 1371 0
-1974 1374 0
-917 1362 1974 0
917 -1362 0
917 -1974 0
1975 -1369 -1374 0
-1975 1369 0
-1975 1374 0
-920 1364 1975 0
920 -1364 0
920 -1975 0
1976 -1379 -1369 0
-1976 1379 0
-1976 1369 0
-918 1358 1976 0
918 -1358 0
918 -1976 0
1977 -1379 -1379 0
-1977 1379 0
-1977 1379 0
-1978 1385 1977 0
1978 -1385 0
1978 -1977 0
1979 -1980 -1981 0
-1979 1980 0
-1979 1981 0
1982 -1981 -1981 0
-1982 1981 0
-1982 1981 0
1983 -1981 -1980 0
-1983 1981 0
-1983 1980 0
1984 -1980 -1980 -1985 0
-1984 1980 0
-1984 1980 0
-1984 1985 0
-1986 1987 1979 1982 1983 1984 0
1986 -1987 0
1986 -1979 0
1986 -1982 0
1986 -1983 0
1986 -1984 0
1988 -1980 -1989 0
-1988 1980 0
-1988 1989 0
1990 -1981 -1989 0
-1990 1981 0
-1990 1989 0
1991 -1981 -1992 0
-1991 1981 0
-1991 1992 0
1993 -1980 -1992 -1985 0
-1993 1980 0
-1993 1992 0
-1993 1985 0
-669 1994 1988 1990 1991 1993 0
669 -1994 0
669 -1988 0
669 -1990 0
669 -1991 0
669 -1993 0
1995 -1980 -1996 0
-1995 1980 0
-1995 1996 0
1997 -1981 -1998 0
-1997 1981 0
-1997 1998 0
1999 -1981 -1996 0
-1999 1981 0
-1999 1996 0
2000 -1980 -1998 -1985 0
-2000 1980 0
-2000 1998 0
-2000 1985 0
-667 2001 1995 1997 1999 2000 0
667 -2001 0
667 -1995 0
667 -1997 0
667 -1999 0
667 -2000 0
2002 -2003 -1996 0
-2002 2003 0
-2002 1996 0
2004 -2005 -1996 0
-2004 2005 0
-2004 1996 0
2006 -2005 -1998 0
-2006 2005 0
-2006 1998 0
2007 -2003 -1998 -1985 0
-2007 2003 0
-2007 1998 0
-2007 1985 0
-670 2008 2002 2004 2006 2007 0
670 -2008 0
670 -2002 0
670 -2004 0
670 -2006 0
670 -2007 0
2009 -1992 -2005 0
-2009 1992 0
-2009 2005 0
2010 -1989 -2003 0
-2010 1989 0
-2010 2003 0
2011 -1989 -2005 0
-2011 1989 0
-2011 2005 0
2012 -1992 -2003 -1985 0
-2012 1992 0
-2012 2003 0
-2012 1985 0
-668 2013 2009 2010 2011 2012 0
668 -2013 0
668 -2009 0
668 -2010 0
668 -2011 0
668 -2012 0
2014 -1992 -1989 0
-2014 1992 0
-2014 1989 0
2015 -1989 -1989 0
-2015 1989 0
-2015 1989 0
2016 -1989 -1992 0
-2016 1989 0
-2016 1992 0
2017 -1992 -1992 -1985 0
-2017 1992 0
-2017 1992 0
-2017 1985 0
-2018 2019 2014 2015 2016 2017 0
2018 -2019 0
2018 -2014 0
2018 -2015 0
2018 -2016 0
2018 -2017 0
2020 -2021 -2021 0
-2020 2021 0
-2020 2021 0
-2022 2023 2020 0
2022 -2023 0
2022 -2020 0
2024 -2021 -2025 0
-2024 2021 0
-2024 2025 0
-754 2026 2024 0
754 -2026 0
754 -2024 0
2027 -2021 -2028 0
-2027 2021 0
-2027 2028 0
-752 2029 2027 0
752 -2029 0
752 -2027 0
2030 -2031 -2028 0
-2030 2031 0
-2030 2028 0
-755 2032 2030 0
755 -2032 0
755 -2030 0
2033 -2025 -2031 0
-2033 2025 0
-2033 2031 0
-753 2034 2033 0
753 -2034 0
753 -2033 0
2035 -2025 -2025 0
-2035 2025 0
-2035 2025 0
-2036 2037 2035 0
2036 -2037 0
2036 -2035 0
2038 -2039 -2040 0
-2038 2039 0
-2038 2040 0
2041 -2040 -2040 0
-2041 2040 0
-2041 2040 0
2042 -2040 -2039 0
-2042 2040 0
-2042 2039 0
2043 -2039 -2039 -2044 0
-2043 2039 0
-2043 2039 0
-2043 2044 0
-2045 2046 2038 2041 2042 2043 0
2045 -2046 0
2045 -2038 0
2045 -2041 0
2045 -2042 0
2045 -2043 0
2047 -2039 -2048 0
-2047 2039 0
-2047 2048 0
2049 -2040 -2048 0
-2049 2040 0
-2049 2048 0
2050 -2040 -2051 0
-2050 2040 0
-2050 2051 0
2052 -2039 -2051 -2044 0
-2052 2039 0
-2052 2051 0
-2052 2044 0
-549 2053 2047 2049 2050 2052 0
549 -2053 0
549 -2047 0
549 -2049 0
549 -2050 0
549 -2052 0
2054 -2039 -2055 0
-2054 2039 0
-2054 2055 0
2056 -2040 -2057 0
-2056 2040 0
-2056 2057 0
2058 -2040 -2055 0
-2058 2040 0
-2058 2055 0
2059 -2039 -2057 -2044 0
-2059 2039 0
-2059 2057 0
-2059 2044 0
-547 2060 2054 2056 2058 2059 0
547 -2060 0
547 -2054 0
547 -2056 0
547 -2058 0
547 -2059 0
2061 -2062 -2055 0
-2061 2062 0
-2061 2055 0
2063 -2064 -2055 0
-2063 2064 0
-2063 2055 0
2065 -2064 -2057 0
-2065 2064 0
-2065 2057 0
2066 -2062 -2057 -2044 0
-2066 2062 0
-2066 2057 0
-2066 2044 0
-550 2067 2061 2063 2065 2066 0
550 -2067 0
550 -2061 0
550 -2063 0
550 -2065 0
550 -2066 0
2068 -2051 -2064 0
-2068 2051 0
-2068 2064 0
2069 -2048 -2062 0
-2069 2048 0
-2069 2062 0
2070 -2048 -2064 0
-2070 2048 0
-2070 2064 0
2071 -2051 -2062 -2044 0
-2071 2051 0
-2071 2062 0
-2071 2044 0
-548 2072 2068 2069 2070 2071 0
548 -2072 0
548 -2068 0
548 -2069 0
548 -2070 0
548 -2071 0
2073 -2051 -2048 0
-2073 2051 0
-2073 2048 0
2074 -2048 -2048 0
-2074 2048 0
-2074 2048 0
2075 -2048 -2051 0
-2075 2048 0
-2075 2051 0
2076 -2051 -2051 -2044 0
-2076 2051 0
-2076 2051 0
-2076 2044 0
-2077 2078 2073 2074 2075 2076 0
2077 -2078 0
2077 -2073 0
2077 -2074 0
2077 -2075 0
2077 -2076 0
2079 -2080 -2081 0
-2079 2080 0
-2079 2081 0
2082 -2081 -2081 0
-2082 2081 0
-2082 2081 0
2083 -2081 -2080 0
-2083 2081 0
-2083 2080 0
2084 -2080 -2080 -2085 0
-2084 2080 0
-2084 2080 0
-2084 2085 0
-2086 2087 2079 2082 2083 2084 0
2086 -2087 0
2086 -2079 0
2086 -2082 0
2086 -2083 0
2086 -2084 0
2088 -2080 -2089 0
-2088 2080 0
-2088 2089 0
2090 -2081 -2089 0
-2090 2081 0
-2090 2089 0
2091 -2081 -2092 0
-2091 2081 0
-2091 2092 0
2093 -2080 -2092 -2085 0
-2093 2080 0
-2093 2092 0
-2093 2085 0
-84 2094 2088 2090 2091 2093 0
84 -2094 0
84 -2088 0
84 -2090 0
84 -2091 0
84 -2093 0
2095 -2080 -2096 0
-2095 2080 0
-2095 2096 0
2097 -2081 -2098 0
-2097 2081 0
-2097 2098 0
2099 -2081 -2096 0
-2099 2081 0
-2099 2096 0
2100 -2080 -2098 -2085 0
-2100 2080 0
-2100 2098 0
-2100 2085 0
-82 2101 2095 2097 2099 2100 0
82 -2101 0
82 -2095 0
82 -2097 0
82 -2099 0
82 -2100 0
2102 -2103 -2096 0
-2102 2103 0
-2102 2096 0
2104 -2105 -2096 0
-2104 2105 0
-2104 2096 0
2106 -2105 -2098 0
-2106 2105 0
-2106 2098 0
2107 -2103 -2098 -2085 0
-2107 2103 0
-2107 2098 0
-2107 2085 0
-85 2108 2102 2104 2106 2107 0
85 -2108 0
85 -2102 0
85 -2104 0
85 -2106 0
85 -2107 0
2109 -2092 -2105 0
-2109 2092 0
-2109 2105 0
2110 -2089 -2103 0
-2110 2089 0
-2110 2103 0
2111 -2089 -2105 0
-2111 2089 0
-2111 2105 0
2112 -2092 -2103 -2085 0
-2112 2092 0
-2112 2103 0
-2112 2085 0
-83 2113 2109 2110 2111 2112 0
83 -2113 0
83 -2109 0
83 -2110 0
83 -2111 0
83 -2112 0
2114 -2092 -2089 0
-2114 2092 0
-2114 2089 0
2115 -2089 -2089 0
-2115 2089 0
-2115 2089 0
2116 -2089 -2092 0
-2116 2089 0
-2116 2092 0
2117 -2092 -2092 -2085 0
-2117 2092 0
-2117 2092 0
-2117 2085 0
-2118 2119 2114 2115 2116 2117 0
2118 -2119 0
2118 -2114 0
2118 -2115 0
2118 -2116 0
2118 -2117 0
2120 -2121 -2122 0
-2120 2121 0
-2120 2122 0
2123 -2122 -2122 0
-2123 2122 0
-2123 2122 0
2124 -2122 -2121 0
-2124 2122 0
-2124 2121 0
2125 -2121 -2121 -2126 0
-2125 2121 0
-2125 2121 0
-2125 2126 0
-2127 2128 2120 2123 2124 2125 0
2127 -2128 0
2127 -2120 0
2127 -2123 0
2127 -2124 0
2127 -2125 0
2129 -2121 -2130 0
-2129 2121 0
-2129 2130 0
2131 -2122 -2130 0
-2131 2122 0
-2131 2130 0
2132 -2122 -2133 0
-2132 2122 0
-2132 2133 0
2134 -2121 -2133 -2126 0
-2134 2121 0
-2134 2133 0
-2134 2126 0
-864 2135 2129 2131 2132 2134 0
864 -2135 0
864 -2129 0
864 -2131 0
864 -2132 0
864 -2134 0
2136 -2121 -2137 0
-2136 2121 0
-2136 2137 0
2138 -2122 -2139 0
-2138 2122 0
-2138 2139 0
2140 -2122 -2137 0
-2140 2122 0
-2140 2137 0
2141 -2121 -2139 -2126 0
-2141 2121 0
-2141 2139 0
-2141 2126 0
-862 2142 2136 2138 2140 2141 0
862 -2142 0
862 -2136 0
862 -2138 0
862 -2140 0
862 -2141 0
2143 -2144 -2137 0
-2143 2144 0
-2143 2137 0
2145 -2146 -2137 0
-2145 2146 0
-2145 2137 0
2147 -2146 -2139 0
-2147 2146 0
-2147 2139 0
2148 -2144 -2139 -2126 0
-2148 2144 0
-2148 2139 0
-2148 2126 0
-865 2149 2143 2145 2147 2148 0
865 -2149 0
865 -2143 0
865 -2145 0
865 -2147 0
865 -2148 0
2150 -2133 -2146 0
-2150 2133 0
-2150 2146 0
2151 -2130 -2144 0
-2151 2130 0
-2151 2144 0
2152 -2130 -2146 0
-2152 2130 0
-2152 2146 0
2153 -2133 -2144 -2126 0
-2153 2133 0
-2153 2144 0
-2153 2126 0
-863 2154 2150 2151 2152 2153 0
863 -2154 0
863 -2150 0
863 -2151 0
863 -2152 0
863 -2153 0
2155 -2133 -2130 0
-2155 2133 0
-2155 2130 0
2156 -2130 -2130 0
-2156 2130 0
-2156 2130 0
2157 -2130 -2133 0
-2157 2130 0
-2157 2133 0
2158 -2133 -2133 -2126 0
-2158 2133 0
-2158 2133 0
-2158 2126 0
-2159 2160 2155 2156 2157 2158 0
2159 -2160 0
2159 -2155 0
2159 -2156 0
2159 -2157 0
2159 -2158 0
2161 -1656 -1656 0
-2161 1656 0
-2161 1656 0
-2162 1636 2161 0
2162 -1636 0
2162 -2161 0
2163 -1656 -1664 0
-2163 1656 0
-2163 1664 0
-979 1640 2163 0
979 -1640 0
979 -2163 0
2164 -1656 -1659 0
-2164 1656 0
-2164 1659 0
-977 1647 2164 0
977 -1647 0
977 -2164 0
2165 -1654 -1659 0
-2165 1654 0
-2165 1659 0
-980 1649 2165 0
980 -1649 0
980 -2165 0
2166 -1664 -1654 0
-2166 1664 0
-2166 1654 0
-978 1643 2166 0
978 -1643 0
978 -2166 0
2167 -1664 -1664 0
-2167 1664 0
-2167 1664 0
-2168 1670 2167 0
2168 -1670 0
2168 -2167 0
2169 -2170 -2170 0
-2169 2170 0
-2169 2170 0
-2171 2172 2169 0
2171 -2172 0
2171 -2169 0
2173 -2170 -2174 0
-2173 2170 0
-2173 2174 0
-484 2175 2173 0
484 -2175 0
484 -2173 0
2176 -2170 -2177 0
-2176 2170 0
-2176 2177 0
-482 2178 2176 0
482 -2178 0
482 -2176 0
2179 -2180 -2177 0
-2179 2180 0
-2179 2177 0
-485 2181 2179 0
485 -2181 0
485 -2179 0
2182 -2174 -2180 0
-2182 2174 0
-2182 2180 0
-483 2183 2182 0
483 -2183 0
483 -2182 0
2184 -2174 -2174 0
-2184 2174 0
-2184 2174 0
-2185 2186 2184 0
2185 -2186 0
2185 -2184 0
2187 -1248 -1248 0
-2187 1248 0
-2187 1248 0
-2188 1228 2187 0
2188 -1228 0
2188 -2187 0
2189 -1248 -1256 0
-2189 1248 0
-2189 1256 0
-1144 1232 2189 0
1144 -1232 0
1144 -2189 0
2190 -1248 -1251 0
-2190 1248 0
-2190 1251 0
-1142 1239 2190 0
1142 -1239 0
1142 -2190 0
2191 -1246 -1251 0
-2191 1246 0
-2191 1251 0
-1145 1241 2191 0
1145 -1241 0
1145 -2191 0
2192 -1256 -1246 0
-2192 1256 0
-2192 1246 0
-1143 1235 2192 0
1143 -1235 0
1143 -2192 0
2193 -1256 -1256 0
-2193 1256 0
-2193 1256 0
-2194 1262 2193 0
2194 -1262 0
2194 -2193 0
2195 -2080 -2080 0
-2195 2080 0
-2195 2080 0
-2196 2087 2195 0
2196 -2087 0
2196 -2195 0
2197 -2080 -2092 0
-2197 2080 0
-2197 2092 0
-379 2094 2197 0
379 -2094 0
379 -2197 0
2198 -2080 -2098 0
-2198 2080 0
-2198 2098 0
-377 2101 2198 0
377 -2101 0
377 -2198 0
2199 -2103 -2098 0
-2199 2103 0
-2199 2098 0
-380 2108 2199 0
380 -2108 0
380 -2199 0
2200 -2092 -2103 0
-2200 2092 0
-2200 2103 0
-378 2113 2200 0
378 -2113 0
378 -2200 0
2201 -2092 -2092 0
-2201 2092 0
-2201 2092 0
-2202 2119 2201 0
2202 -2119 0
2202 -2201 0
2203 -2146 -2146 0
-2203 2146 0
-2203 2146 0
-2204 2126 2203 0
2204 -2126 0
2204 -2203 0
2205 -2146 -2154 0
-2205 2146 0
-2205 2154 0
-1154 2130 2205 0
1154 -2130 0
1154 -2205 0
2206 -2146 -2149 0
-2206 2146 0
-2206 2149 0
-1152 2137 2206 0
1152 -2137 0
1152 -2206 0
2207 -2144 -2149 0
-2207 2144 0
-2207 2149 0
-1155 2139 2207 0
1155 -2139 0
1155 -2207 0
2208 -2154 -2144 0
-2208 2154 0
-2208 2144 0
-1153 2133 2208 0
1153 -2133 0
1153 -2208 0
2209 -2154 -2154 0
-2209 2154 0
-2209 2154 0
-2210 2160 2209 0
2210 -2160 0
2210 -2209 0
2211 -2212 -2213 0
-2211 2212 0
-2211 2213 0
2214 -2213 -2213 0
-2214 2213 0
-2214 2213 0
2215 -2213 -2212 0
-2215 2213 0
-2215 2212 0
2216 -2212 -2212 -2217 0
-2216 2212 0
-2216 2212 0
-2216 2217 0
-2218 2219 2211 2214 2215 2216 0
2218 -2219 0
2218 -2211 0
2218 -2214 0
2218 -2215 0
2218 -2216 0
2220 -2212 -2221 0
-2220 2212 0
-2220 2221 0
2222 -2213 -2221 0
-2222 2213 0
-2222 2221 0
2223 -2213 -2224 0
-2223 2213 0
-2223 2224 0
2225 -2212 -2224 -2217 0
-2225 2212 0
-2225 2224 0
-2225 2217 0
-659 2226 2220 2222 2223 2225 0
659 -2226 0
659 -2220 0
659 -2222 0
659 -2223 0
659 -2225 0
2227 -2212 -2228 0
-2227 2212 0
-2227 2228 0
2229 -2213 -2230 0
-2229 2213 0
-2229 2230 0
2231 -2213 -2228 0
-2231 2213 0
-2231 2228 0
2232 -2212 -2230 -2217 0
-2232 2212 0
-2232 2230 0
-2232 2217 0
-657 2233 2227 2229 2231 2232 0
657 -2233 0
657 -2227 0
657 -2229 0
657 -2231 0
657 -2232 0
2234 -2235 -2228 0
-2234 2235 0
-2234 2228 0
2236 -2237 -2228 0
-2236 2237 0
-2236 2228 0
2238 -2237 -2230 0
-2238 2237 0
-2238 2230 0
2239 -2235 -2230 -2217 0
-2239 2235 0
-2239 2230 0
-2239 2217 0
-660 2240 2234 2236 2238 2239 0
660 -2240 0
660 -2234 0
660 -2236 0
660 -2238 0
660 -2239 0
2241 -2224 -2237 0
-2241 2224 0
-2241 2237 0
2242 -2221 -2235 0
-2242 2221 0
-2242 2235 0
2243 -2221 -2237 0
-2243 2221 0
-2243 2237 0
2244 -2224 -2235 -2217 0
-2244 2224 0
-2244 2235 0
-2244 2217 0
-658 2245 2241 2242 2243 2244 0
658 -2245 0
658 -2241 0
658 -2242 0
658 -2243 0
658 -2244 0
2246 -2224 -2221 0
-2246 2224 0
-2246 2221 0
2247 -2221 -2221 0
-2247 2221 0
-2247 2221 0
2248 -2221 -2224 0
-2248 2221 0
-2248 2224 0
2249 -2224 -2224 -2217 0
-2249 2224 0
-2249 2224 0
-2249 2217 0
-2250 2251 2246 2247 2248 2249 0
2250 -2251 0
2250 -2246 0
2250 -2247 0
2250 -2248 0
2250 -2249 0
2252 -2253 -2254 0
-2252 2253 0
-2252 2254 0
2255 -2254 -2254 0
-2255 2254 0
-2255 2254 0
2256 -2254 -2253 0
-2256 2254 0
-2256 2253 0
2257 -2253 -2253 -2258 0
-2257 2253 0
-2257 2253 0
-2257 2258 0
-2259 2260 2252 2255 2256 2257 0
2259 -2260 0
2259 -2252 0
2259 -2255 0
2259 -2256 0
2259 -2257 0
2261 -2253 -2262 0
-2261 2253 0
-2261 2262 0
2263 -2254 -2262 0
-2263 2254 0
-2263 2262 0
2264 -2254 -2265 0
-2264 2254 0
-2264 2265 0
2266 -2253 -2265 -2258 0
-2266 2253 0
-2266 2265 0
-2266 2258 0
-579 2267 2261 2263 2264 2266 0
579 -2267 0
579 -2261 0
579 -2263 0
579 -2264 0
579 -2266 0
2268 -2253 -2269 0
-2268 2253 0
-2268 2269 0
2270 -2254 -2271 0
-2270 2254 0
-2270 2271 0
2272 -2254 -2269 0
-2272 2254 0
-2272 2269 0
2273 -2253 -2271 -2258 0
-2273 2253 0
-2273 2271 0
-2273 2258 0
-577 2274 2268 2270 2272 2273 0
577 -2274 0
577 -2268 0
577 -2270 0
577 -2272 0
577 -2273 0
2275 -2276 -2269 0
-2275 2276 0
-2275 2269 0
2277 -2278 -2269 0
-2277 2278 0
-2277 2269 0
2279 -2278 -2271 0
-2279 2278 0
-2279 2271 0
2280 -2276 -2271 -2258 0
-2280 2276 0
-2280 2271 0
-2280 2258 0
-580 2281 2275 2277 2279 2280 0
580 -2281 0
580 -2275 0
580 -2277 0
580 -2279 0
580 -2280 0
2282 -2265 -2278 0
-2282 2265 0
-2282 2278 0
2283 -2262 -2276 0
-2283 2262 0
-2283 2276 0
2284 -2262 -2278 0
-2284 2262 0
-2284 2278 0
2285 -2265 -2276 -2258 0
-2285 2265 0
-2285 2276 0
-2285 2258 0
-578 2286 2282 2283 2284 2285 0
578 -2286 0
578 -2282 0
578 -2283 0
578 -2284 0
578 -2285 0
2287 -2265 -2262 0
-2287 2265 0
-2287 2262 0
2288 -2262 -2262 0
-2288 2262 0
-2288 2262 0
2289 -2262 -2265 0
-2289 2262 0
-2289 2265 0
2290 -2265 -2265 -2258 0
-2290 2265 0
-2290 2265 0
-2290 2258 0
-2291 2292 2287 2288 2289 2290 0
2291 -2292 0
2291 -2287 0
2291 -2288 0
2291 -2289 0
2291 -2290 0
2293 -2294 -2295 0
-2293 2294 0
-2293 2295 0
2296 -2295 -2295 0
-2296 2295 0
-2296 2295 0
2297 -2295 -2294 0
-2297 2295 0
-2297 2294 0
2298 -2294 -2294 -2299 0
-2298 2294 0
-2298 2294 0
-2298 2299 0
-2300 2301 2293 2296 2297 2298 0
2300 -2301 0
2300 -2293 0
2300 -2296 0
2300 -2297 0
2300 -2298 0
2302 -2294 -2303 0
-2302 2294 0
-2302 2303 0
2304 -2295 -2303 0
-2304 2295 0
-2304 2303 0
2305 -2295 -2306 0
-2305 2295 0
-2305 2306 0
2307 -2294 -2306 -2299 0
-2307 2294 0
-2307 2306 0
-2307 2299 0
-554 2308 2302 2304 2305 2307 0
554 -2308 0
554 -2302 0
554 -2304 0
554 -2305 0
554 -2307 0
2309 -2294 -2310 0
-2309 2294 0
-2309 2310 0
2311 -2295 -2312 0
-2311 2295 0
-2311 2312 0
2313 -2295 -2310 0
-2313 2295 0
-2313 2310 0
2314 -2294 -2312 -2299 0
-2314 2294 0
-2314 2312 0
-2314 2299 0
-552 2315 2309 2311 2313 2314 0
552 -2315 0
552 -2309 0
552 -2311 0
552 -2313 0
552 -2314 0
2316 -2317 -2310 0
-2316 2317 0
-2316 2310 0
2318 -2319 -2310 0
-2318 2319 0
-2318 2310 0
2320 -2319 -2312 0
-2320 2319 0
-2320 2312 0
2321 -2317 -2312 -2299 0
-2321 2317 0
-2321 2312 0
-2321 2299 0
-555 2322 2316 2318 2320 2321 0
555 -2322 0
555 -2316 0
555 -2318 0
555 -2320 0
555 -2321 0
2323 -2306 -2319 0
-2323 2306 0
-2323 2319 0
2324 -2303 -2317 0
-2324 2303 0
-2324 2317 0
2325 -2303 -2319 0
-2325 2303 0
-2325 2319 0
2326 -2306 -2317 -2299 0
-2326 2306 0
-2326 2317 0
-2326 2299 0
-553 2327 2323 2324 2325 2326 0
553 -2327 0
553 -2323 0
553 -2324 0
553 -2325 0
553 -2326 0
2328 -2306 -2303 0
-2328 2306 0
-2328 2303 0
2329 -2303 -2303 0
-2329 2303 0
-2329 2303 0
2330 -2303 -2306 0
-2330 2303 0
-2330 2306 0
2331 -2306 -2306 -2299 0
-2331 2306 0
-2331 2306 0
-2331 2299 0
-2332 2333 2328 2329 2330 2331 0
2332 -2333 0
2332 -2328 0
2332 -2329 0
2332 -2330 0
2332 -2331 0
2334 -2335 -2336 0
-2334 2335 0
-2334 2336 0
2337 -2336 -2336 0
-2337 2336 0
-2337 2336 0
2338 -2336 -2335 0
-2338 2336 0
-2338 2335 0
2339 -2335 -2335 -2340 0
-2339 2335 0
-2339 2335 0
-2339 2340 0
-2341 2342 2334 2337 2338 2339 0
2341 -2342 0
2341 -2334 0
2341 -2337 0
2341 -2338 0
2341 -2339 0
2343 -2335 -2344 0
-2343 2335 0
-2343 2344 0
2345 -2336 -2344 0
-2345 2336 0
-2345 2344 0
2346 -2336 -2347 0
-2346 2336 0
-2346 2347 0
2348 -2335 -2347 -2340 0
-2348 2335 0
-2348 2347 0
-2348 2340 0
-4 2349 2343 2345 2346 2348 0
4 -2349 0
4 -2343 0
4 -2345 0
4 -2346 0
4 -2348 0
2350 -2335 -2351 0
-2350 2335 0
-2350 2351 0
2352 -2336 -2353 0
-2352 2336 0
-2352 2353 0
2354 -2336 -2351 0
-2354 2336 0
-2354 2351 0
2355 -2335 -2353 -2340 0
-2355 2335 0
-2355 2353 0
-2355 2340 0
-2 2356 2350 2352 2354 2355 0
2 -2356 0
2 -2350 0
2 -2352 0
2 -2354 0
2 -2355 0
2357 -2358 -2351 0
-2357 2358 0
-2357 2351 0
2359 -2360 -2351 0
-2359 2360 0
-2359 2351 0
2361 -2360 -2353 0
-2361 2360 0
-2361 2353 0
2362 -2358 -2353 -2340 0
-2362 2358 0
-2362 2353 0
-2362 2340 0
-5 2363 2357 2359 2361 2362 0
5 -2363 0
5 -2357 0
5 -2359 0
5 -2361 0
5 -2362 0
2364 -2347 -2360 0
-2364 2347 0
-2364 2360 0
2365 -2344 -2358 0
-2365 2344 0
-2365 2358 0
2366 -2344 -2360 0
-2366 2344 0
-2366 2360 0
2367 -2347 -2358 -2340 0
-2367 2347 0
-2367 2358 0
-2367 2340 0
-3 2368 2364 2365 2366 2367 0
3 -2368 0
3 -2364 0
3 -2365 0
3 -2366 0
3 -2367 0
2369 -2347 -2344 0
-2369 2347 0
-2369 2344 0
2370 -2344 -2344 0
-2370 2344 0
-2370 2344 0
2371 -2344 -2347 0
-2371 2344 0
-2371 2347 0
2372 -2347 -2347 -2340 0
-2372 2347 0
-2372 2347 0
-2372 2340 0
-2373 2374 2369 2370 2371 2372 0
2373 -2374 0
2373 -2369 0
2373 -2370 0
2373 -2371 0
2373 -2372 0
2375 -2376 -2377 0
-2375 2376 0
-2375 2377 0
2378 -2377 -2377 0
-2378 2377 0
-2378 2377 0
2379 -2377 -2376 0
-2379 2377 0
-2379 2376 0
2380 -2376 -2376 -2381 0
-2380 2376 0
-2380 2376 0
-2380 2381 0
-2382 2383 2375 2378 2379 2380 0
2382 -2383 0
2382 -2375 0
2382 -2378 0
2382 -2379 0
2382 -2380 0
2384 -2376 -2385 0
-2384 2376 0
-2384 2385 0
2386 -2377 -2385 0
-2386 2377 0
-2386 2385 0
2387 -2377 -2388 0
-2387 2377 0
-2387 2388 0
2389 -2376 -2388 -2381 0
-2389 2376 0
-2389 2388 0
-2389 2381 0
-519 2390 2384 2386 2387 2389 0
519 -2390 0
519 -2384 0
519 -2386 0
519 -2387 0
519 -2389 0
2391 -2376 -2392 0
-2391 2376 0
-2391 2392 0
2393 -2377 -2394 0
-2393 2377 0
-2393 2394 0
2395 -2377 -2392 0
-2395 2377 0
-2395 2392 0
2396 -2376 -2394 -2381 0
-2396 2376 0
-2396 2394 0
-2396 2381 0
-517 2397 2391 2393 2395 2396 0
517 -2397 0
517 -2391 0
517 -2393 0
517 -2395 0
517 -2396 0
2398 -2399 -2392 0
-2398 2399 0
-2398 2392 0
2400 -2401 -2392 0
-2400 2401 0
-2400 2392 0
2402 -2401 -2394 0
-2402 2401 0
-2402 2394 0
2403 -2399 -2394 -2381 0
-2403 2399 0
-2403 2394 0
-2403 2381 0
-520 2404 2398 2400 2402 2403 0
520 -2404 0
520 -2398 0
520 -2400 0
520 -2402 0
520 -2403 0
2405 -2388 -2401 0
-2405 2388 0
-2405 2401 0
2406 -2385 -2399 0
-2406 2385 0
-2406 2399 0
2407 -2385 -2401 0
-2407 2385 0
-2407 2401 0
2408 -2388 -2399 -2381 0
-2408 2388 0
-2408 2399 0
-2408 2381 0
-518 2409 2405 2406 2407 2408 0
518 -2409 0
518 -2405 0
518 -2406 0
518 -2407 0
518 -2408 0
2410 -2388 -2385 0
-2410 2388 0
-2410 2385 0
2411 -2385 -2385 0
-2411 2385 0
-2411 2385 0
2412 -2385 -2388 0
-2412 2385 0
-2412 2388 0
2413 -2388 -2388 -2381 0
-2413 2388 0
-2413 2388 0
-2413 2381 0
-2414 2415 2410 2411 2412 2413 0
2414 -2415 0
2414 -2410 0
2414 -2411 0
2414 -2412 0
2414 -2413 0
2416 -2417 -2417 0
-2416 2417 0
-2416 2417 0
-2418 2419 2416 0
2418 -2419 0
2418 -2416 0
2420 -2417 -2421 0
-2420 2417 0
-2420 2421 0
-894 2422 2420 0
894 -2422 0
894 -2420 0
2423 -2417 -2424 0
-2423 2417 0
-2423 2424 0
-892 2425 2423 0
892 -2425 0
892 -2423 0
2426 -2427 -2424 0
-2426 2427 0
-2426 2424 0
-895 2428 2426 0
895 -2428 0
895 -2426 0
2429 -2421 -2427 0
-2429 2421 0
-2429 2427 0
-893 2430 2429 0
893 -2430 0
893 -2429 0
2431 -2421 -2421 0
-2431 2421 0
-2431 2421 0
-2432 2433 2431 0
2432 -2433 0
2432 -2431 0
2434 -2401 -2401 0
-2434 2401 0
-2434 2401 0
-2435 2381 2434 0
2435 -2381 0
2435 -2434 0
2436 -2401 -2409 0
-2436 2401 0
-2436 2409 0
-994 2385 2436 0
994 -2385 0
994 -2436 0
2437 -2401 -2404 0
-2437 2401 0
-2437 2404 0
-992 2392 2437 0
992 -2392 0
992 -2437 0
2438 -2399 -2404 0
-2438 2399 0
-2438 2404 0
-995 2394 2438 0
995 -2394 0
995 -2438 0
2439 -2409 -2399 0
-2439 2409 0
-2439 2399 0
-993 2388 2439 0
993 -2388 0
993 -2439 0
2440 -2409 -2409 0
-2440 2409 0
-2440 2409 0
-2441 2415 2440 0
2441 -2415 0
2441 -2440 0
2442 -2443 -2443 0
-2442 2443 0
-2442 2443 0
-2444 2445 2442 0
2444 -2445 0
2444 -2442 0
2446 -2443 -2447 0
-2446 2443 0
-2446 2447 0
-279 2448 2446 0
279 -2448 0
279 -2446 0
2449 -2443 -2450 0
-2449 2443 0
-2449 2450 0
-277 2451 2449 0
277 -2451 0
277 -2449 0
2452 -2453 -2450 0
-2452 2453 0
-2452 2450 0
-280 2454 2452 0
280 -2454 0
280 -2452 0
2455 -2447 -2453 0
-2455 2447 0
-2455 2453 0
-278 2456 2455 0
278 -2456 0
278 -2455 0
2457 -2447 -2447 0
-2457 2447 0
-2457 2447 0
-2458 2459 2457 0
2458 -2459 0
2458 -2457 0
2460 -2461 -2461 0
-2460 2461 0
-2460 2461 0
-2462 2463 2460 0
2462 -2463 0
2462 -2460 0
2464 -2461 -2465 0
-2464 2461 0
-2464 2465 0
-709 2466 2464 0
709 -2466 0
709 -2464 0
2467 -2461 -2468 0
-2467 2461 0
-2467 2468 0
-707 2469 2467 0
707 -2469 0
707 -2467 0
2470 -2471 -2468 0
-2470 2471 0
-2470 2468 0
-710 2472 2470 0
710 -2472 0
710 -2470 0
2473 -2465 -2471 0
-2473 2465 0
-2473 2471 0
-708 2474 2473 0
708 -2474 0
708 -2473 0
2475 -2465 -2465 0
-2475 2465 0
-2475 2465 0
-2476 2477 2475 0
2476 -2477 0
2476 -2475 0
2478 -2479 -2480 0
-2478 2479 0
-2478 2480 0
2481 -2480 -2480 0
-2481 2480 0
-2481 2480 0
2482 -2480 -2479 0
-2482 2480 0
-2482 2479 0
2483 -2479 -2479 -2484 0
-2483 2479 0
-2483 2479 0
-2483 2484 0
-2485 2486 2478 2481 2482 2483 0
2485 -2486 0
2485 -2478 0
2485 -2481 0
2485 -2482 0
2485 -2483 0
2487 -2479 -2488 0
-2487 2479 0
-2487 2488 0
2489 -2480 -2488 0
-2489 2480 0
-2489 2488 0
2490 -2480 -2491 0
-2490 2480 0
-2490 2491 0
2492 -2479 -2491 -2484 0
-2492 2479 0
-2492 2491 0
-2492 2484 0
-374 2493 2487 2489 2490 2492 0
374 -2493 0
374 -2487 0
374 -2489 0
374 -2490 0
374 -2492 0
2494 -2479 -2495 0
-2494 2479 0
-2494 2495 0
2496 -2480 -2497 0
-2496 2480 0
-2496 2497 0
2498 -2480 -2495 0
-2498 2480 0
-2498 2495 0
2499 -2479 -2497 -2484 0
-2499 2479 0
-2499 2497 0
-2499 2484 0
-372 2500 2494 2496 2498 2499 0
372 -2500 0
372 -2494 0
372 -2496 0
372 -2498 0
372 -2499 0
2501 -2502 -2495 0
-2501 2502 0
-2501 2495 0
2503 -2504 -2495 0
-2503 2504 0
-2503 2495 0
2505 -2504 -2497 0
-2505 2504 0
-2505 2497 0
2506 -2502 -2497 -2484 0
-2506 2502 0
-2506 2497 0
-2506 2484 0
-375 2507 2501 2503 2505 2506 0
375 -2507 0
375 -2501 0
375 -2503 0
375 -2505 0
375 -2506 0
2508 -2491 -2504 0
-2508 2491 0
-2508 2504 0
2509 -2488 -2502 0
-2509 2488 0
-2509 2502 0
2510 -2488 -2504 0
-2510 2488 0
-2510 2504 0
2511 -2491 -2502 -2484 0
-2511 2491 0
-2511 2502 0
-2511 2484 0
-373 2512 2508 2509 2510 2511 0
373 -2512 0
373 -2508 0
373 -2509 0
373 -2510 0
373 -2511 0
2513 -2491 -2488 0
-2513 2491 0
-2513 2488 0
2514 -2488 -2488 0
-2514 2488 0
-2514 2488 0
2515 -2488 -2491 0
-2515 2488 0
-2515 2491 0
2516 -2491 -2491 -2484 0
-2516 2491 0
-2516 2491 0
-2516 2484 0
-2517 2518 2513 2514 2515 2516 0
2517 -2518 0
2517 -2513 0
2517 -2514 0
2517 -2515 0
2517 -2516 0
2519 -2520 -2520 0
-2519 2520 0
-2519 2520 0
-2521 2522 2519 0
2521 -2522 0
2521 -2519 0
2523 -2520 -1826 0
-2523 2520 0
-2523 1826 0
-869 2524 2523 0
869 -2524 0
869 -2523 0
2525 -2520 -1824 0
-2525 2520 0
-2525 1824 0
-867 2526 2525 0
867 -2526 0
867 -2525 0
2527 -1823 -1824 0
-2527 1823 0
-2527 1824 0
-870 1820 2527 0
870 -1820 0
870 -2527 0
2528 -1826 -1823 0
-2528 1826 0
-2528 1823 0
-868 1817 2528 0
868 -1817 0
868 -2528 0
2529 -1826 -1826 0
-2529 1826 0
-2529 1826 0
-2530 1829 2529 0
2530 -1829 0
2530 -2529 0
2531 -2532 -2532 0
-2531 2532 0
-2531 2532 0
-2533 2534 2531 0
2533 -2534 0
2533 -2531 0
2535 -2532 -2536 0
-2535 2532 0
-2535 2536 0
-969 2537 2535 0
969 -2537 0
969 -2535 0
2538 -2532 -2539 0
-2538 2532 0
-2538 2539 0
-967 2540 2538 0
967 -2540 0
967 -2538 0
2541 -2542 -2539 0
-2541 2542 0
-2541 2539 0
-970 2543 2541 0
970 -2543 0
970 -2541 0
2544 -2536 -2542 0
-2544 2536 0
-2544 2542 0
-968 2545 2544 0
968 -2545 0
968 -2544 0
2546 -2536 -2536 0
-2546 2536 0
-2546 2536 0
-2547 2548 2546 0
2547 -2548 0
2547 -2546 0
2549 -2550 -2551 0
-2549 2550 0
-2549 2551 0
2552 -2551 -2551 0
-2552 2551 0
-2552 2551 0
2553 -2551 -2550 0
-2553 2551 0
-2553 2550 0
2554 -2550 -2550 -2555 0
-2554 2550 0
-2554 2550 0
-2554 2555 0
-2556 2557 2549 2552 2553 2554 0
2556 -2557 0
2556 -2549 0
2556 -2552 0
2556 -2553 0
2556 -2554 0
2558 -2550 -2559 0
-2558 2550 0
-2558 2559 0
2560 -2551 -2559 0
-2560 2551 0
-2560 2559 0
2561 -2551 -2562 0
-2561 2551 0
-2561 2562 0
2563 -2550 -2562 -2555 0
-2563 2550 0
-2563 2562 0
-2563 2555 0
-129 2564 2558 2560 2561 2563 0
129 -2564 0
129 -2558 0
129 -2560 0
129 -2561 0
129 -2563 0
2565 -2550 -2566 0
-2565 2550 0
-2565 2566 0
2567 -2551 -2568 0
-2567 2551 0
-2567 2568 0
2569 -2551 -2566 0
-2569 2551 0
-2569 2566 0
2570 -2550 -2568 -2555 0
-2570 2550 0
-2570 2568 0
-2570 2555 0
-127 2571 2565 2567 2569 2570 0
127 -2571 0
127 -2565 0
127 -2567 0
127 -2569 0
127 -2570 0
2572 -2573 -2566 0
-2572 2573 0
-2572 2566 0
2574 -2575 -2566 0
-2574 2575 0
-2574 2566 0
2576 -2575 -2568 0
-2576 2575 0
-2576 2568 0
2577 -2573 -2568 -2555 0
-2577 2573 0
-2577 2568 0
-2577 2555 0
-130 2578 2572 2574 2576 2577 0
130 -2578 0
130 -2572 0
130 -2574 0
130 -2576 0
130 -2577 0
2579 -2562 -2575 0
-2579 2562 0
-2579 2575 0
2580 -2559 -2573 0
-2580 2559 0
-2580 2573 0
2581 -2559 -2575 0
-2581 2559 0
-2581 2575 0
2582 -2562 -2573 -2555 0
-2582 2562 0
-2582 2573 0
-2582 2555 0
-128 2583 2579 2580 2581 2582 0
128 -2583 0
128 -2579 0
128 -2580 0
128 -2581 0
128 -2582 0
2584 -2562 -2559 0
-2584 2562 0
-2584 2559 0
2585 -2559 -2559 0
-2585 2559 0
-2585 2559 0
2586 -2559 -2562 0
-2586 2559 0
-2586 2562 0
2587 -2562 -2562 -2555 0
-2587 2562 0
-2587 2562 0
-2587 2555 0
-2588 2589 2584 2585 2586 2587 0
2588 -2589 0
2588 -2584 0
2588 -2585 0
2588 -2586 0
2588 -2587 0
2590 -2591 -2592 0
-2590 2591 0
-2590 2592 0
2593 -2592 -2592 0
-2593 2592 0
-2593 2592 0
2594 -2592 -2591 0
-2594 2592 0
-2594 2591 0
2595 -2591 -2591 -1929 0
-2595 2591 0
-2595 2591 0
-2595 1929 0
-2596 2597 2590 2593 2594 2595 0
2596 -2597 0
2596 -2590 0
2596 -2593 0
2596 -2594 0
2596 -2595 0
2598 -2591 -1918 0
-2598 2591 0
-2598 1918 0
2599 -2592 -1918 0
-2599 2592 0
-2599 1918 0
2600 -2592 -1921 0
-2600 2592 0
-2600 1921 0
2601 -2591 -1921 -1929 0
-2601 2591 0
-2601 1921 0
-2601 1929 0
-94 2602 2598 2599 2600 2601 0
94 -2602 0
94 -2598 0
94 -2599 0
94 -2600 0
94 -2601 0
2603 -2591 -1926 0
-2603 2591 0
-2603 1926 0
2604 -2592 -1924 0
-2604 2592 0
-2604 1924 0
2605 -2592 -1926 0
-2605 2592 0
-2605 1926 0
2606 -2591 -1924 -1929 0
-2606 2591 0
-2606 1924 0
-2606 1929 0
-92 2607 2603 2604 2605 2606 0
92 -2607 0
92 -2603 0
92 -2604 0
92 -2605 0
92 -2606 0
2608 -1920 -1926 0
-2608 1920 0
-2608 1926 0
2609 -1917 -1926 0
-2609 1917 0
-2609 1926 0
2610 -1917 -1924 0
-2610 1917 0
-2610 1924 0
2611 -1920 -1924 -1929 0
-2611 1920 0
-2611 1924 0
-2611 1929 0
-95 1923 2608 2609 2610 2611 0
95 -1923 0
95 -2608 0
95 -2609 0
95 -2610 0
95 -2611 0
2612 -1921 -1917 0
-2612 1921 0
-2612 1917 0
2613 -1918 -1920 0
-2613 1918 0
-2613 1920 0
2614 -1918 -1917 0
-2614 1918 0
-2614 1917 0
2615 -1921 -1920 -1929 0
-2615 1921 0
-2615 1920 0
-2615 1929 0
-93 1913 2612 2613 2614 2615 0
93 -1913 0
93 -2612 0
93 -2613 0
93 -2614 0
93 -2615 0
2616 -1921 -1918 0
-2616 1921 0
-2616 1918 0
2617 -1918 -1918 0
-2617 1918 0
-2617 1918 0
2618 -1918 -1921 0
-2618 1918 0
-2618 1921 0
2619 -1921 -1921 -1929 0
-2619 1921 0
-2619 1921 0
-2619 1929 0
-2620 1915 2616 2617 2618 2619 0
2620 -1915 0
2620 -2616 0
2620 -2617 0
2620 -2618 0
2620 -2619 0
2621 -2622 -2623 0
-2621 2622 0
-2621 2623 0
2624 -2623 -2623 0
-2624 2623 0
-2624 2623 0
2625 -2623 -2622 0
-2625 2623 0
-2625 2622 0
2626 -2622 -2622 -2534 0
-2626 2622 0
-2626 2622 0
-2626 2534 0
-2627 2628 2621 2624 2625 2626 0
2627 -2628 0
2627 -2621 0
2627 -2624 0
2627 -2625 0
2627 -2626 0
2629 -2622 -2537 0
-2629 2622 0
-2629 2537 0
2630 -2623 -2537 0
-2630 2623 0
-2630 2537 0
2631 -2623 -2545 0
-2631 2623 0
-2631 2545 0
2632 -2622 -2545 -2534 0
-2632 2622 0
-2632 2545 0
-2632 2534 0
-479 2633 2629 2630 2631 2632 0
479 -2633 0
479 -2629 0
479 -2630 0
479 -2631 0
479 -2632 0
2634 -2622 -2540 0
-2634 2622 0
-2634 2540 0
2635 -2623 -2543 0
-2635 2623 0
-2635 2543 0
2636 -2623 -2540 0
-2636 2623 0
-2636 2540 0
2637 -2622 -2543 -2534 0
-2637 2622 0
-2637 2543 0
-2637 2534 0
-477 2638 2634 2635 2636 2637 0
477 -2638 0
477 -2634 0
477 -2635 0
477 -2636 0
477 -2637 0
2639 -2542 -2540 0
-2639 2542 0
-2639 2540 0
2640 -2532 -2540 0
-2640 2532 0
-2640 2540 0
2641 -2532 -2543 0
-2641 2532 0
-2641 2543 0
2642 -2542 -2543 -2534 0
-2642 2542 0
-2642 2543 0
-2642 2534 0
-480 2539 2639 2640 2641 2642 0
480 -2539 0
480 -2639 0
480 -2640 0
480 -2641 0
480 -2642 0
2643 -2545 -2532 0
-2643 2545 0
-2643 2532 0
2644 -2537 -2542 0
-2644 2537 0
-2644 2542 0
2645 -2537 -2532 0
-2645 2537 0
-2645 2532 0
2646 -2545 -2542 -2534 0
-2646 2545 0
-2646 2542 0
-2646 2534 0
-478 2536 2643 2644 2645 2646 0
478 -2536 0
478 -2643 0
478 -2644 0
478 -2645 0
478 -2646 0
2647 -2545 -2537 0
-2647 2545 0
-2647 2537 0
2648 -2537 -2537 0
-2648 2537 0
-2648 2537 0
2649 -2537 -2545 0
-2649 2537 0
-2649 2545 0
2650 -2545 -2545 -2534 0
-2650 2545 0
-2650 2545 0
-2650 2534 0
-2651 2548 2647 2648 2649 2650 0
2651 -2548 0
2651 -2647 0
2651 -2648 0
2651 -2649 0
2651 -2650 0
2652 -2653 -2654 0
-2652 2653 0
-2652 2654 0
2655 -2654 -2654 0
-2655 2654 0
-2655 2654 0
2656 -2654 -2653 0
-2656 2654 0
-2656 2653 0
2657 -2653 -2653 -2658 0
-2657 2653 0
-2657 2653 0
-2657 2658 0
-2659 2660 2652 2655 2656 2657 0
2659 -2660 0
2659 -2652 0
2659 -2655 0
2659 -2656 0
2659 -2657 0
2661 -2653 -2662 0
-2661 2653 0
-2661 2662 0
2663 -2654 -2662 0
-2663 2654 0
-2663 2662 0
2664 -2654 -2665 0
-2664 2654 0
-2664 2665 0
2666 -2653 -2665 -2658 0
-2666 2653 0
-2666 2665 0
-2666 2658 0
-224 2667 2661 2663 2664 2666 0
224 -2667 0
224 -2661 0
224 -2663 0
224 -2664 0
224 -2666 0
2668 -2653 -2669 0
-2668 2653 0
-2668 2669 0
2670 -2654 -2671 0
-2670 2654 0
-2670 2671 0
2672 -2654 -2669 0
-2672 2654 0
-2672 2669 0
2673 -2653 -2671 -2658 0
-2673 2653 0
-2673 2671 0
-2673 2658 0
-222 2674 2668 2670 2672 2673 0
222 -2674 0
222 -2668 0
222 -2670 0
222 -2672 0
222 -2673 0
2675 -2676 -2669 0
-2675 2676 0
-2675 2669 0
2677 -2678 -2669 0
-2677 2678 0
-2677 2669 0
2679 -2678 -2671 0
-2679 2678 0
-2679 2671 0
2680 -2676 -2671 -2658 0
-2680 2676 0
-2680 2671 0
-2680 2658 0
-225 2681 2675 2677 2679 2680 0
225 -2681 0
225 -2675 0
225 -2677 0
225 -2679 0
225 -2680 0
2682 -2665 -2678 0
-2682 2665 0
-2682 2678 0
2683 -2662 -2676 0
-2683 2662 0
-2683 2676 0
2684 -2662 -2678 0
-2684 2662 0
-2684 2678 0
2685 -2665 -2676 -2658 0
-2685 2665 0
-2685 2676 0
-2685 2658 0
-223 2686 2682 2683 2684 2685 0
223 -2686 0
223 -2682 0
223 -2683 0
223 -2684 0
223 -2685 0
2687 -2665 -2662 0
-2687 2665 0
-2687 2662 0
2688 -2662 -2662 0
-2688 2662 0
-2688 2662 0
2689 -2662 -2665 0
-2689 2662 0
-2689 2665 0
2690 -2665 -2665 -2658 0
-2690 2665 0
-2690 2665 0
-2690 2658 0
-2691 2692 2687 2688 2689 2690 0
2691 -2692 0
2691 -2687 0
2691 -2688 0
2691 -2689 0
2691 -2690 0
2693 -2694 -2694 0
-2693 2694 0
-2693 2694 0
-2695 2696 2693 0
2695 -2696 0
2695 -2693 0
2697 -2694 -2698 0
-2697 2694 0
-2697 2698 0
-1139 2699 2697 0
1139 -2699 0
1139 -2697 0
2700 -2694 -2701 0
-2700 2694 0
-2700 2701 0
-1137 2702 2700 0
1137 -2702 0
1137 -2700 0
2703 -2704 -2701 0
-2703 2704 0
-2703 2701 0
-1140 2705 2703 0
1140 -2705 0
1140 -2703 0
2706 -2698 -2704 0
-2706 2698 0
-2706 2704 0
-1138 2707 2706 0
1138 -2707 0
1138 -2706 0
2708 -2698 -2698 0
-2708 2698 0
-2708 2698 0
-2709 2710 2708 0
2709 -2710 0
2709 -2708 0
2711 -2064 -2064 0
-2711 2064 0
-2711 2064 0
-2712 2044 2711 0
2712 -2044 0
2712 -2711 0
2713 -2064 -2072 0
-2713 2064 0
-2713 2072 0
-854 2048 2713 0
854 -2048 0
854 -2713 0
2714 -2064 -2067 0
-2714 2064 0
-2714 2067 0
-852 2055 2714 0
852 -2055 0
852 -2714 0
2715 -2062 -2067 0
-2715 2062 0
-2715 2067 0
-855 2057 2715 0
855 -2057 0
855 -2715 0
2716 -2072 -2062 0
-2716 2072 0
-2716 2062 0
-853 2051 2716 0
853 -2051 0
853 -2716 0
2717 -2072 -2072 0
-2717 2072 0
-2717 2072 0
-2718 2078 2717 0
2718 -2078 0
2718 -2717 0
2719 -2039 -2039 0
-2719 2039 0
-2719 2039 0
-2720 2046 2719 0
2720 -2046 0
2720 -2719 0
2721 -2039 -2051 0
-2721 2039 0
-2721 2051 0
-934 2053 2721 0
934 -2053 0
934 -2721 0
2722 -2039 -2057 0
-2722 2039 0
-2722 2057 0
-932 2060 2722 0
932 -2060 0
932 -2722 0
2723 -2062 -2057 0
-2723 2062 0
-2723 2057 0
-935 2067 2723 0
935 -2067 0
935 -2723 0
2724 -2051 -2062 0
-2724 2051 0
-2724 2062 0
-933 2072 2724 0
933 -2072 0
933 -2724 0
2725 -2051 -2051 0
-2725 2051 0
-2725 2051 0
-2726 2078 2725 0
2726 -2078 0
2726 -2725 0
2727 -2728 -2729 0
-2727 2728 0
-2727 2729 0
2730 -2729 -2729 0
-2730 2729 0
-2730 2729 0
2731 -2729 -2728 0
-2731 2729 0
-2731 2728 0
2732 -2728 -2728 -2733 0
-2732 2728 0
-2732 2728 0
-2732 2733 0
-2734 2735 2727 2730 2731 2732 0
2734 -2735 0
2734 -2727 0
2734 -2730 0
2734 -2731 0
2734 -2732 0
2736 -2728 -2737 0
-2736 2728 0
-2736 2737 0
2738 -2729 -2737 0
-2738 2729 0
-2738 2737 0
2739 -2729 -2740 0
-2739 2729 0
-2739 2740 0
2741 -2728 -2740 -2733 0
-2741 2728 0
-2741 2740 0
-2741 2733 0
-509 2742 2736 2738 2739 2741 0
509 -2742 0
509 -2736 0
509 -2738 0
509 -2739 0
509 -2741 0
2743 -2728 -2744 0
-2743 2728 0
-2743 2744 0
2745 -2729 -2746 0
-2745 2729 0
-2745 2746 0
2747 -2729 -2744 0
-2747 2729 0
-2747 2744 0
2748 -2728 -2746 -2733 0
-2748 2728 0
-2748 2746 0
-2748 2733 0
-507 2749 2743 2745 2747 2748 0
507 -2749 0
507 -2743 0
507 -2745 0
507 -2747 0
507 -2748 0
2750 -2751 -2744 0
-2750 2751 0
-2750 2744 0
2752 -2753 -2744 0
-2752 2753 0
-2752 2744 0
2754 -2753 -2746 0
-2754 2753 0
-2754 2746 0
2755 -2751 -2746 -2733 0
-2755 2751 0
-2755 2746 0
-2755 2733 0
-510 2756 2750 2752 2754 2755 0
510 -2756 0
510 -2750 0
510 -2752 0
510 -2754 0
510 -2755 0
2757 -2740 -2753 0
-2757 2740 0
-2757 2753 0
2758 -2737 -2751 0
-2758 2737 0
-2758 2751 0
2759 -2737 -2753 0
-2759 2737 0
-2759 2753 0
2760 -2740 -2751 -2733 0
-2760 2740 0
-2760 2751 0
-2760 2733 0
-508 2761 2757 2758 2759 2760 0
508 -2761 0
508 -2757 0
508 -2758 0
508 -2759 0
508 -2760 0
2762 -2740 -2737 0
-2762 2740 0
-2762 2737 0
2763 -2737 -2737 0
-2763 2737 0
-2763 2737 0
2764 -2737 -2740 0
-2764 2737 0
-2764 2740 0
2765 -2740 -2740 -2733 0
-2765 2740 0
-2765 2740 0
-2765 2733 0
-2766 2767 2762 2763 2764 2765 0
2766 -2767 0
2766 -2762 0
2766 -2763 0
2766 -2764 0
2766 -2765 0
2768 -2278 -2278 0
-2768 2278 0
-2768 2278 0
-2769 2258 2768 0
2769 -2258 0
2769 -2768 0
2770 -2278 -2286 0
-2770 2278 0
-2770 2286 0
-874 2262 2770 0
874 -2262 0
874 -2770 0
2771 -2278 -2281 0
-2771 2278 0
-2771 2281 0
-872 2269 2771 0
872 -2269 0
872 -2771 0
2772 -2276 -2281 0
-2772 2276 0
-2772 2281 0
-875 2271 2772 0
875 -2271 0
875 -2772 0
2773 -2286 -2276 0
-2773 2286 0
-2773 2276 0
-873 2265 2773 0
873 -2265 0
873 -2773 0
2774 -2286 -2286 0
-2774 2286 0
-2774 2286 0
-2775 2292 2774 0
2775 -2292 0
2775 -2774 0
2776 -2310 -2303 0
-2776 2310 0
-2776 2303 0
2329 -2303 -2303 0
-2329 2303 0
-2329 2303 0
2777 -2303 -2310 0
-2777 2303 0
-2777 2310 0
2778 -2310 -2310 -2333 0
-2778 2310 0
-2778 2310 0
-2778 2333 0
-2779 2299 2776 2329 2777 2778 0
2779 -2299 0
2779 -2776 0
2779 -2329 0
2779 -2777 0
2779 -2778 0
2780 -2310 -2308 0
-2780 2310 0
-2780 2308 0
2781 -2303 -2308 0
-2781 2303 0
-2781 2308 0
2782 -2303 -2315 0
-2782 2303 0
-2782 2315 0
2783 -2310 -2315 -2333 0
-2783 2310 0
-2783 2315 0
-2783 2333 0
-404 2295 2780 2781 2782 2783 0
404 -2295 0
404 -2780 0
404 -2781 0
404 -2782 0
404 -2783 0
2784 -2310 -2327 0
-2784 2310 0
-2784 2327 0
2785 -2303 -2322 0
-2785 2303 0
-2785 2322 0
2786 -2303 -2327 0
-2786 2303 0
-2786 2327 0
2787 -2310 -2322 -2333 0
-2787 2310 0
-2787 2322 0
-2787 2333 0
-402 2319 2784 2785 2786 2787 0
402 -2319 0
402 -2784 0
402 -2785 0
402 -2786 0
402 -2787 0
2788 -2312 -2327 0
-2788 2312 0
-2788 2327 0
2789 -2306 -2327 0
-2789 2306 0
-2789 2327 0
2790 -2306 -2322 0
-2790 2306 0
-2790 2322 0
2791 -2312 -2322 -2333 0
-2791 2312 0
-2791 2322 0
-2791 2333 0
-405 2317 2788 2789 2790 2791 0
405 -2317 0
405 -2788 0
405 -2789 0
405 -2790 0
405 -2791 0
2792 -2315 -2306 0
-2792 2315 0
-2792 2306 0
2793 -2308 -2312 0
-2793 2308 0
-2793 2312 0
2794 -2308 -2306 0
-2794 2308 0
-2794 2306 0
2795 -2315 -2312 -2333 0
-2795 2315 0
-2795 2312 0
-2795 2333 0
-403 2294 2792 2793 2794 2795 0
403 -2294 0
403 -2792 0
403 -2793 0
403 -2794 0
403 -2795 0
2796 -2315 -2308 0
-2796 2315 0
-2796 2308 0
2797 -2308 -2308 0
-2797 2308 0
-2797 2308 0
2798 -2308 -2315 0
-2798 2308 0
-2798 2315 0
2799 -2315 -2315 -2333 0
-2799 2315 0
-2799 2315 0
-2799 2333 0
-2800 2301 2796 2797 2798 2799 0
2800 -2301 0
2800 -2796 0
2800 -2797 0
2800 -2798 0
2800 -2799 0
2801 -2802 -2802 0
-2801 2802 0
-2801 2802 0
-2803 2804 2801 0
2803 -2804 0
2803 -2801 0
2805 -2802 -2806 0
-2805 2802 0
-2805 2806 0
-784 2807 2805 0
784 -2807 0
784 -2805 0
2808 -2802 -2809 0
-2808 2802 0
-2808 2809 0
-782 2810 2808 0
782 -2810 0
782 -2808 0
2811 -2812 -2809 0
-2811 2812 0
-2811 2809 0
-785 2813 2811 0
785 -2813 0
785 -2811 0
2814 -2806 -2812 0
-2814 2806 0
-2814 2812 0
-783 2815 2814 0
783 -2815 0
783 -2814 0
2816 -2806 -2806 0
-2816 2806 0
-2816 2806 0
-2817 2818 2816 0
2817 -2818 0
2817 -2816 0
2819 -2820 -2821 0
-2819 2820 0
-2819 2821 0
2822 -2821 -2821 0
-2822 2821 0
-2822 2821 0
2823 -2821 -2820 0
-2823 2821 0
-2823 2820 0
2824 -2820 -2820 -2825 0
-2824 2820 0
-2824 2820 0
-2824 2825 0
-2826 2827 2819 2822 2823 2824 0
2826 -2827 0
2826 -2819 0
2826 -2822 0
2826 -2823 0
2826 -2824 0
2828 -2820 -2829 0
-2828 2820 0
-2828 2829 0
2830 -2821 -2829 0
-2830 2821 0
-2830 2829 0
2831 -2821 -2832 0
-2831 2821 0
-2831 2832 0
2833 -2820 -2832 -2825 0
-2833 2820 0
-2833 2832 0
-2833 2825 0
-1084 2834 2828 2830 2831 2833 0
1084 -2834 0
1084 -2828 0
1084 -2830 0
1084 -2831 0
1084 -2833 0
2835 -2820 -2836 0
-2835 2820 0
-2835 2836 0
2837 -2821 -2838 0
-2837 2821 0
-2837 2838 0
2839 -2821 -2836 0
-2839 2821 0
-2839 2836 0
2840 -2820 -2838 -2825 0
-2840 2820 0
-2840 2838 0
-2840 2825 0
-1082 2841 2835 2837 2839 2840 0
1082 -2841 0
1082 -2835 0
1082 -2837 0
1082 -2839 0
1082 -2840 0
2842 -2843 -2836 0
-2842 2843 0
-2842 2836 0
2844 -2845 -2836 0
-2844 2845 0
-2844 2836 0
2846 -2845 -2838 0
-2846 2845 0
-2846 2838 0
2847 -2843 -2838 -2825 0
-2847 2843 0
-2847 2838 0
-2847 2825 0
-1085 2848 2842 2844 2846 2847 0
1085 -2848 0
1085 -2842 0
1085 -2844 0
1085 -2846 0
1085 -2847 0
2849 -2832 -2845 0
-2849 2832 0
-2849 2845 0
2850 -2829 -2843 0
-2850 2829 0
-2850 2843 0
2851 -2829 -2845 0
-2851 2829 0
-2851 2845 0
2852 -2832 -2843 -2825 0
-2852 2832 0
-2852 2843 0
-2852 2825 0
-1083 2853 2849 2850 2851 2852 0
1083 -2853 0
1083 -2849 0
1083 -2850 0
1083 -2851 0
1083 -2852 0
2854 -2832 -2829 0
-2854 2832 0
-2854 2829 0
2855 -2829 -2829 0
-2855 2829 0
-2855 2829 0
2856 -2829 -2832 0
-2856 2829 0
-2856 2832 0
2857 -2832 -2832 -2825 0
-2857 2832 0
-2857 2832 0
-2857 2825 0
-2858 2859 2854 2855 2856 2857 0
2858 -2859 0
2858 -2854 0
2858 -2855 0
2858 -2856 0
2858 -2857 0
2860 -2861 -2862 0
-2860 2861 0
-2860 2862 0
2863 -2862 -2862 0
-2863 2862 0
-2863 2862 0
2864 -2862 -2861 0
-2864 2862 0
-2864 2861 0
2865 -2861 -2861 -2866 0
-2865 2861 0
-2865 2861 0
-2865 2866 0
-2867 2868 2860 2863 2864 2865 0
2867 -2868 0
2867 -2860 0
2867 -2863 0
2867 -2864 0
2867 -2865 0
2869 -2861 -2870 0
-2869 2861 0
-2869 2870 0
2871 -2862 -2870 0
-2871 2862 0
-2871 2870 0
2872 -2862 -2873 0
-2872 2862 0
-2872 2873 0
2874 -2861 -2873 -2866 0
-2874 2861 0
-2874 2873 0
-2874 2866 0
-214 2875 2869 2871 2872 2874 0
214 -2875 0
214 -2869 0
214 -2871 0
214 -2872 0
214 -2874 0
2876 -2861 -2877 0
-2876 2861 0
-2876 2877 0
2878 -2862 -2879 0
-2878 2862 0
-2878 2879 0
2880 -2862 -2877 0
-2880 2862 0
-2880 2877 0
2881 -2861 -2879 -2866 0
-2881 2861 0
-2881 2879 0
-2881 2866 0
-212 2882 2876 2878 2880 2881 0
212 -2882 0
212 -2876 0
212 -2878 0
212 -2880 0
212 -2881 0
2883 -2884 -2877 0
-2883 2884 0
-2883 2877 0
2885 -2886 -2877 0
-2885 2886 0
-2885 2877 0
2887 -2886 -2879 0
-2887 2886 0
-2887 2879 0
2888 -2884 -2879 -2866 0
-2888 2884 0
-2888 2879 0
-2888 2866 0
-215 2889 2883 2885 2887 2888 0
215 -2889 0
215 -2883 0
215 -2885 0
215 -2887 0
215 -2888 0
2890 -2873 -2886 0
-2890 2873 0
-2890 2886 0
2891 -2870 -2884 0
-2891 2870 0
-2891 2884 0
2892 -2870 -2886 0
-2892 2870 0
-2892 2886 0
2893 -2873 -2884 -2866 0
-2893 2873 0
-2893 2884 0
-2893 2866 0
-213 2894 2890 2891 2892 2893 0
213 -2894 0
213 -2890 0
213 -2891 0
213 -2892 0
213 -2893 0
2895 -2873 -2870 0
-2895 2873 0
-2895 2870 0
2896 -2870 -2870 0
-2896 2870 0
-2896 2870 0
2897 -2870 -2873 0
-2897 2870 0
-2897 2873 0
2898 -2873 -2873 -2866 0
-2898 2873 0
-2898 2873 0
-2898 2866 0
-2899 2900 2895 2896 2897 2898 0
2899 -2900 0
2899 -2895 0
2899 -2896 0
2899 -2897 0
2899 -2898 0
2901 -2902 -2903 0
-2901 2902 0
-2901 2903 0
2904 -2903 -2903 0
-2904 2903 0
-2904 2903 0
2905 -2903 -2902 0
-2905 2903 0
-2905 2902 0
2906 -2902 -2902 -2907 0
-2906 2902 0
-2906 2902 0
-2906 2907 0
-2908 2909 2901 2904 2905 2906 0
2908 -2909 0
2908 -2901 0
2908 -2904 0
2908 -2905 0
2908 -2906 0
2910 -2902 -2911 0
-2910 2902 0
-2910 2911 0
2912 -2903 -2911 0
-2912 2903 0
-2912 2911 0
2913 -2903 -2914 0
-2913 2903 0
-2913 2914 0
2915 -2902 -2914 -2907 0
-2915 2902 0
-2915 2914 0
-2915 2907 0
-164 2916 2910 2912 2913 2915 0
164 -2916 0
164 -2910 0
164 -2912 0
164 -2913 0
164 -2915 0
2917 -2902 -2918 0
-2917 2902 0
-2917 2918 0
2919 -2903 -2920 0
-2919 2903 0
-2919 2920 0
2921 -2903 -2918 0
-2921 2903 0
-2921 2918 0
2922 -2902 -2920 -2907 0
-2922 2902 0
-2922 2920 0
-2922 2907 0
-162 2923 2917 2919 2921 2922 0
162 -2923 0
162 -2917 0
162 -2919 0
162 -2921 0
162 -2922 0
2924 -2925 -2918 0
-2924 2925 0
-2924 2918 0
2926 -2927 -2918 0
-2926 2927 0
-2926 2918 0
2928 -2927 -2920 0
-2928 2927 0
-2928 2920 0
2929 -2925 -2920 -2907 0
-2929 2925 0
-2929 2920 0
-2929 2907 0
-165 2930 2924 2926 2928 2929 0
165 -2930 0
165 -2924 0
165 -2926 0
165 -2928 0
165 -2929 0
2931 -2914 -2927 0
-2931 2914 0
-2931 2927 0
2932 -2911 -2925 0
-2932 2911 0
-2932 2925 0
2933 -2911 -2927 0
-2933 2911 0
-2933 2927 0
2934 -2914 -2925 -2907 0
-2934 2914 0
-2934 2925 0
-2934 2907 0
-163 2935 2931 2932 2933 2934 0
163 -2935 0
163 -2931 0
163 -2932 0
163 -2933 0
163 -2934 0
2936 -2914 -2911 0
-2936 2914 0
-2936 2911 0
2937 -2911 -2911 0
-2937 2911 0
-2937 2911 0
2938 -2911 -2914 0
-2938 2911 0
-2938 2914 0
2939 -2914 -2914 -2907 0
-2939 2914 0
-2939 2914 0
-2939 2907 0
-2940 2941 2936 2937 2938 2939 0
2940 -2941 0
2940 -2936 0
2940 -2937 0
2940 -2938 0
2940 -2939 0
2942 -2943 -2943 0
-2942 2943 0
-2942 2943 0
-2944 2945 2942 0
2944 -2945 0
2944 -2942 0
2946 -2943 -2947 0
-2946 2943 0
-2946 2947 0
-879 2948 2946 0
879 -2948 0
879 -2946 0
2949 -2943 -2950 0
-2949 2943 0
-2949 2950 0
-877 2951 2949 0
877 -2951 0
877 -2949 0
2952 -2953 -2950 0
-2952 2953 0
-2952 2950 0
-880 2954 2952 0
880 -2954 0
880 -2952 0
2955 -2947 -2953 0
-2955 2947 0
-2955 2953 0
-878 2956 2955 0
878 -2956 0
878 -2955 0
2957 -2947 -2947 0
-2957 2947 0
-2957 2947 0
-2958 2959 2957 0
2958 -2959 0
2958 -2957 0
2960 -2961 -2961 0
-2960 2961 0
-2960 2961 0
-2962 2963 2960 0
2962 -2963 0
2962 -2960 0
2964 -2961 -2965 0
-2964 2961 0
-2964 2965 0
-1074 2966 2964 0
1074 -2966 0
1074 -2964 0
2967 -2961 -2968 0
-2967 2961 0
-2967 2968 0
-1072 2969 2967 0
1072 -2969 0
1072 -2967 0
2970 -2971 -2968 0
-2970 2971 0
-2970 2968 0
-1075 2972 2970 0
1075 -2972 0
1075 -2970 0
2973 -2965 -2971 0
-2973 2965 0
-2973 2971 0
-1073 2974 2973 0
1073 -2974 0
1073 -2973 0
2975 -2965 -2965 0
-2975 2965 0
-2975 2965 0
-2976 2977 2975 0
2976 -2977 0
2976 -2975 0
2978 -2979 -2979 0
-2978 2979 0
-2978 2979 0
-2980 2981 2978 0
2980 -2981 0
2980 -2978 0
2982 -2979 -2956 0
-2982 2979 0
-2982 2956 0
-959 2983 2982 0
959 -2983 0
959 -2982 0
2984 -2979 -2954 0
-2984 2979 0
-2984 2954 0
-957 2985 2984 0
957 -2985 0
957 -2984 0
2986 -2953 -2954 0
-2986 2953 0
-2986 2954 0
-960 2950 2986 0
960 -2950 0
960 -2986 0
2987 -2956 -2953 0
-2987 2956 0
-2987 2953 0
-958 2947 2987 0
958 -2947 0
958 -2987 0
2988 -2956 -2956 0
-2988 2956 0
-2988 2956 0
-2989 2959 2988 0
2989 -2959 0
2989 -2988 0
2990 -2310 -2310 0
-2990 2310 0
-2990 2310 0
-2991 2299 2990 0
2991 -2299 0
2991 -2990 0
2992 -2310 -2315 0
-2992 2310 0
-2992 2315 0
-839 2295 2992 0
839 -2295 0
839 -2992 0
2993 -2310 -2322 0
-2993 2310 0
-2993 2322 0
-837 2319 2993 0
837 -2319 0
837 -2993 0
2994 -2312 -2322 0
-2994 2312 0
-2994 2322 0
-840 2317 2994 0
840 -2317 0
840 -2994 0
2995 -2315 -2312 0
-2995 2315 0
-2995 2312 0
-838 2294 2995 0
838 -2294 0
838 -2995 0
2996 -2315 -2315 0
-2996 2315 0
-2996 2315 0
-2997 2301 2996 0
2997 -2301 0
2997 -2996 0
2998 -2064 -2040 0
-2998 2064 0
-2998 2040 0
2041 -2040 -2040 0
-2041 2040 0
-2041 2040 0
2999 -2040 -2064 0
-2999 2040 0
-2999 2064 0
3000 -2064 -2064 -2046 0
-3000 2064 0
-3000 2064 0
-3000 2046 0
-3001 2044 2998 2041 2999 3000 0
3001 -2044 0
3001 -2998 0
3001 -2041 0
3001 -2999 0
3001 -3000 0
3002 -2064 -2053 0
-3002 2064 0
-3002 2053 0
3003 -2040 -2053 0
-3003 2040 0
-3003 2053 0
3004 -2040 -2072 0
-3004 2040 0
-3004 2072 0
3005 -2064 -2072 -2046 0
-3005 2064 0
-3005 2072 0
-3005 2046 0
-429 2048 3002 3003 3004 3005 0
429 -2048 0
429 -3002 0
429 -3003 0
429 -3004 0
429 -3005 0
3006 -2064 -2060 0
-3006 2064 0
-3006 2060 0
3007 -2040 -2067 0
-3007 2040 0
-3007 2067 0
3008 -2040 -2060 0
-3008 2040 0
-3008 2060 0
3009 -2064 -2067 -2046 0
-3009 2064 0
-3009 2067 0
-3009 2046 0
-427 2055 3006 3007 3008 3009 0
427 -2055 0
427 -3006 0
427 -3007 0
427 -3008 0
427 -3009 0
3010 -2062 -2060 0
-3010 2062 0
-3010 2060 0
3011 -2039 -2060 0
-3011 2039 0
-3011 2060 0
3012 -2039 -2067 0
-3012 2039 0
-3012 2067 0
3013 -2062 -2067 -2046 0
-3013 2062 0
-3013 2067 0
-3013 2046 0
-430 2057 3010 3011 3012 3013 0
430 -2057 0
430 -3010 0
430 -3011 0
430 -3012 0
430 -3013 0
3014 -2072 -2039 0
-3014 2072 0
-3014 2039 0
3015 -2053 -2062 0
-3015 2053 0
-3015 2062 0
3016 -2053 -2039 0
-3016 2053 0
-3016 2039 0
3017 -2072 -2062 -2046 0
-3017 2072 0
-3017 2062 0
-3017 2046 0
-428 2051 3014 3015 3016 3017 0
428 -2051 0
428 -3014 0
428 -3015 0
428 -3016 0
428 -3017 0
3018 -2072 -2053 0
-3018 2072 0
-3018 2053 0
3019 -2053 -2053 0
-3019 2053 0
-3019 2053 0
3020 -2053 -2072 0
-3020 2053 0
-3020 2072 0
3021 -2072 -2072 -2046 0
-3021 2072 0
-3021 2072 0
-3021 2046 0
-3022 2078 3018 3019 3020 3021 0
3022 -2078 0
3022 -3018 0
3022 -3019 0
3022 -3020 0
3022 -3021 0
3023 -2319 -2319 0
-3023 2319 0
-3023 2319 0
-3024 2299 3023 0
3024 -2299 0
3024 -3023 0
3025 -2319 -2327 0
-3025 2319 0
-3025 2327 0
-859 2303 3025 0
859 -2303 0
859 -3025 0
3026 -2319 -2322 0
-3026 2319 0
-3026 2322 0
-857 2310 3026 0
857 -2310 0
857 -3026 0
3027 -2317 -2322 0
-3027 2317 0
-3027 2322 0
-860 2312 3027 0
860 -2312 0
860 -3027 0
3028 -2327 -2317 0
-3028 2327 0
-3028 2317 0
-858 2306 3028 0
858 -2306 0
858 -3028 0
3029 -2327 -2327 0
-3029 2327 0
-3029 2327 0
-3030 2333 3029 0
3030 -2333 0
3030 -3029 0
3031 -3032 -3032 0
-3031 3032 0
-3031 3032 0
-3033 3034 3031 0
3033 -3034 0
3033 -3031 0
3035 -3032 -3036 0
-3035 3032 0
-3035 3036 0
-1199 3037 3035 0
1199 -3037 0
1199 -3035 0
3038 -3032 -3039 0
-3038 3032 0
-3038 3039 0
-1197 3040 3038 0
1197 -3040 0
1197 -3038 0
3041 -3042 -3039 0
-3041 3042 0
-3041 3039 0
-1200 3043 3041 0
1200 -3043 0
1200 -3041 0
3044 -3036 -3042 0
-3044 3036 0
-3044 3042 0
-1198 3045 3044 0
1198 -3045 0
1198 -3044 0
3046 -3036 -3036 0
-3046 3036 0
-3046 3036 0
-3047 3048 3046 0
3047 -3048 0
3047 -3046 0
3049 -2021 -3050 0
-3049 2021 0
-3049 3050 0
3051 -3050 -3050 0
-3051 3050 0
-3051 3050 0
3052 -3050 -2021 0
-3052 3050 0
-3052 2021 0
3053 -2021 -2021 -3054 0
-3053 2021 0
-3053 2021 0
-3053 3054 0
-3055 2023 3049 3051 3052 3053 0
3055 -2023 0
3055 -3049 0
3055 -3051 0
3055 -3052 0
3055 -3053 0
3056 -2021 -3057 0
-3056 2021 0
-3056 3057 0
3058 -3050 -3057 0
-3058 3050 0
-3058 3057 0
3059 -3050 -2025 0
-3059 3050 0
-3059 2025 0
3060 -2021 -2025 -3054 0
-3060 2021 0
-3060 2025 0
-3060 3054 0
-334 2026 3056 3058 3059 3060 0
334 -2026 0
334 -3056 0
334 -3058 0
334 -3059 0
334 -3060 0
3061 -2021 -3062 0
-3061 2021 0
-3061 3062 0
3063 -3050 -2028 0
-3063 3050 0
-3063 2028 0
3064 -3050 -3062 0
-3064 3050 0
-3064 3062 0
3065 -2021 -2028 -3054 0
-3065 2021 0
-3065 2028 0
-3065 3054 0
-332 2029 3061 3063 3064 3065 0
332 -2029 0
332 -3061 0
332 -3063 0
332 -3064 0
332 -3065 0
3066 -2031 -3062 0
-3066 2031 0
-3066 3062 0
3067 -3068 -3062 0
-3067 3068 0
-3067 3062 0
3069 -3068 -2028 0
-3069 3068 0
-3069 2028 0
3070 -2031 -2028 -3054 0
-3070 2031 0
-3070 2028 0
-3070 3054 0
-335 2032 3066 3067 3069 3070 0
335 -2032 0
335 -3066 0
335 -3067 0
335 -3069 0
335 -3070 0
3071 -2025 -3068 0
-3071 2025 0
-3071 3068 0
3072 -3057 -2031 0
-3072 3057 0
-3072 2031 0
3073 -3057 -3068 0
-3073 3057 0
-3073 3068 0
3074 -2025 -2031 -3054 0
-3074 2025 0
-3074 2031 0
-3074 3054 0
-333 2034 3071 3072 3073 3074 0
333 -2034 0
333 -3071 0
333 -3072 0
333 -3073 0
333 -3074 0
3075 -2025 -3057 0
-3075 2025 0
-3075 3057 0
3076 -3057 -3057 0
-3076 3057 0
-3076 3057 0
3077 -3057 -2025 0
-3077 3057 0
-3077 2025 0
3078 -2025 -2025 -3054 0
-3078 2025 0
-3078 2025 0
-3078 3054 0
-3079 2037 3075 3076 3077 3078 0
3079 -2037 0
3079 -3075 0
3079 -3076 0
3079 -3077 0
3079 -3078 0
3080 -3081 -3081 0
-3080 3081 0
-3080 3081 0
-3082 3083 3080 0
3082 -3083 0
3082 -3080 0
3084 -3081 -3085 0
-3084 3081 0
-3084 3085 0
-1034 3086 3084 0
1034 -3086 0
1034 -3084 0
3087 -3081 -3088 0
-3087 3081 0
-3087 3088 0
-1032 3089 3087 0
1032 -3089 0
1032 -3087 0
3090 -3091 -3088 0
-3090 3091 0
-3090 3088 0
-1035 3092 3090 0
1035 -3092 0
1035 -3090 0
3093 -3085 -3091 0
-3093 3085 0
-3093 3091 0
-1033 3094 3093 0
1033 -3094 0
1033 -3093 0
3095 -3085 -3085 0
-3095 3085 0
-3095 3085 0
-3096 3097 3095 0
3096 -3097 0
3096 -3095 0
3098 -3099 -3100 0
-3098 3099 0
-3098 3100 0
3101 -3100 -3100 0
-3101 3100 0
-3101 3100 0
3102 -3100 -3099 0
-3102 3100 0
-3102 3099 0
3103 -3099 -3099 -3104 0
-3103 3099 0
-3103 3099 0
-3103 3104 0
-3105 3106 3098 3101 3102 3103 0
3105 -3106 0
3105 -3098 0
3105 -3101 0
3105 -3102 0
3105 -3103 0
3107 -3099 -3108 0
-3107 3099 0
-3107 3108 0
3109 -3100 -3108 0
-3109 3100 0
-3109 3108 0
3110 -3100 -3111 0
-3110 3100 0
-3110 3111 0
3112 -3099 -3111 -3104 0
-3112 3099 0
-3112 3111 0
-3112 3104 0
-689 3113 3107 3109 3110 3112 0
689 -3113 0
689 -3107 0
689 -3109 0
689 -3110 0
689 -3112 0
3114 -3099 -3115 0
-3114 3099 0
-3114 3115 0
3116 -3100 -3117 0
-3116 3100 0
-3116 3117 0
3118 -3100 -3115 0
-3118 3100 0
-3118 3115 0
3119 -3099 -3117 -3104 0
-3119 3099 0
-3119 3117 0
-3119 3104 0
-687 3120 3114 3116 3118 3119 0
687 -3120 0
687 -3114 0
687 -3116 0
687 -3118 0
687 -3119 0
3121 -3122 -3115 0
-3121 3122 0
-3121 3115 0
3123 -3124 -3115 0
-3123 3124 0
-3123 3115 0
3125 -3124 -3117 0
-3125 3124 0
-3125 3117 0
3126 -3122 -3117 -3104 0
-3126 3122 0
-3126 3117 0
-3126 3104 0
-690 3127 3121 3123 3125 3126 0
690 -3127 0
690 -3121 0
690 -3123 0
690 -3125 0
690 -3126 0
3128 -3111 -3124 0
-3128 3111 0
-3128 3124 0
3129 -3108 -3122 0
-3129 3108 0
-3129 3122 0
3130 -3108 -3124 0
-3130 3108 0
-3130 3124 0
3131 -3111 -3122 -3104 0
-3131 3111 0
-3131 3122 0
-3131 3104 0
-688 3132 3128 3129 3130 3131 0
688 -3132 0
688 -3128 0
688 -3129 0
688 -3130 0
688 -3131 0
3133 -3111 -3108 0
-3133 3111 0
-3133 3108 0
3134 -3108 -3108 0
-3134 3108 0
-3134 3108 0
3135 -3108 -3111 0
-3135 3108 0
-3135 3111 0
3136 -3111 -3111 -3104 0
-3136 3111 0
-3136 3111 0
-3136 3104 0
-3137 3138 3133 3134 3135 3136 0
3137 -3138 0
3137 -3133 0
3137 -3134 0
3137 -3135 0
3137 -3136 0
3139 -2142 -2135 0
-3139 2142 0
-3139 2135 0
3140 -2135 -2135 0
-3140 2135 0
-3140 2135 0
3141 -2135 -2142 0
-3141 2135 0
-3141 2142 0
3142 -2142 -2142 -2160 0
-3142 2142 0
-3142 2142 0
-3142 2160 0
-3143 2128 3139 3140 3141 3142 0
3143 -2128 0
3143 -3139 0
3143 -3140 0
3143 -3141 0
3143 -3142 0
3144 -2142 -2130 0
-3144 2142 0
-3144 2130 0
3145 -2135 -2130 0
-3145 2135 0
-3145 2130 0
3146 -2135 -2137 0
-3146 2135 0
-3146 2137 0
3147 -2142 -2137 -2160 0
-3147 2142 0
-3147 2137 0
-3147 2160 0
-844 2122 3144 3145 3146 3147 0
844 -2122 0
844 -3144 0
844 -3145 0
844 -3146 0
844 -3147 0
3148 -2142 -2133 0
-3148 2142 0
-3148 2133 0
3149 -2135 -2139 0
-3149 2135 0
-3149 2139 0
3150 -2135 -2133 0
-3150 2135 0
-3150 2133 0
3151 -2142 -2139 -2160 0
-3151 2142 0
-3151 2139 0
-3151 2160 0
-842 2121 3148 3149 3150 3151 0
842 -2121 0
842 -3148 0
842 -3149 0
842 -3150 0
842 -3151 0
3152 -2149 -2133 0
-3152 2149 0
-3152 2133 0
3153 -2154 -2133 0
-3153 2154 0
-3153 2133 0
3154 -2154 -2139 0
-3154 2154 0
-3154 2139 0
3155 -2149 -2139 -2160 0
-3155 2149 0
-3155 2139 0
-3155 2160 0
-845 2144 3152 3153 3154 3155 0
845 -2144 0
845 -3152 0
845 -3153 0
845 -3154 0
845 -3155 0
3156 -2137 -2154 0
-3156 2137 0
-3156 2154 0
3157 -2130 -2149 0
-3157 2130 0
-3157 2149 0
3158 -2130 -2154 0
-3158 2130 0
-3158 2154 0
3159 -2137 -2149 -2160 0
-3159 2137 0
-3159 2149 0
-3159 2160 0
-843 2146 3156 3157 3158 3159 0
843 -2146 0
843 -3156 0
843 -3157 0
843 -3158 0
843 -3159 0
3160 -2137 -2130 0
-3160 2137 0
-3160 2130 0
2156 -2130 -2130 0
-2156 2130 0
-2156 2130 0
3161 -2130 -2137 0
-3161 2130 0
-3161 2137 0
3162 -2137 -2137 -2160 0
-3162 2137 0
-3162 2137 0
-3162 2160 0
-3163 2126 3160 2156 3161 3162 0
3163 -2126 0
3163 -3160 0
3163 -2156 0
3163 -3161 0
3163 -3162 0
3164 -3165 -3165 0
-3164 3165 0
-3164 3165 0
-3166 3167 3164 0
3166 -3167 0
3166 -3164 0
3168 -3165 -3169 0
-3168 3165 0
-3168 3169 0
-1179 3170 3168 0
1179 -3170 0
1179 -3168 0
3171 -3165 -3172 0
-3171 3165 0
-3171 3172 0
-1177 3173 3171 0
1177 -3173 0
1177 -3171 0
3174 -3175 -3172 0
-3174 3175 0
-3174 3172 0
-1180 3176 3174 0
1180 -3176 0
1180 -3174 0
3177 -3169 -3175 0
-3177 3169 0
-3177 3175 0
-1178 3178 3177 0
1178 -3178 0
1178 -3177 0
3179 -3169 -3169 0
-3179 3169 0
-3179 3169 0
-3180 3181 3179 0
3180 -3181 0
3180 -3179 0
3182 -1469 -1469 0
-3182 1469 0
-3182 1469 0
-3183 1476 3182 0
3183 -1476 0
3183 -3182 0
3184 -1469 -1481 0
-3184 1469 0
-3184 1481 0
-624 1483 3184 0
624 -1483 0
624 -3184 0
3185 -1469 -1487 0
-3185 1469 0
-3185 1487 0
-622 1490 3185 0
622 -1490 0
622 -3185 0
3186 -1492 -1487 0
-3186 1492 0
-3186 1487 0
-625 1497 3186 0
625 -1497 0
625 -3186 0
3187 -1481 -1492 0
-3187 1481 0
-3187 1492 0
-623 1502 3187 0
623 -1502 0
623 -3187 0
3188 -1481 -1481 0
-3188 1481 0
-3188 1481 0
-3189 1508 3188 0
3189 -1508 0
3189 -3188 0
3190 -2170 -3191 0
-3190 2170 0
-3190 3191 0
3192 -3191 -3191 0
-3192 3191 0
-3192 3191 0
3193 -3191 -2170 0
-3193 3191 0
-3193 2170 0
3194 -2170 -2170 -3195 0
-3194 2170 0
-3194 2170 0
-3194 3195 0
-3196 2172 3190 3192 3193 3194 0
3196 -2172 0
3196 -3190 0
3196 -3192 0
3196 -3193 0
3196 -3194 0
3197 -2170 -3198 0
-3197 2170 0
-3197 3198 0
3199 -3191 -3198 0
-3199 3191 0
-3199 3198 0
3200 -3191 -2174 0
-3200 3191 0
-3200 2174 0
3201 -2170 -2174 -3195 0
-3201 2170 0
-3201 2174 0
-3201 3195 0
-154 2175 3197 3199 3200 3201 0
154 -2175 0
154 -3197 0
154 -3199 0
154 -3200 0
154 -3201 0
3202 -2170 -3203 0
-3202 2170 0
-3202 3203 0
3204 -3191 -2177 0
-3204 3191 0
-3204 2177 0
3205 -3191 -3203 0
-3205 3191 0
-3205 3203 0
3206 -2170 -2177 -3195 0
-3206 2170 0
-3206 2177 0
-3206 3195 0
-152 2178 3202 3204 3205 3206 0
152 -2178 0
152 -3202 0
152 -3204 0
152 -3205 0
152 -3206 0
3207 -2180 -3203 0
-3207 2180 0
-3207 3203 0
3208 -3209 -3203 0
-3208 3209 0
-3208 3203 0
3210 -3209 -2177 0
-3210 3209 0
-3210 2177 0
3211 -2180 -2177 -3195 0
-3211 2180 0
-3211 2177 0
-3211 3195 0
-155 2181 3207 3208 3210 3211 0
155 -2181 0
155 -3207 0
155 -3208 0
155 -3210 0
155 -3211 0
3212 -2174 -3209 0
-3212 2174 0
-3212 3209 0
3213 -3198 -2180 0
-3213 3198 0
-3213 2180 0
3214 -3198 -3209 0
-3214 3198 0
-3214 3209 0
3215 -2174 -2180 -3195 0
-3215 2174 0
-3215 2180 0
-3215 3195 0
-153 2183 3212 3213 3214 3215 0
153 -2183 0
153 -3212 0
153 -3213 0
153 -3214 0
153 -3215 0
3216 -2174 -3198 0
-3216 2174 0
-3216 3198 0
3217 -3198 -3198 0
-3217 3198 0
-3217 3198 0
3218 -3198 -2174 0
-3218 3198 0
-3218 2174 0
3219 -2174 -2174 -3195 0
-3219 2174 0
-3219 2174 0
-3219 3195 0
-3220 2186 3216 3217 3218 3219 0
3220 -2186 0
3220 -3216 0
3220 -3217 0
3220 -3218 0
3220 -3219 0
3221 -3032 -3222 0
-3221 3032 0
-3221 3222 0
3223 -3222 -3222 0
-3223 3222 0
-3223 3222 0
3224 -3222 -3032 0
-3224 3222 0
-3224 3032 0
3225 -3032 -3032 -3226 0
-3225 3032 0
-3225 3032 0
-3225 3226 0
-3227 3034 3221 3223 3224 3225 0
3227 -3034 0
3227 -3221 0
3227 -3223 0
3227 -3224 0
3227 -3225 0
3228 -3032 -3229 0
-3228 3032 0
-3228 3229 0
3230 -3222 -3229 0
-3230 3222 0
-3230 3229 0
3231 -3222 -3036 0
-3231 3222 0
-3231 3036 0
3232 -3032 -3036 -3226 0
-3232 3032 0
-3232 3036 0
-3232 3226 0
-1124 3037 3228 3230 3231 3232 0
1124 -3037 0
1124 -3228 0
1124 -3230 0
1124 -3231 0
1124 -3232 0
3233 -3032 -3234 0
-3233 3032 0
-3233 3234 0
3235 -3222 -3039 0
-3235 3222 0
-3235 3039 0
3236 -3222 -3234 0
-3236 3222 0
-3236 3234 0
3237 -3032 -3039 -3226 0
-3237 3032 0
-3237 3039 0
-3237 3226 0
-1122 3040 3233 3235 3236 3237 0
1122 -3040 0
1122 -3233 0
1122 -3235 0
1122 -3236 0
1122 -3237 0
3238 -3042 -3234 0
-3238 3042 0
-3238 3234 0
3239 -3240 -3234 0
-3239 3240 0
-3239 3234 0
3241 -3240 -3039 0
-3241 3240 0
-3241 3039 0
3242 -3042 -3039 -3226 0
-3242 3042 0
-3242 3039 0
-3242 3226 0
-1125 3043 3238 3239 3241 3242 0
1125 -3043 0
1125 -3238 0
1125 -3239 0
1125 -3241 0
1125 -3242 0
3243 -3036 -3240 0
-3243 3036 0
-3243 3240 0
3244 -3229 -3042 0
-3244 3229 0
-3244 3042 0
3245 -3229 -3240 0
-3245 3229 0
-3245 3240 0
3246 -3036 -3042 -3226 0
-3246 3036 0
-3246 3042 0
-3246 3226 0
-1123 3045 3243 3244 3245 3246 0
1123 -3045 0
1123 -3243 0
1123 -3244 0
1123 -3245 0
1123 -3246 0
3247 -3036 -3229 0
-3247 3036 0
-3247 3229 0
3248 -3229 -3229 0
-3248 3229 0
-3248 3229 0
3249 -3229 -3036 0
-3249 3229 0
-3249 3036 0
3250 -3036 -3036 -3226 0
-3250 3036 0
-3250 3036 0
-3250 3226 0
-3251 3048 3247 3248 3249 3250 0
3251 -3048 0
3251 -3247 0
3251 -3248 0
3251 -3249 0
3251 -3250 0
3252 -3253 -3253 0
-3252 3253 0
-3252 3253 0
-3254 3255 3252 0
3254 -3255 0
3254 -3252 0
3256 -3253 -3257 0
-3256 3253 0
-3256 3257 0
-534 3258 3256 0
534 -3258 0
534 -3256 0
3259 -3253 -3260 0
-3259 3253 0
-3259 3260 0
-532 3261 3259 0
532 -3261 0
532 -3259 0
3262 -3263 -3260 0
-3262 3263 0
-3262 3260 0
-535 3264 3262 0
535 -3264 0
535 -3262 0
3265 -3257 -3263 0
-3265 3257 0
-3265 3263 0
-533 3266 3265 0
533 -3266 0
533 -3265 0
3267 -3257 -3257 0
-3267 3257 0
-3267 3257 0
-3268 3269 3267 0
3268 -3269 0
3268 -3267 0
3270 -3271 -3272 0
-3270 3271 0
-3270 3272 0
3273 -3272 -3272 0
-3273 3272 0
-3273 3272 0
3274 -3272 -3271 0
-3274 3272 0
-3274 3271 0
3275 -3271 -3271 -3276 0
-3275 3271 0
-3275 3271 0
-3275 3276 0
-3277 3278 3270 3273 3274 3275 0
3277 -3278 0
3277 -3270 0
3277 -3273 0
3277 -3274 0
3277 -3275 0
3279 -3271 -3280 0
-3279 3271 0
-3279 3280 0
3281 -3272 -3280 0
-3281 3272 0
-3281 3280 0
3282 -3272 -3283 0
-3282 3272 0
-3282 3283 0
3284 -3271 -3283 -3276 0
-3284 3271 0
-3284 3283 0
-3284 3276 0
-39 3285 3279 3281 3282 3284 0
39 -3285 0
39 -3279 0
39 -3281 0
39 -3282 0
39 -3284 0
3286 -3271 -3287 0
-3286 3271 0
-3286 3287 0
3288 -3272 -3289 0
-3288 3272 0
-3288 3289 0
3290 -3272 -3287 0
-3290 3272 0
-3290 3287 0
3291 -3271 -3289 -3276 0
-3291 3271 0
-3291 3289 0
-3291 3276 0
-37 3292 3286 3288 3290 3291 0
37 -3292 0
37 -3286 0
37 -3288 0
37 -3290 0
37 -3291 0
3293 -3294 -3287 0
-3293 3294 0
-3293 3287 0
3295 -3296 -3287 0
-3295 3296 0
-3295 3287 0
3297 -3296 -3289 0
-3297 3296 0
-3297 3289 0
3298 -3294 -3289 -3276 0
-3298 3294 0
-3298 3289 0
-3298 3276 0
-40 3299 3293 3295 3297 3298 0
40 -3299 0
40 -3293 0
40 -3295 0
40 -3297 0
40 -3298 0
3300 -3283 -3296 0
-3300 3283 0
-3300 3296 0
3301 -3280 -3294 0
-3301 3280 0
-3301 3294 0
3302 -3280 -3296 0
-3302 3280 0
-3302 3296 0
3303 -3283 -3294 -3276 0
-3303 3283 0
-3303 3294 0
-3303 3276 0
-38 3304 3300 3301 3302 3303 0
38 -3304 0
38 -3300 0
38 -3301 0
38 -3302 0
38 -3303 0
3305 -3283 -3280 0
-3305 3283 0
-3305 3280 0
3306 -3280 -3280 0
-3306 3280 0
-3306 3280 0
3307 -3280 -3283 0
-3307 3280 0
-3307 3283 0
3308 -3283 -3283 -3276 0
-3308 3283 0
-3308 3283 0
-3308 3276 0
-3309 3310 3305 3306 3307 3308 0
3309 -3310 0
3309 -3305 0
3309 -3306 0
3309 -3307 0
3309 -3308 0
3311 -1893 -1886 0
-3311 1893 0
-3311 1886 0
3312 -1886 -1886 0
-3312 1886 0
-3312 1886 0
3313 -1886 -1893 0
-3313 1886 0
-3313 1893 0
3314 -1893 -1893 -1911 0
-3314 1893 0
-3314 1893 0
-3314 1911 0
-3315 1879 3311 3312 3313 3314 0
3315 -1879 0
3315 -3311 0
3315 -3312 0
3315 -3313 0
3315 -3314 0
3316 -1893 -1881 0
-3316 1893 0
-3316 1881 0
3317 -1886 -1881 0
-3317 1886 0
-3317 1881 0
3318 -1886 -1888 0
-3318 1886 0
-3318 1888 0
3319 -1893 -1888 -1911 0
-3319 1893 0
-3319 1888 0
-3319 1911 0
-389 1873 3316 3317 3318 3319 0
389 -1873 0
389 -3316 0
389 -3317 0
389 -3318 0
389 -3319 0
3320 -1893 -1884 0
-3320 1893 0
-3320 1884 0
3321 -1886 -1890 0
-3321 1886 0
-3321 1890 0
3322 -1886 -1884 0
-3322 1886 0
-3322 1884 0
3323 -1893 -1890 -1911 0
-3323 1893 0
-3323 1890 0
-3323 1911 0
-387 1872 3320 3321 3322 3323 0
387 -1872 0
387 -3320 0
387 -3321 0
387 -3322 0
387 -3323 0
3324 -1900 -1884 0
-3324 1900 0
-3324 1884 0
3325 -1905 -1884 0
-3325 1905 0
-3325 1884 0
3326 -1905 -1890 0
-3326 1905 0
-3326 1890 0
3327 -1900 -1890 -1911 0
-3327 1900 0
-3327 1890 0
-3327 1911 0
-390 1895 3324 3325 3326 3327 0
390 -1895 0
390 -3324 0
390 -3325 0
390 -3326 0
390 -3327 0
3328 -1888 -1905 0
-3328 1888 0
-3328 1905 0
3329 -1881 -1900 0
-3329 1881 0
-3329 1900 0
3330 -1881 -1905 0
-3330 1881 0
-3330 1905 0
3331 -1888 -1900 -1911 0
-3331 1888 0
-3331 1900 0
-3331 1911 0
-388 1897 3328 3329 3330 3331 0
388 -1897 0
388 -3328 0
388 -3329 0
388 -3330 0
388 -3331 0
3332 -1888 -1881 0
-3332 1888 0
-3332 1881 0
1907 -1881 -1881 0
-1907 1881 0
-1907 1881 0
3333 -1881 -1888 0
-3333 1881 0
-3333 1888 0
3334 -1888 -1888 -1911 0
-3334 1888 0
-3334 1888 0
-3334 1911 0
-3335 1877 3332 1907 3333 3334 0
3335 -1877 0
3335 -3332 0
3335 -1907 0
3335 -3333 0
3335 -3334 0
3336 -2591 -2591 0
-3336 2591 0
-3336 2591 0
-3337 2597 3336 0
3337 -2597 0
3337 -3336 0
3338 -2591 -1921 0
-3338 2591 0
-3338 1921 0
-394 2602 3338 0
394 -2602 0
394 -3338 0
3339 -2591 -1924 0
-3339 2591 0
-3339 1924 0
-392 2607 3339 0
392 -2607 0
392 -3339 0
3340 -1920 -1924 0
-3340 1920 0
-3340 1924 0
-395 1923 3340 0
395 -1923 0
395 -3340 0
3341 -1921 -1920 0
-3341 1921 0
-3341 1920 0
-393 1913 3341 0
393 -1913 0
393 -3341 0
3342 -1921 -1921 0
-3342 1921 0
-3342 1921 0
-3343 1915 3342 0
3343 -1915 0
3343 -3342 0
3344 -1615 -1591 0
-3344 1615 0
-3344 1591 0
1592 -1591 -1591 0
-1592 1591 0
-1592 1591 0
3345 -1591 -1615 0
-3345 1591 0
-3345 1615 0
3346 -1615 -1615 -1597 0
-3346 1615 0
-3346 1615 0
-3346 1597 0
-3347 1595 3344 1592 3345 3346 0
3347 -1595 0
3347 -3344 0
3347 -1592 0
3347 -3345 0
3347 -3346 0
3348 -1615 -1604 0
-3348 1615 0
-3348 1604 0
3349 -1591 -1604 0
-3349 1591 0
-3349 1604 0
3350 -1591 -1623 0
-3350 1591 0
-3350 1623 0
3351 -1615 -1623 -1597 0
-3351 1615 0
-3351 1623 0
-3351 1597 0
-149 1599 3348 3349 3350 3351 0
149 -1599 0
149 -3348 0
149 -3349 0
149 -3350 0
149 -3351 0
3352 -1615 -1611 0
-3352 1615 0
-3352 1611 0
3353 -1591 -1618 0
-3353 1591 0
-3353 1618 0
3354 -1591 -1611 0
-3354 1591 0
-3354 1611 0
3355 -1615 -1618 -1597 0
-3355 1615 0
-3355 1618 0
-3355 1597 0
-147 1606 3352 3353 3354 3355 0
147 -1606 0
147 -3352 0
147 -3353 0
147 -3354 0
147 -3355 0
3356 -1613 -1611 0
-3356 1613 0
-3356 1611 0
3357 -1590 -1611 0
-3357 1590 0
-3357 1611 0
3358 -1590 -1618 0
-3358 1590 0
-3358 1618 0
3359 -1613 -1618 -1597 0
-3359 1613 0
-3359 1618 0
-3359 1597 0
-150 1608 3356 3357 3358 3359 0
150 -1608 0
150 -3356 0
150 -3357 0
150 -3358 0
150 -3359 0
3360 -1623 -1590 0
-3360 1623 0
-3360 1590 0
3361 -1604 -1613 0
-3361 1604 0
-3361 1613 0
3362 -1604 -1590 0
-3362 1604 0
-3362 1590 0
3363 -1623 -1613 -1597 0
-3363 1623 0
-3363 1613 0
-3363 1597 0
-148 1602 3360 3361 3362 3363 0
148 -1602 0
148 -3360 0
148 -3361 0
148 -3362 0
148 -3363 0
3364 -1623 -1604 0
-3364 1623 0
-3364 1604 0
3365 -1604 -1604 0
-3365 1604 0
-3365 1604 0
3366 -1604 -1623 0
-3366 1604 0
-3366 1623 0
3367 -1623 -1623 -1597 0
-3367 1623 0
-3367 1623 0
-3367 1597 0
-3368 1629 3364 3365 3366 3367 0
3368 -1629 0
3368 -3364 0
3368 -3365 0
3368 -3366 0
3368 -3367 0
3369 -2278 -2254 0
-3369 2278 0
-3369 2254 0
2255 -2254 -2254 0
-2255 2254 0
-2255 2254 0
3370 -2254 -2278 0
-3370 2254 0
-3370 2278 0
3371 -2278 -2278 -2260 0
-3371 2278 0
-3371 2278 0
-3371 2260 0
-3372 2258 3369 2255 3370 3371 0
3372 -2258 0
3372 -3369 0
3372 -2255 0
3372 -3370 0
3372 -3371 0
3373 -2278 -2267 0
-3373 2278 0
-3373 2267 0
3374 -2254 -2267 0
-3374 2254 0
-3374 2267 0
3375 -2254 -2286 0
-3375 2254 0
-3375 2286 0
3376 -2278 -2286 -2260 0
-3376 2278 0
-3376 2286 0
-3376 2260 0
-459 2262 3373 3374 3375 3376 0
459 -2262 0
459 -3373 0
459 -3374 0
459 -3375 0
459 -3376 0
3377 -2278 -2274 0
-3377 2278 0
-3377 2274 0
3378 -2254 -2281 0
-3378 2254 0
-3378 2281 0
3379 -2254 -2274 0
-3379 2254 0
-3379 2274 0
3380 -2278 -2281 -2260 0
-3380 2278 0
-3380 2281 0
-3380 2260 0
-457 2269 3377 3378 3379 3380 0
457 -2269 0
457 -3377 0
457 -3378 0
457 -3379 0
457 -3380 0
3381 -2276 -2274 0
-3381 2276 0
-3381 2274 0
3382 -2253 -2274 0
-3382 2253 0
-3382 2274 0
3383 -2253 -2281 0
-3383 2253 0
-3383 2281 0
3384 -2276 -2281 -2260 0
-3384 2276 0
-3384 2281 0
-3384 2260 0
-460 2271 3381 3382 3383 3384 0
460 -2271 0
460 -3381 0
460 -3382 0
460 -3383 0
460 -3384 0
3385 -2286 -2253 0
-3385 2286 0
-3385 2253 0
3386 -2267 -2276 0
-3386 2267 0
-3386 2276 0
3387 -2267 -2253 0
-3387 2267 0
-3387 2253 0
3388 -2286 -2276 -2260 0
-3388 2286 0
-3388 2276 0
-3388 2260 0
-458 2265 3385 3386 3387 3388 0
458 -2265 0
458 -3385 0
458 -3386 0
458 -3387 0
458 -3388 0
3389 -2286 -2267 0
-3389 2286 0
-3389 2267 0
3390 -2267 -2267 0
-3390 2267 0
-3390 2267 0
3391 -2267 -2286 0
-3391 2267 0
-3391 2286 0
3392 -2286 -2286 -2260 0
-3392 2286 0
-3392 2286 0
-3392 2260 0
-3393 2292 3389 3390 3391 3392 0
3393 -2292 0
3393 -3389 0
3393 -3390 0
3393 -3391 0
3393 -3392 0
3394 -3395 -3396 0
-3394 3395 0
-3394 3396 0
3397 -3396 -3396 0
-3397 3396 0
-3397 3396 0
3398 -3396 -3395 0
-3398 3396 0
-3398 3395 0
3399 -3395 -3395 -3400 0
-3399 3395 0
-3399 3395 0
-3399 3400 0
-3401 3402 3394 3397 3398 3399 0
3401 -3402 0
3401 -3394 0
3401 -3397 0
3401 -3398 0
3401 -3399 0
3403 -3395 -3404 0
-3403 3395 0
-3403 3404 0
3405 -3396 -3404 0
-3405 3396 0
-3405 3404 0
3406 -3396 -3407 0
-3406 3396 0
-3406 3407 0
3408 -3395 -3407 -3400 0
-3408 3395 0
-3408 3407 0
-3408 3400 0
-789 3409 3403 3405 3406 3408 0
789 -3409 0
789 -3403 0
789 -3405 0
789 -3406 0
789 -3408 0
3410 -3395 -3411 0
-3410 3395 0
-3410 3411 0
3412 -3396 -3413 0
-3412 3396 0
-3412 3413 0
3414 -3396 -3411 0
-3414 3396 0
-3414 3411 0
3415 -3395 -3413 -3400 0
-3415 3395 0
-3415 3413 0
-3415 3400 0
-787 3416 3410 3412 3414 3415 0
787 -3416 0
787 -3410 0
787 -3412 0
787 -3414 0
787 -3415 0
3417 -3418 -3411 0
-3417 3418 0
-3417 3411 0
3419 -3420 -3411 0
-3419 3420 0
-3419 3411 0
3421 -3420 -3413 0
-3421 3420 0
-3421 3413 0
3422 -3418 -3413 -3400 0
-3422 3418 0
-3422 3413 0
-3422 3400 0
-790 3423 3417 3419 3421 3422 0
790 -3423 0
790 -3417 0
790 -3419 0
790 -3421 0
790 -3422 0
3424 -3407 -3420 0
-3424 3407 0
-3424 3420 0
3425 -3404 -3418 0
-3425 3404 0
-3425 3418 0
3426 -3404 -3420 0
-3426 3404 0
-3426 3420 0
3427 -3407 -3418 -3400 0
-3427 3407 0
-3427 3418 0
-3427 3400 0
-788 3428 3424 3425 3426 3427 0
788 -3428 0
788 -3424 0
788 -3425 0
788 -3426 0
788 -3427 0
3429 -3407 -3404 0
-3429 3407 0
-3429 3404 0
3430 -3404 -3404 0
-3430 3404 0
-3430 3404 0
3431 -3404 -3407 0
-3431 3404 0
-3431 3407 0
3432 -3407 -3407 -3400 0
-3432 3407 0
-3432 3407 0
-3432 3400 0
-3433 3434 3429 3430 3431 3432 0
3433 -3434 0
3433 -3429 0
3433 -3430 0
3433 -3431 0
3433 -3432 0
3435 -3436 -3436 0
-3435 3436 0
-3435 3436 0
-3437 3438 3435 0
3437 -3438 0
3437 -3435 0
3439 -3436 -3440 0
-3439 3436 0
-3439 3440 0
-804 3441 3439 0
804 -3441 0
804 -3439 0
3442 -3436 -3443 0
-3442 3436 0
-3442 3443 0
-802 3444 3442 0
802 -3444 0
802 -3442 0
3445 -3446 -3443 0
-3445 3446 0
-3445 3443 0
-805 3447 3445 0
805 -3447 0
805 -3445 0
3448 -3440 -3446 0
-3448 3440 0
-3448 3446 0
-803 3449 3448 0
803 -3449 0
803 -3448 0
3450 -3440 -3440 0
-3450 3440 0
-3450 3440 0
-3451 3452 3450 0
3451 -3452 0
3451 -3450 0
3453 -1656 -1632 0
-3453 1656 0
-3453 1632 0
1633 -1632 -1632 0
-1633 1632 0
-1633 1632 0
3454 -1632 -1656 0
-3454 1632 0
-3454 1656 0
3455 -1656 -1656 -1638 0
-3455 1656 0
-3455 1656 0
-3455 1638 0
-3456 1636 3453 1633 3454 3455 0
3456 -1636 0
3456 -3453 0
3456 -1633 0
3456 -3454 0
3456 -3455 0
3457 -1656 -1645 0
-3457 1656 0
-3457 1645 0
3458 -1632 -1645 0
-3458 1632 0
-3458 1645 0
3459 -1632 -1664 0
-3459 1632 0
-3459 1664 0
3460 -1656 -1664 -1638 0
-3460 1656 0
-3460 1664 0
-3460 1638 0
-614 1640 3457 3458 3459 3460 0
614 -1640 0
614 -3457 0
614 -3458 0
614 -3459 0
614 -3460 0
3461 -1656 -1652 0
-3461 1656 0
-3461 1652 0
3462 -1632 -1659 0
-3462 1632 0
-3462 1659 0
3463 -1632 -1652 0
-3463 1632 0
-3463 1652 0
3464 -1656 -1659 -1638 0
-3464 1656 0
-3464 1659 0
-3464 1638 0
-612 1647 3461 3462 3463 3464 0
612 -1647 0
612 -3461 0
612 -3462 0
612 -3463 0
612 -3464 0
3465 -1654 -1652 0
-3465 1654 0
-3465 1652 0
3466 -1631 -1652 0
-3466 1631 0
-3466 1652 0
3467 -1631 -1659 0
-3467 1631 0
-3467 1659 0
3468 -1654 -1659 -1638 0
-3468 1654 0
-3468 1659 0
-3468 1638 0
-615 1649 3465 3466 3467 3468 0
615 -1649 0
615 -3465 0
615 -3466 0
615 -3467 0
615 -3468 0
3469 -1664 -1631 0
-3469 1664 0
-3469 1631 0
3470 -1645 -1654 0
-3470 1645 0
-3470 1654 0
3471 -1645 -1631 0
-3471 1645 0
-3471 1631 0
3472 -1664 -1654 -1638 0
-3472 1664 0
-3472 1654 0
-3472 1638 0
-613 1643 3469 3470 3471 3472 0
613 -1643 0
613 -3469 0
613 -3470 0
613 -3471 0
613 -3472 0
3473 -1664 -1645 0
-3473 1664 0
-3473 1645 0
3474 -1645 -1645 0
-3474 1645 0
-3474 1645 0
3475 -1645 -1664 0
-3475 1645 0
-3475 1664 0
3476 -1664 -1664 -1638 0
-3476 1664 0
-3476 1664 0
-3476 1638 0
-3477 1670 3473 3474 3475 3476 0
3477 -1670 0
3477 -3473 0
3477 -3474 0
3477 -3475 0
3477 -3476 0
3478 -2886 -2862 0
-3478 2886 0
-3478 2862 0
2863 -2862 -2862 0
-2863 2862 0
-2863 2862 0
3479 -2862 -2886 0
-3479 2862 0
-3479 2886 0
3480 -2886 -2886 -2868 0
-3480 2886 0
-3480 2886 0
-3480 2868 0
-3481 2866 3478 2863 3479 3480 0
3481 -2866 0
3481 -3478 0
3481 -2863 0
3481 -3479 0
3481 -3480 0
3482 -2886 -2875 0
-3482 2886 0
-3482 2875 0
3483 -2862 -2875 0
-3483 2862 0
-3483 2875 0
3484 -2862 -2894 0
-3484 2862 0
-3484 2894 0
3485 -2886 -2894 -2868 0
-3485 2886 0
-3485 2894 0
-3485 2868 0
-134 2870 3482 3483 3484 3485 0
134 -2870 0
134 -3482 0
134 -3483 0
134 -3484 0
134 -3485 0
3486 -2886 -2882 0
-3486 2886 0
-3486 2882 0
3487 -2862 -2889 0
-3487 2862 0
-3487 2889 0
3488 -2862 -2882 0
-3488 2862 0
-3488 2882 0
3489 -2886 -2889 -2868 0
-3489 2886 0
-3489 2889 0
-3489 2868 0
-132 2877 3486 3487 3488 3489 0
132 -2877 0
132 -3486 0
132 -3487 0
132 -3488 0
132 -3489 0
3490 -2884 -2882 0
-3490 2884 0
-3490 2882 0
3491 -2861 -2882 0
-3491 2861 0
-3491 2882 0
3492 -2861 -2889 0
-3492 2861 0
-3492 2889 0
3493 -2884 -2889 -2868 0
-3493 2884 0
-3493 2889 0
-3493 2868 0
-135 2879 3490 3491 3492 3493 0
135 -2879 0
135 -3490 0
135 -3491 0
135 -3492 0
135 -3493 0
3494 -2894 -2861 0
-3494 2894 0
-3494 2861 0
3495 -2875 -2884 0
-3495 2875 0
-3495 2884 0
3496 -2875 -2861 0
-3496 2875 0
-3496 2861 0
3497 -2894 -2884 -2868 0
-3497 2894 0
-3497 2884 0
-3497 2868 0
-133 2873 3494 3495 3496 3497 0
133 -2873 0
133 -3494 0
133 -3495 0
133 -3496 0
133 -3497 0
3498 -2894 -2875 0
-3498 2894 0
-3498 2875 0
3499 -2875 -2875 0
-3499 2875 0
-3499 2875 0
3500 -2875 -2894 0
-3500 2875 0
-3500 2894 0
3501 -2894 -2894 -2868 0
-3501 2894 0
-3501 2894 0
-3501 2868 0
-3502 2900 3498 3499 3500 3501 0
3502 -2900 0
3502 -3498 0
3502 -3499 0
3502 -3500 0
3502 -3501 0
3503 -3504 -3505 0
-3503 3504 0
-3503 3505 0
3506 -3505 -3505 0
-3506 3505 0
-3506 3505 0
3507 -3505 -3504 0
-3507 3505 0
-3507 3504 0
3508 -3504 -3504 -3509 0
-3508 3504 0
-3508 3504 0
-3508 3509 0
-3510 3511 3503 3506 3507 3508 0
3510 -3511 0
3510 -3503 0
3510 -3506 0
3510 -3507 0
3510 -3508 0
3512 -3504 -3513 0
-3512 3504 0
-3512 3513 0
3514 -3505 -3513 0
-3514 3505 0
-3514 3513 0
3515 -3505 -3516 0
-3515 3505 0
-3515 3516 0
3517 -3504 -3516 -3509 0
-3517 3504 0
-3517 3516 0
-3517 3509 0
-329 3518 3512 3514 3515 3517 0
329 -3518 0
329 -3512 0
329 -3514 0
329 -3515 0
329 -3517 0
3519 -3504 -3520 0
-3519 3504 0
-3519 3520 0
3521 -3505 -3522 0
-3521 3505 0
-3521 3522 0
3523 -3505 -3520 0
-3523 3505 0
-3523 3520 0
3524 -3504 -3522 -3509 0
-3524 3504 0
-3524 3522 0
-3524 3509 0
-327 3525 3519 3521 3523 3524 0
327 -3525 0
327 -3519 0
327 -3521 0
327 -3523 0
327 -3524 0
3526 -3527 -3520 0
-3526 3527 0
-3526 3520 0
3528 -3529 -3520 0
-3528 3529 0
-3528 3520 0
3530 -3529 -3522 0
-3530 3529 0
-3530 3522 0
3531 -3527 -3522 -3509 0
-3531 3527 0
-3531 3522 0
-3531 3509 0
-330 3532 3526 3528 3530 3531 0
330 -3532 0
330 -3526 0
330 -3528 0
330 -3530 0
330 -3531 0
3533 -3516 -3529 0
-3533 3516 0
-3533 3529 0
3534 -3513 -3527 0
-3534 3513 0
-3534 3527 0
3535 -3513 -3529 0
-3535 3513 0
-3535 3529 0
3536 -3516 -3527 -3509 0
-3536 3516 0
-3536 3527 0
-3536 3509 0
-328 3537 3533 3534 3535 3536 0
328 -3537 0
328 -3533 0
328 -3534 0
328 -3535 0
328 -3536 0
3538 -3516 -3513 0
-3538 3516 0
-3538 3513 0
3539 -3513 -3513 0
-3539 3513 0
-3539 3513 0
3540 -3513 -3516 0
-3540 3513 0
-3540 3516 0
3541 -3516 -3516 -3509 0
-3541 3516 0
-3541 3516 0
-3541 3509 0
-3542 3543 3538 3539 3540 3541 0
3542 -3543 0
3542 -3538 0
3542 -3539 0
3542 -3540 0
3542 -3541 0
3544 -3545 -3546 0
-3544 3545 0
-3544 3546 0
3547 -3546 -3546 0
-3547 3546 0
-3547 3546 0
3548 -3546 -3545 0
-3548 3546 0
-3548 3545 0
3549 -3545 -3545 -3550 0
-3549 3545 0
-3549 3545 0
-3549 3550 0
-3551 3552 3544 3547 3548 3549 0
3551 -3552 0
3551 -3544 0
3551 -3547 0
3551 -3548 0
3551 -3549 0
3553 -3545 -3554 0
-3553 3545 0
-3553 3554 0
3555 -3546 -3554 0
-3555 3546 0
-3555 3554 0
3556 -3546 -3557 0
-3556 3546 0
-3556 3557 0
3558 -3545 -3557 -3550 0
-3558 3545 0
-3558 3557 0
-3558 3550 0
-264 3559 3553 3555 3556 3558 0
264 -3559 0
264 -3553 0
264 -3555 0
264 -3556 0
264 -3558 0
3560 -3545 -3561 0
-3560 3545 0
-3560 3561 0
3562 -3546 -3563 0
-3562 3546 0
-3562 3563 0
3564 -3546 -3561 0
-3564 3546 0
-3564 3561 0
3565 -3545 -3563 -3550 0
-3565 3545 0
-3565 3563 0
-3565 3550 0
-262 3566 3560 3562 3564 3565 0
262 -3566 0
262 -3560 0
262 -3562 0
262 -3564 0
262 -3565 0
3567 -3568 -3561 0
-3567 3568 0
-3567 3561 0
3569 -3570 -3561 0
-3569 3570 0
-3569 3561 0
3571 -3570 -3563 0
-3571 3570 0
-3571 3563 0
3572 -3568 -3563 -3550 0
-3572 3568 0
-3572 3563 0
-3572 3550 0
-265 3573 3567 3569 3571 3572 0
265 -3573 0
265 -3567 0
265 -3569 0
265 -3571 0
265 -3572 0
3574 -3557 -3570 0
-3574 3557 0
-3574 3570 0
3575 -3554 -3568 0
-3575 3554 0
-3575 3568 0
3576 -3554 -3570 0
-3576 3554 0
-3576 3570 0
3577 -3557 -3568 -3550 0
-3577 3557 0
-3577 3568 0
-3577 3550 0
-263 3578 3574 3575 3576 3577 0
263 -3578 0
263 -3574 0
263 -3575 0
263 -3576 0
263 -3577 0
3579 -3557 -3554 0
-3579 3557 0
-3579 3554 0
3580 -3554 -3554 0
-3580 3554 0
-3580 3554 0
3581 -3554 -3557 0
-3581 3554 0
-3581 3557 0
3582 -3557 -3557 -3550 0
-3582 3557 0
-3582 3557 0
-3582 3550 0
-3583 3584 3579 3580 3581 3582 0
3583 -3584 0
3583 -3579 0
3583 -3580 0
3583 -3581 0
3583 -3582 0
3585 -1572 -3586 0
-3585 1572 0
-3585 3586 0
3587 -3586 -3586 0
-3587 3586 0
-3587 3586 0
3588 -3586 -1572 0
-3588 3586 0
-3588 1572 0
3589 -1572 -1572 -3590 0
-3589 1572 0
-3589 1572 0
-3589 3590 0
-3591 1574 3585 3587 3588 3589 0
3591 -1574 0
3591 -3585 0
3591 -3587 0
3591 -3588 0
3591 -3589 0
3592 -1572 -3593 0
-3592 1572 0
-3592 3593 0
3594 -3586 -3593 0
-3594 3586 0
-3594 3593 0
3595 -3586 -1576 0
-3595 3586 0
-3595 1576 0
3596 -1572 -1576 -3590 0
-3596 1572 0
-3596 1576 0
-3596 3590 0
-64 1577 3592 3594 3595 3596 0
64 -1577 0
64 -3592 0
64 -3594 0
64 -3595 0
64 -3596 0
3597 -1572 -3598 0
-3597 1572 0
-3597 3598 0
3599 -3586 -1579 0
-3599 3586 0
-3599 1579 0
3600 -3586 -3598 0
-3600 3586 0
-3600 3598 0
3601 -1572 -1579 -3590 0
-3601 1572 0
-3601 1579 0
-3601 3590 0
-62 1580 3597 3599 3600 3601 0
62 -1580 0
62 -3597 0
62 -3599 0
62 -3600 0
62 -3601 0
3602 -1582 -3598 0
-3602 1582 0
-3602 3598 0
3603 -3604 -3598 0
-3603 3604 0
-3603 3598 0
3605 -3604 -1579 0
-3605 3604 0
-3605 1579 0
3606 -1582 -1579 -3590 0
-3606 1582 0
-3606 1579 0
-3606 3590 0
-65 1583 3602 3603 3605 3606 0
65 -1583 0
65 -3602 0
65 -3603 0
65 -3605 0
65 -3606 0
3607 -1576 -3604 0
-3607 1576 0
-3607 3604 0
3608 -3593 -1582 0
-3608 3593 0
-3608 1582 0
3609 -3593 -3604 0
-3609 3593 0
-3609 3604 0
3610 -1576 -1582 -3590 0
-3610 1576 0
-3610 1582 0
-3610 3590 0
-63 1585 3607 3608 3609 3610 0
63 -1585 0
63 -3607 0
63 -3608 0
63 -3609 0
63 -3610 0
3611 -1576 -3593 0
-3611 1576 0
-3611 3593 0
3612 -3593 -3593 0
-3612 3593 0
-3612 3593 0
3613 -3593 -1576 0
-3613 3593 0
-3613 1576 0
3614 -1576 -1576 -3590 0
-3614 1576 0
-3614 1576 0
-3614 3590 0
-3615 1588 3611 3612 3613 3614 0
3615 -1588 0
3615 -3611 0
3615 -3612 0
3615 -3613 0
3615 -3614 0
3616 -3617 -3617 0
-3616 3617 0
-3616 3617 0
-3618 3619 3616 0
3618 -3619 0
3618 -3616 0
3620 -3617 -3266 0
-3620 3617 0
-3620 3266 0
-414 3621 3620 0
414 -3621 0
414 -3620 0
3622 -3617 -3264 0
-3622 3617 0
-3622 3264 0
-412 3623 3622 0
412 -3623 0
412 -3622 0
3624 -3263 -3264 0
-3624 3263 0
-3624 3264 0
-415 3260 3624 0
415 -3260 0
415 -3624 0
3625 -3266 -3263 0
-3625 3266 0
-3625 3263 0
-413 3257 3625 0
413 -3257 0
413 -3625 0
3626 -3266 -3266 0
-3626 3266 0
-3626 3266 0
-3627 3269 3626 0
3627 -3269 0
3627 -3626 0
3628 -3629 -3629 0
-3628 3629 0
-3628 3629 0
-3630 3631 3628 0
3630 -3631 0
3630 -3628 0
3632 -3629 -3633 0
-3632 3629 0
-3632 3633 0
-159 3634 3632 0
159 -3634 0
159 -3632 0
3635 -3629 -3636 0
-3635 3629 0
-3635 3636 0
-157 3637 3635 0
157 -3637 0
157 -3635 0
3638 -3639 -3636 0
-3638 3639 0
-3638 3636 0
-160 3640 3638 0
160 -3640 0
160 -3638 0
3641 -3633 -3639 0
-3641 3633 0
-3641 3639 0
-158 3642 3641 0
158 -3642 0
158 -3641 0
3643 -3633 -3633 0
-3643 3633 0
-3643 3633 0
-3644 3645 3643 0
3644 -3645 0
3644 -3643 0
3646 -2142 -2142 0
-3646 2142 0
-3646 2142 0
-3647 2128 3646 0
3647 -2128 0
3647 -3646 0
3648 -2142 -2137 0
-3648 2142 0
-3648 2137 0
-1129 2122 3648 0
1129 -2122 0
1129 -3648 0
3649 -2142 -2139 0
-3649 2142 0
-3649 2139 0
-1127 2121 3649 0
1127 -2121 0
1127 -3649 0
3650 -2149 -2139 0
-3650 2149 0
-3650 2139 0
-1130 2144 3650 0
1130 -2144 0
1130 -3650 0
3651 -2137 -2149 0
-3651 2137 0
-3651 2149 0
-1128 2146 3651 0
1128 -2146 0
1128 -3651 0
3652 -2137 -2137 0
-3652 2137 0
-3652 2137 0
-3653 2126 3652 0
3653 -2126 0
3653 -3652 0
3654 -2055 -2048 0
-3654 2055 0
-3654 2048 0
2074 -2048 -2048 0
-2074 2048 0
-2074 2048 0
3655 -2048 -2055 0
-3655 2048 0
-3655 2055 0
3656 -2055 -2055 -2078 0
-3656 2055 0
-3656 2055 0
-3656 2078 0
-3657 2044 3654 2074 3655 3656 0
3657 -2044 0
3657 -3654 0
3657 -2074 0
3657 -3655 0
3657 -3656 0
3658 -2055 -2053 0
-3658 2055 0
-3658 2053 0
3659 -2048 -2053 0
-3659 2048 0
-3659 2053 0
3660 -2048 -2060 0
-3660 2048 0
-3660 2060 0
3661 -2055 -2060 -2078 0
-3661 2055 0
-3661 2060 0
-3661 2078 0
-399 2040 3658 3659 3660 3661 0
399 -2040 0
399 -3658 0
399 -3659 0
399 -3660 0
399 -3661 0
3662 -2055 -2072 0
-3662 2055 0
-3662 2072 0
3663 -2048 -2067 0
-3663 2048 0
-3663 2067 0
3664 -2048 -2072 0
-3664 2048 0
-3664 2072 0
3665 -2055 -2067 -2078 0
-3665 2055 0
-3665 2067 0
-3665 2078 0
-397 2064 3662 3663 3664 3665 0
397 -2064 0
397 -3662 0
397 -3663 0
397 -3664 0
397 -3665 0
3666 -2057 -2072 0
-3666 2057 0
-3666 2072 0
3667 -2051 -2072 0
-3667 2051 0
-3667 2072 0
3668 -2051 -2067 0
-3668 2051 0
-3668 2067 0
3669 -2057 -2067 -2078 0
-3669 2057 0
-3669 2067 0
-3669 2078 0
-400 2062 3666 3667 3668 3669 0
400 -2062 0
400 -3666 0
400 -3667 0
400 -3668 0
400 -3669 0
3670 -2060 -2051 0
-3670 2060 0
-3670 2051 0
3671 -2053 -2057 0
-3671 2053 0
-3671 2057 0
3672 -2053 -2051 0
-3672 2053 0
-3672 2051 0
3673 -2060 -2057 -2078 0
-3673 2060 0
-3673 2057 0
-3673 2078 0
-398 2039 3670 3671 3672 3673 0
398 -2039 0
398 -3670 0
398 -3671 0
398 -3672 0
398 -3673 0
3674 -2060 -2053 0
-3674 2060 0
-3674 2053 0
3019 -2053 -2053 0
-3019 2053 0
-3019 2053 0
3675 -2053 -2060 0
-3675 2053 0
-3675 2060 0
3676 -2060 -2060 -2078 0
-3676 2060 0
-3676 2060 0
-3676 2078 0
-3677 2046 3674 3019 3675 3676 0
3677 -2046 0
3677 -3674 0
3677 -3019 0
3677 -3675 0
3677 -3676 0
3678 -2212 -2212 0
-3678 2212 0
-3678 2212 0
-3679 2219 3678 0
3679 -2219 0
3679 -3678 0
3680 -2212 -2224 0
-3680 2212 0
-3680 2224 0
-1009 2226 3680 0
1009 -2226 0
1009 -3680 0
3681 -2212 -2230 0
-3681 2212 0
-3681 2230 0
-1007 2233 3681 0
1007 -2233 0
1007 -3681 0
3682 -2235 -2230 0
-3682 2235 0
-3682 2230 0
-1010 2240 3682 0
1010 -2240 0
1010 -3682 0
3683 -2224 -2235 0
-3683 2224 0
-3683 2235 0
-1008 2245 3683 0
1008 -2245 0
1008 -3683 0
3684 -2224 -2224 0
-3684 2224 0
-3684 2224 0
-3685 2251 3684 0
3685 -2251 0
3685 -3684 0
3686 -2479 -2479 0
-3686 2479 0
-3686 2479 0
-3687 2486 3686 0
3687 -2486 0
3687 -3686 0
3688 -2479 -2491 0
-3688 2479 0
-3688 2491 0
-814 2493 3688 0
814 -2493 0
814 -3688 0
3689 -2479 -2497 0
-3689 2479 0
-3689 2497 0
-812 2500 3689 0
812 -2500 0
812 -3689 0
3690 -2502 -2497 0
-3690 2502 0
-3690 2497 0
-815 2507 3690 0
815 -2507 0
815 -3690 0
3691 -2491 -2502 0
-3691 2491 0
-3691 2502 0
-813 2512 3691 0
813 -2512 0
813 -3691 0
3692 -2491 -2491 0
-3692 2491 0
-3692 2491 0
-3693 2518 3692 0
3693 -2518 0
3693 -3692 0
3694 -3695 -3695 0
-3694 3695 0
-3694 3695 0
-3696 3697 3694 0
3696 -3697 0
3696 -3694 0
3698 -3695 -3699 0
-3698 3695 0
-3698 3699 0
-119 3700 3698 0
119 -3700 0
119 -3698 0
3701 -3695 -3702 0
-3701 3695 0
-3701 3702 0
-117 3703 3701 0
117 -3703 0
117 -3701 0
3704 -3705 -3702 0
-3704 3705 0
-3704 3702 0
-120 3706 3704 0
120 -3706 0
120 -3704 0
3707 -3699 -3705 0
-3707 3699 0
-3707 3705 0
-118 3708 3707 0
118 -3708 0
118 -3707 0
3709 -3699 -3699 0
-3709 3699 0
-3709 3699 0
-3710 3711 3709 0
3710 -3711 0
3710 -3709 0
3712 -2753 -2753 0
-3712 2753 0
-3712 2753 0
-3713 2733 3712 0
3713 -2733 0
3713 -3712 0
3714 -2753 -2761 0
-3714 2753 0
-3714 2761 0
-989 2737 3714 0
989 -2737 0
989 -3714 0
3715 -2753 -2756 0
-3715 2753 0
-3715 2756 0
-987 2744 3715 0
987 -2744 0
987 -3715 0
3716 -2751 -2756 0
-3716 2751 0
-3716 2756 0
-990 2746 3716 0
990 -2746 0
990 -3716 0
3717 -2761 -2751 0
-3717 2761 0
-3717 2751 0
-988 2740 3717 0
988 -2740 0
988 -3717 0
3718 -2761 -2761 0
-3718 2761 0
-3718 2761 0
-3719 2767 3718 0
3719 -2767 0
3719 -3718 0
3720 -3721 -3722 0
-3720 3721 0
-3720 3722 0
3723 -3722 -3722 0
-3723 3722 0
-3723 3722 0
3724 -3722 -3721 0
-3724 3722 0
-3724 3721 0
3725 -3721 -3721 -3631 0
-3725 3721 0
-3725 3721 0
-3725 3631 0
-3726 3727 3720 3723 3724 3725 0
3726 -3727 0
3726 -3720 0
3726 -3723 0
3726 -3724 0
3726 -3725 0
3728 -3721 -3634 0
-3728 3721 0
-3728 3634 0
3729 -3722 -3634 0
-3729 3722 0
-3729 3634 0
3730 -3722 -3642 0
-3730 3722 0
-3730 3642 0
3731 -3721 -3642 -3631 0
-3731 3721 0
-3731 3642 0
-3731 3631 0
-44 3732 3728 3729 3730 3731 0
44 -3732 0
44 -3728 0
44 -3729 0
44 -3730 0
44 -3731 0
3733 -3721 -3637 0
-3733 3721 0
-3733 3637 0
3734 -3722 -3640 0
-3734 3722 0
-3734 3640 0
3735 -3722 -3637 0
-3735 3722 0
-3735 3637 0
3736 -3721 -3640 -3631 0
-3736 3721 0
-3736 3640 0
-3736 3631 0
-42 3737 3733 3734 3735 3736 0
42 -3737 0
42 -3733 0
42 -3734 0
42 -3735 0
42 -3736 0
3738 -3639 -3637 0
-3738 3639 0
-3738 3637 0
3739 -3629 -3637 0
-3739 3629 0
-3739 3637 0
3740 -3629 -3640 0
-3740 3629 0
-3740 3640 0
3741 -3639 -3640 -3631 0
-3741 3639 0
-3741 3640 0
-3741 3631 0
-45 3636 3738 3739 3740 3741 0
45 -3636 0
45 -3738 0
45 -3739 0
45 -3740 0
45 -3741 0
3742 -3642 -3629 0
-3742 3642 0
-3742 3629 0
3743 -3634 -3639 0
-3743 3634 0
-3743 3639 0
3744 -3634 -3629 0
-3744 3634 0
-3744 3629 0
3745 -3642 -3639 -3631 0
-3745 3642 0
-3745 3639 0
-3745 3631 0
-43 3633 3742 3743 3744 3745 0
43 -3633 0
43 -3742 0
43 -3743 0
43 -3744 0
43 -3745 0
3746 -3642 -3634 0
-3746 3642 0
-3746 3634 0
3747 -3634 -3634 0
-3747 3634 0
-3747 3634 0
3748 -3634 -3642 0
-3748 3634 0
-3748 3642 0
3749 -3642 -3642 -3631 0
-3749 3642 0
-3749 3642 0
-3749 3631 0
-3750 3645 3746 3747 3748 3749 0
3750 -3645 0
3750 -3746 0
3750 -3747 0
3750 -3748 0
3750 -3749 0
3751 -3752 -3753 0
-3751 3752 0
-3751 3753 0
3754 -3753 -3753 0
-3754 3753 0
-3754 3753 0
3755 -3753 -3752 0
-3755 3753 0
-3755 3752 0
3756 -3752 -3752 -3757 0
-3756 3752 0
-3756 3752 0
-3756 3757 0
-3758 3759 3751 3754 3755 3756 0
3758 -3759 0
3758 -3751 0
3758 -3754 0
3758 -3755 0
3758 -3756 0
3760 -3752 -3761 0
-3760 3752 0
-3760 3761 0
3762 -3753 -3761 0
-3762 3753 0
-3762 3761 0
3763 -3753 -3764 0
-3763 3753 0
-3763 3764 0
3765 -3752 -3764 -3757 0
-3765 3752 0
-3765 3764 0
-3765 3757 0
-764 3766 3760 3762 3763 3765 0
764 -3766 0
764 -3760 0
764 -3762 0
764 -3763 0
764 -3765 0
3767 -3752 -3768 0
-3767 3752 0
-3767 3768 0
3769 -3753 -3770 0
-3769 3753 0
-3769 3770 0
3771 -3753 -3768 0
-3771 3753 0
-3771 3768 0
3772 -3752 -3770 -3757 0
-3772 3752 0
-3772 3770 0
-3772 3757 0
-762 3773 3767 3769 3771 3772 0
762 -3773 0
762 -3767 0
762 -3769 0
762 -3771 0
762 -3772 0
3774 -3775 -3768 0
-3774 3775 0
-3774 3768 0
3776 -3777 -3768 0
-3776 3777 0
-3776 3768 0
3778 -3777 -3770 0
-3778 3777 0
-3778 3770 0
3779 -3775 -3770 -3757 0
-3779 3775 0
-3779 3770 0
-3779 3757 0
-765 3780 3774 3776 3778 3779 0
765 -3780 0
765 -3774 0
765 -3776 0
765 -3778 0
765 -3779 0
3781 -3764 -3777 0
-3781 3764 0
-3781 3777 0
3782 -3761 -3775 0
-3782 3761 0
-3782 3775 0
3783 -3761 -3777 0
-3783 3761 0
-3783 3777 0
3784 -3764 -3775 -3757 0
-3784 3764 0
-3784 3775 0
-3784 3757 0
-763 3785 3781 3782 3783 3784 0
763 -3785 0
763 -3781 0
763 -3782 0
763 -3783 0
763 -3784 0
3786 -3764 -3761 0
-3786 3764 0
-3786 3761 0
3787 -3761 -3761 0
-3787 3761 0
-3787 3761 0
3788 -3761 -3764 0
-3788 3761 0
-3788 3764 0
3789 -3764 -3764 -3757 0
-3789 3764 0
-3789 3764 0
-3789 3757 0
-3790 3791 3786 3787 3788 3789 0
3790 -3791 0
3790 -3786 0
3790 -3787 0
3790 -3788 0
3790 -3789 0
3792 -2678 -2678 0
-3792 2678 0
-3792 2678 0
-3793 2658 3792 0
3793 -2658 0
3793 -3792 0
3794 -2678 -2686 0
-3794 2678 0
-3794 2686 0
-469 2662 3794 0
469 -2662 0
469 -3794 0
3795 -2678 -2681 0
-3795 2678 0
-3795 2681 0
-467 2669 3795 0
467 -2669 0
467 -3795 0
3796 -2676 -2681 0
-3796 2676 0
-3796 2681 0
-470 2671 3796 0
470 -2671 0
470 -3796 0
3797 -2686 -2676 0
-3797 2686 0
-3797 2676 0
-468 2665 3797 0
468 -2665 0
468 -3797 0
3798 -2686 -2686 0
-3798 2686 0
-3798 2686 0
-3799 2692 3798 0
3799 -2692 0
3799 -3798 0
3800 -3617 -3801 0
-3800 3617 0
-3800 3801 0
3802 -3801 -3801 0
-3802 3801 0
-3802 3801 0
3803 -3801 -3617 0
-3803 3801 0
-3803 3617 0
3804 -3617 -3617 -3255 0
-3804 3617 0
-3804 3617 0
-3804 3255 0
-3805 3619 3800 3802 3803 3804 0
3805 -3619 0
3805 -3800 0
3805 -3802 0
3805 -3803 0
3805 -3804 0
3806 -3617 -3258 0
-3806 3617 0
-3806 3258 0
3807 -3801 -3258 0
-3807 3801 0
-3807 3258 0
3808 -3801 -3266 0
-3808 3801 0
-3808 3266 0
3809 -3617 -3266 -3255 0
-3809 3617 0
-3809 3266 0
-3809 3255 0
-109 3621 3806 3807 3808 3809 0
109 -3621 0
109 -3806 0
109 -3807 0
109 -3808 0
109 -3809 0
3810 -3617 -3261 0
-3810 3617 0
-3810 3261 0
3811 -3801 -3264 0
-3811 3801 0
-3811 3264 0
3812 -3801 -3261 0
-3812 3801 0
-3812 3261 0
3813 -3617 -3264 -3255 0
-3813 3617 0
-3813 3264 0
-3813 3255 0
-107 3623 3810 3811 3812 3813 0
107 -3623 0
107 -3810 0
107 -3811 0
107 -3812 0
107 -3813 0
3814 -3263 -3261 0
-3814 3263 0
-3814 3261 0
3815 -3253 -3261 0
-3815 3253 0
-3815 3261 0
3816 -3253 -3264 0
-3816 3253 0
-3816 3264 0
3817 -3263 -3264 -3255 0
-3817 3263 0
-3817 3264 0
-3817 3255 0
-110 3260 3814 3815 3816 3817 0
110 -3260 0
110 -3814 0
110 -3815 0
110 -3816 0
110 -3817 0
3818 -3266 -3253 0
-3818 3266 0
-3818 3253 0
3819 -3258 -3263 0
-3819 3258 0
-3819 3263 0
3820 -3258 -3253 0
-3820 3258 0
-3820 3253 0
3821 -3266 -3263 -3255 0
-3821 3266 0
-3821 3263 0
-3821 3255 0
-108 3257 3818 3819 3820 3821 0
108 -3257 0
108 -3818 0
108 -3819 0
108 -3820 0
108 -3821 0
3822 -3266 -3258 0
-3822 3266 0
-3822 3258 0
3823 -3258 -3258 0
-3823 3258 0
-3823 3258 0
3824 -3258 -3266 0
-3824 3258 0
-3824 3266 0
3825 -3266 -3266 -3255 0
-3825 3266 0
-3825 3266 0
-3825 3255 0
-3826 3269 3822 3823 3824 3825 0
3826 -3269 0
3826 -3822 0
3826 -3823 0
3826 -3824 0
3826 -3825 0
3827 -3828 -3829 0
-3827 3828 0
-3827 3829 0
3830 -3829 -3829 0
-3830 3829 0
-3830 3829 0
3831 -3829 -3828 0
-3831 3829 0
-3831 3828 0
3832 -3828 -3828 -3833 0
-3832 3828 0
-3832 3828 0
-3832 3833 0
-3834 3835 3827 3830 3831 3832 0
3834 -3835 0
3834 -3827 0
3834 -3830 0
3834 -3831 0
3834 -3832 0
3836 -3828 -3837 0
-3836 3828 0
-3836 3837 0
3838 -3829 -3837 0
-3838 3829 0
-3838 3837 0
3839 -3829 -3840 0
-3839 3829 0
-3839 3840 0
3841 -3828 -3840 -3833 0
-3841 3828 0
-3841 3840 0
-3841 3833 0
-749 3842 3836 3838 3839 3841 0
749 -3842 0
749 -3836 0
749 -3838 0
749 -3839 0
749 -3841 0
3843 -3828 -3844 0
-3843 3828 0
-3843 3844 0
3845 -3829 -3846 0
-3845 3829 0
-3845 3846 0
3847 -3829 -3844 0
-3847 3829 0
-3847 3844 0
3848 -3828 -3846 -3833 0
-3848 3828 0
-3848 3846 0
-3848 3833 0
-747 3849 3843 3845 3847 3848 0
747 -3849 0
747 -3843 0
747 -3845 0
747 -3847 0
747 -3848 0
3850 -3851 -3844 0
-3850 3851 0
-3850 3844 0
3852 -3853 -3844 0
-3852 3853 0
-3852 3844 0
3854 -3853 -3846 0
-3854 3853 0
-3854 3846 0
3855 -3851 -3846 -3833 0
-3855 3851 0
-3855 3846 0
-3855 3833 0
-750 3856 3850 3852 3854 3855 0
750 -3856 0
750 -3850 0
750 -3852 0
750 -3854 0
750 -3855 0
3857 -3840 -3853 0
-3857 3840 0
-3857 3853 0
3858 -3837 -3851 0
-3858 3837 0
-3858 3851 0
3859 -3837 -3853 0
-3859 3837 0
-3859 3853 0
3860 -3840 -3851 -3833 0
-3860 3840 0
-3860 3851 0
-3860 3833 0
-748 3861 3857 3858 3859 3860 0
748 -3861 0
748 -3857 0
748 -3858 0
748 -3859 0
748 -3860 0
3862 -3840 -3837 0
-3862 3840 0
-3862 3837 0
3863 -3837 -3837 0
-3863 3837 0
-3863 3837 0
3864 -3837 -3840 0
-3864 3837 0
-3864 3840 0
3865 -3840 -3840 -3833 0
-3865 3840 0
-3865 3840 0
-3865 3833 0
-3866 3867 3862 3863 3864 3865 0
3866 -3867 0
3866 -3862 0
3866 -3863 0
3866 -3864 0
3866 -3865 0
3868 -2121 -2121 0
-3868 2121 0
-3868 2121 0
-3869 2128 3868 0
3869 -2128 0
3869 -3868 0
3870 -2121 -2133 0
-3870 2121 0
-3870 2133 0
-1134 2135 3870 0
1134 -2135 0
1134 -3870 0
3871 -2121 -2139 0
-3871 2121 0
-3871 2139 0
-1132 2142 3871 0
1132 -2142 0
1132 -3871 0
3872 -2144 -2139 0
-3872 2144 0
-3872 2139 0
-1135 2149 3872 0
1135 -2149 0
1135 -3872 0
3873 -2133 -2144 0
-3873 2133 0
-3873 2144 0
-1133 2154 3873 0
1133 -2154 0
1133 -3873 0
3874 -2133 -2133 0
-3874 2133 0
-3874 2133 0
-3875 2160 3874 0
3875 -2160 0
3875 -3874 0
3876 -3081 -3877 0
-3876 3081 0
-3876 3877 0
3878 -3877 -3877 0
-3878 3877 0
-3878 3877 0
3879 -3877 -3081 0
-3879 3877 0
-3879 3081 0
3880 -3081 -3081 -3881 0
-3880 3081 0
-3880 3081 0
-3880 3881 0
-3882 3083 3876 3878 3879 3880 0
3882 -3083 0
3882 -3876 0
3882 -3878 0
3882 -3879 0
3882 -3880 0
3883 -3081 -3884 0
-3883 3081 0
-3883 3884 0
3885 -3877 -3884 0
-3885 3877 0
-3885 3884 0
3886 -3877 -3085 0
-3886 3877 0
-3886 3085 0
3887 -3081 -3085 -3881 0
-3887 3081 0
-3887 3085 0
-3887 3881 0
-699 3086 3883 3885 3886 3887 0
699 -3086 0
699 -3883 0
699 -3885 0
699 -3886 0
699 -3887 0
3888 -3081 -3889 0
-3888 3081 0
-3888 3889 0
3890 -3877 -3088 0
-3890 3877 0
-3890 3088 0
3891 -3877 -3889 0
-3891 3877 0
-3891 3889 0
3892 -3081 -3088 -3881 0
-3892 3081 0
-3892 3088 0
-3892 3881 0
-697 3089 3888 3890 3891 3892 0
697 -3089 0
697 -3888 0
697 -3890 0
697 -3891 0
697 -3892 0
3893 -3091 -3889 0
-3893 3091 0
-3893 3889 0
3894 -3895 -3889 0
-3894 3895 0
-3894 3889 0
3896 -3895 -3088 0
-3896 3895 0
-3896 3088 0
3897 -3091 -3088 -3881 0
-3897 3091 0
-3897 3088 0
-3897 3881 0
-700 3092 3893 3894 3896 3897 0
700 -3092 0
700 -3893 0
700 -3894 0
700 -3896 0
700 -3897 0
3898 -3085 -3895 0
-3898 3085 0
-3898 3895 0
3899 -3884 -3091 0
-3899 3884 0
-3899 3091 0
3900 -3884 -3895 0
-3900 3884 0
-3900 3895 0
3901 -3085 -3091 -3881 0
-3901 3085 0
-3901 3091 0
-3901 3881 0
-698 3094 3898 3899 3900 3901 0
698 -3094 0
698 -3898 0
698 -3899 0
698 -3900 0
698 -3901 0
3902 -3085 -3884 0
-3902 3085 0
-3902 3884 0
3903 -3884 -3884 0
-3903 3884 0
-3903 3884 0
3904 -3884 -3085 0
-3904 3884 0
-3904 3085 0
3905 -3085 -3085 -3881 0
-3905 3085 0
-3905 3085 0
-3905 3881 0
-3906 3097 3902 3903 3904 3905 0
3906 -3097 0
3906 -3902 0
3906 -3903 0
3906 -3904 0
3906 -3905 0
3907 -2417 -3908 0
-3907 2417 0
-3907 3908 0
3909 -3908 -3908 0
-3909 3908 0
-3909 3908 0
3910 -3908 -2417 0
-3910 3908 0
-3910 2417 0
3911 -2417 -2417 -3912 0
-3911 2417 0
-3911 2417 0
-3911 3912 0
-3913 2419 3907 3909 3910 3911 0
3913 -2419 0
3913 -3907 0
3913 -3909 0
3913 -3910 0
3913 -3911 0
3914 -2417 -3915 0
-3914 2417 0
-3914 3915 0
3916 -3908 -3915 0
-3916 3908 0
-3916 3915 0
3917 -3908 -2421 0
-3917 3908 0
-3917 2421 0
3918 -2417 -2421 -3912 0
-3918 2417 0
-3918 2421 0
-3918 3912 0
-489 2422 3914 3916 3917 3918 0
489 -2422 0
489 -3914 0
489 -3916 0
489 -3917 0
489 -3918 0
3919 -2417 -3920 0
-3919 2417 0
-3919 3920 0
3921 -3908 -2424 0
-3921 3908 0
-3921 2424 0
3922 -3908 -3920 0
-3922 3908 0
-3922 3920 0
3923 -2417 -2424 -3912 0
-3923 2417 0
-3923 2424 0
-3923 3912 0
-487 2425 3919 3921 3922 3923 0
487 -2425 0
487 -3919 0
487 -3921 0
487 -3922 0
487 -3923 0
3924 -2427 -3920 0
-3924 2427 0
-3924 3920 0
3925 -3926 -3920 0
-3925 3926 0
-3925 3920 0
3927 -3926 -2424 0
-3927 3926 0
-3927 2424 0
3928 -2427 -2424 -3912 0
-3928 2427 0
-3928 2424 0
-3928 3912 0
-490 2428 3924 3925 3927 3928 0
490 -2428 0
490 -3924 0
490 -3925 0
490 -3927 0
490 -3928 0
3929 -2421 -3926 0
-3929 2421 0
-3929 3926 0
3930 -3915 -2427 0
-3930 3915 0
-3930 2427 0
3931 -3915 -3926 0
-3931 3915 0
-3931 3926 0
3932 -2421 -2427 -3912 0
-3932 2421 0
-3932 2427 0
-3932 3912 0
-488 2430 3929 3930 3931 3932 0
488 -2430 0
488 -3929 0
488 -3930 0
488 -3931 0
488 -3932 0
3933 -2421 -3915 0
-3933 2421 0
-3933 3915 0
3934 -3915 -3915 0
-3934 3915 0
-3934 3915 0
3935 -3915 -2421 0
-3935 3915 0
-3935 2421 0
3936 -2421 -2421 -3912 0
-3936 2421 0
-3936 2421 0
-3936 3912 0
-3937 2433 3933 3934 3935 3936 0
3937 -2433 0
3937 -3933 0
3937 -3934 0
3937 -3935 0
3937 -3936 0
3938 -3939 -3940 0
-3938 3939 0
-3938 3940 0
3941 -3940 -3940 0
-3941 3940 0
-3941 3940 0
3942 -3940 -3939 0
-3942 3940 0
-3942 3939 0
3943 -3939 -3939 -3944 0
-3943 3939 0
-3943 3939 0
-3943 3944 0
-3945 3946 3938 3941 3942 3943 0
3945 -3946 0
3945 -3938 0
3945 -3941 0
3945 -3942 0
3945 -3943 0
3947 -3939 -3948 0
-3947 3939 0
-3947 3948 0
3949 -3940 -3948 0
-3949 3940 0
-3949 3948 0
3950 -3940 -3951 0
-3950 3940 0
-3950 3951 0
3952 -3939 -3951 -3944 0
-3952 3939 0
-3952 3951 0
-3952 3944 0
-314 3953 3947 3949 3950 3952 0
314 -3953 0
314 -3947 0
314 -3949 0
314 -3950 0
314 -3952 0
3954 -3939 -3955 0
-3954 3939 0
-3954 3955 0
3956 -3940 -3957 0
-3956 3940 0
-3956 3957 0
3958 -3940 -3955 0
-3958 3940 0
-3958 3955 0
3959 -3939 -3957 -3944 0
-3959 3939 0
-3959 3957 0
-3959 3944 0
-312 3960 3954 3956 3958 3959 0
312 -3960 0
312 -3954 0
312 -3956 0
312 -3958 0
312 -3959 0
3961 -3962 -3955 0
-3961 3962 0
-3961 3955 0
3963 -3964 -3955 0
-3963 3964 0
-3963 3955 0
3965 -3964 -3957 0
-3965 3964 0
-3965 3957 0
3966 -3962 -3957 -3944 0
-3966 3962 0
-3966 3957 0
-3966 3944 0
-315 3967 3961 3963 3965 3966 0
315 -3967 0
315 -3961 0
315 -3963 0
315 -3965 0
315 -3966 0
3968 -3951 -3964 0
-3968 3951 0
-3968 3964 0
3969 -3948 -3962 0
-3969 3948 0
-3969 3962 0
3970 -3948 -3964 0
-3970 3948 0
-3970 3964 0
3971 -3951 -3962 -3944 0
-3971 3951 0
-3971 3962 0
-3971 3944 0
-313 3972 3968 3969 3970 3971 0
313 -3972 0
313 -3968 0
313 -3969 0
313 -3970 0
313 -3971 0
3973 -3951 -3948 0
-3973 3951 0
-3973 3948 0
3974 -3948 -3948 0
-3974 3948 0
-3974 3948 0
3975 -3948 -3951 0
-3975 3948 0
-3975 3951 0
3976 -3951 -3951 -3944 0
-3976 3951 0
-3976 3951 0
-3976 3944 0
-3977 3978 3973 3974 3975 3976 0
3977 -3978 0
3977 -3973 0
3977 -3974 0
3977 -3975 0
3977 -3976 0
3979 -2401 -2377 0
-3979 2401 0
-3979 2377 0
2378 -2377 -2377 0
-2378 2377 0
-2378 2377 0
3980 -2377 -2401 0
-3980 2377 0
-3980 2401 0
3981 -2401 -2401 -2383 0
-3981 2401 0
-3981 2401 0
-3981 2383 0
-3982 2381 3979 2378 3980 3981 0
3982 -2381 0
3982 -3979 0
3982 -2378 0
3982 -3980 0
3982 -3981 0
3983 -2401 -2390 0
-3983 2401 0
-3983 2390 0
3984 -2377 -2390 0
-3984 2377 0
-3984 2390 0
3985 -2377 -2409 0
-3985 2377 0
-3985 2409 0
3986 -2401 -2409 -2383 0
-3986 2401 0
-3986 2409 0
-3986 2383 0
-639 2385 3983 3984 3985 3986 0
639 -2385 0
639 -3983 0
639 -3984 0
639 -3985 0
639 -3986 0
3987 -2401 -2397 0
-3987 2401 0
-3987 2397 0
3988 -2377 -2404 0
-3988 2377 0
-3988 2404 0
3989 -2377 -2397 0
-3989 2377 0
-3989 2397 0
3990 -2401 -2404 -2383 0
-3990 2401 0
-3990 2404 0
-3990 2383 0
-637 2392 3987 3988 3989 3990 0
637 -2392 0
637 -3987 0
637 -3988 0
637 -3989 0
637 -3990 0
3991 -2399 -2397 0
-3991 2399 0
-3991 2397 0
3992 -2376 -2397 0
-3992 2376 0
-3992 2397 0
3993 -2376 -2404 0
-3993 2376 0
-3993 2404 0
3994 -2399 -2404 -2383 0
-3994 2399 0
-3994 2404 0
-3994 2383 0
-640 2394 3991 3992 3993 3994 0
640 -2394 0
640 -3991 0
640 -3992 0
640 -3993 0
640 -3994 0
3995 -2409 -2376 0
-3995 2409 0
-3995 2376 0
3996 -2390 -2399 0
-3996 2390 0
-3996 2399 0
3997 -2390 -2376 0
-3997 2390 0
-3997 2376 0
3998 -2409 -2399 -2383 0
-3998 2409 0
-3998 2399 0
-3998 2383 0
-638 2388 3995 3996 3997 3998 0
638 -2388 0
638 -3995 0
638 -3996 0
638 -3997 0
638 -3998 0
3999 -2409 -2390 0
-3999 2409 0
-3999 2390 0
4000 -2390 -2390 0
-4000 2390 0
-4000 2390 0
4001 -2390 -2409 0
-4001 2390 0
-4001 2409 0
4002 -2409 -2409 -2383 0
-4002 2409 0
-4002 2409 0
-4002 2383 0
-4003 2415 3999 4000 4001 4002 0
4003 -2415 0
4003 -3999 0
4003 -4000 0
4003 -4001 0
4003 -4002 0
4004 -4005 -4006 0
-4004 4005 0
-4004 4006 0
4007 -4006 -4006 0
-4007 4006 0
-4007 4006 0
4008 -4006 -4005 0
-4008 4006 0
-4008 4005 0
4009 -4005 -4005 -3697 0
-4009 4005 0
-4009 4005 0
-4009 3697 0
-4010 4011 4004 4007 4008 4009 0
4010 -4011 0
4010 -4004 0
4010 -4007 0
4010 -4008 0
4010 -4009 0
4012 -4005 -3700 0
-4012 4005 0
-4012 3700 0
4013 -4006 -3700 0
-4013 4006 0
-4013 3700 0
4014 -4006 -3708 0
-4014 4006 0
-4014 3708 0
4015 -4005 -3708 -3697 0
-4015 4005 0
-4015 3708 0
-4015 3697 0
-34 4016 4012 4013 4014 4015 0
34 -4016 0
34 -4012 0
34 -4013 0
34 -4014 0
34 -4015 0
4017 -4005 -3703 0
-4017 4005 0
-4017 3703 0
4018 -4006 -3706 0
-4018 4006 0
-4018 3706 0
4019 -4006 -3703 0
-4019 4006 0
-4019 3703 0
4020 -4005 -3706 -3697 0
-4020 4005 0
-4020 3706 0
-4020 3697 0
-32 4021 4017 4018 4019 4020 0
32 -4021 0
32 -4017 0
32 -4018 0
32 -4019 0
32 -4020 0
4022 -3705 -3703 0
-4022 3705 0
-4022 3703 0
4023 -3695 -3703 0
-4023 3695 0
-4023 3703 0
4024 -3695 -3706 0
-4024 3695 0
-4024 3706 0
4025 -3705 -3706 -3697 0
-4025 3705 0
-4025 3706 0
-4025 3697 0
-35 3702 4022 4023 4024 4025 0
35 -3702 0
35 -4022 0
35 -4023 0
35 -4024 0
35 -4025 0
4026 -3708 -3695 0
-4026 3708 0
-4026 3695 0
4027 -3700 -3705 0
-4027 3700 0
-4027 3705 0
4028 -3700 -3695 0
-4028 3700 0
-4028 3695 0
4029 -3708 -3705 -3697 0
-4029 3708 0
-4029 3705 0
-4029 3697 0
-33 3699 4026 4027 4028 4029 0
33 -3699 0
33 -4026 0
33 -4027 0
33 -4028 0
33 -4029 0
4030 -3708 -3700 0
-4030 3708 0
-4030 3700 0
4031 -3700 -3700 0
-4031 3700 0
-4031 3700 0
4032 -3700 -3708 0
-4032 3700 0
-4032 3708 0
4033 -3708 -3708 -3697 0
-4033 3708 0
-4033 3708 0
-4033 3697 0
-4034 3711 4030 4031 4032 4033 0
4034 -3711 0
4034 -4030 0
4034 -4031 0
4034 -4032 0
4034 -4033 0
4035 -4036 -4036 0
-4035 4036 0
-4035 4036 0
-4037 4038 4035 0
4037 -4038 0
4037 -4035 0
4039 -4036 -4040 0
-4039 4036 0
-4039 4040 0
-299 4041 4039 0
299 -4041 0
299 -4039 0
4042 -4036 -4043 0
-4042 4036 0
-4042 4043 0
-297 4044 4042 0
297 -4044 0
297 -4042 0
4045 -4046 -4043 0
-4045 4046 0
-4045 4043 0
-300 4047 4045 0
300 -4047 0
300 -4045 0
4048 -4040 -4046 0
-4048 4040 0
-4048 4046 0
-298 4049 4048 0
298 -4049 0
298 -4048 0
4050 -4040 -4040 0
-4050 4040 0
-4050 4040 0
-4051 4052 4050 0
4051 -4052 0
4051 -4050 0
4053 -2820 -2820 0
-4053 2820 0
-4053 2820 0
-4054 2827 4053 0
4054 -2827 0
4054 -4053 0
4055 -2820 -2832 0
-4055 2820 0
-4055 2832 0
-1189 2834 4055 0
1189 -2834 0
1189 -4055 0
4056 -2820 -2838 0
-4056 2820 0
-4056 2838 0
-1187 2841 4056 0
1187 -2841 0
1187 -4056 0
4057 -2843 -2838 0
-4057 2843 0
-4057 2838 0
-1190 2848 4057 0
1190 -2848 0
1190 -4057 0
4058 -2832 -2843 0
-4058 2832 0
-4058 2843 0
-1188 2853 4058 0
1188 -2853 0
1188 -4058 0
4059 -2832 -2832 0
-4059 2832 0
-4059 2832 0
-4060 2859 4059 0
4060 -2859 0
4060 -4059 0
4061 -4062 -4063 0
-4061 4062 0
-4061 4063 0
4064 -4063 -4063 0
-4064 4063 0
-4064 4063 0
4065 -4063 -4062 0
-4065 4063 0
-4065 4062 0
4066 -4062 -4062 -4067 0
-4066 4062 0
-4066 4062 0
-4066 4067 0
-4068 4069 4061 4064 4065 4066 0
4068 -4069 0
4068 -4061 0
4068 -4064 0
4068 -4065 0
4068 -4066 0
4070 -4062 -4071 0
-4070 4062 0
-4070 4071 0
4072 -4063 -4071 0
-4072 4063 0
-4072 4071 0
4073 -4063 -4074 0
-4073 4063 0
-4073 4074 0
4075 -4062 -4074 -4067 0
-4075 4062 0
-4075 4074 0
-4075 4067 0
-729 4076 4070 4072 4073 4075 0
729 -4076 0
729 -4070 0
729 -4072 0
729 -4073 0
729 -4075 0
4077 -4062 -4078 0
-4077 4062 0
-4077 4078 0
4079 -4063 -4080 0
-4079 4063 0
-4079 4080 0
4081 -4063 -4078 0
-4081 4063 0
-4081 4078 0
4082 -4062 -4080 -4067 0
-4082 4062 0
-4082 4080 0
-4082 4067 0
-727 4083 4077 4079 4081 4082 0
727 -4083 0
727 -4077 0
727 -4079 0
727 -4081 0
727 -4082 0
4084 -4085 -4078 0
-4084 4085 0
-4084 4078 0
4086 -4087 -4078 0
-4086 4087 0
-4086 4078 0
4088 -4087 -4080 0
-4088 4087 0
-4088 4080 0
4089 -4085 -4080 -4067 0
-4089 4085 0
-4089 4080 0
-4089 4067 0
-730 4090 4084 4086 4088 4089 0
730 -4090 0
730 -4084 0
730 -4086 0
730 -4088 0
730 -4089 0
4091 -4074 -4087 0
-4091 4074 0
-4091 4087 0
4092 -4071 -4085 0
-4092 4071 0
-4092 4085 0
4093 -4071 -4087 0
-4093 4071 0
-4093 4087 0
4094 -4074 -4085 -4067 0
-4094 4074 0
-4094 4085 0
-4094 4067 0
-728 4095 4091 4092 4093 4094 0
728 -4095 0
728 -4091 0
728 -4092 0
728 -4093 0
728 -4094 0
4096 -4074 -4071 0
-4096 4074 0
-4096 4071 0
4097 -4071 -4071 0
-4097 4071 0
-4097 4071 0
4098 -4071 -4074 0
-4098 4071 0
-4098 4074 0
4099 -4074 -4074 -4067 0
-4099 4074 0
-4099 4074 0
-4099 4067 0
-4100 4101 4096 4097 4098 4099 0
4100 -4101 0
4100 -4096 0
4100 -4097 0
4100 -4098 0
4100 -4099 0
4102 -2622 -2622 0
-4102 2622 0
-4102 2622 0
-4103 2628 4102 0
4103 -2628 0
4103 -4102 0
4104 -2622 -2545 0
-4104 2622 0
-4104 2545 0
-889 2633 4104 0
889 -2633 0
889 -4104 0
4105 -2622 -2543 0
-4105 2622 0
-4105 2543 0
-887 2638 4105 0
887 -2638 0
887 -4105 0
4106 -2542 -2543 0
-4106 2542 0
-4106 2543 0
-890 2539 4106 0
890 -2539 0
890 -4106 0
4107 -2545 -2542 0
-4107 2545 0
-4107 2542 0
-888 2536 4107 0
888 -2536 0
888 -4107 0
4108 -2545 -2545 0
-4108 2545 0
-4108 2545 0
-4109 2548 4108 0
4109 -2548 0
4109 -4108 0
4110 -4062 -4062 0
-4110 4062 0
-4110 4062 0
-4111 4069 4110 0
4111 -4069 0
4111 -4110 0
4112 -4062 -4074 0
-4112 4062 0
-4112 4074 0
-1054 4076 4112 0
1054 -4076 0
1054 -4112 0
4113 -4062 -4080 0
-4113 4062 0
-4113 4080 0
-1052 4083 4113 0
1052 -4083 0
1052 -4113 0
4114 -4085 -4080 0
-4114 4085 0
-4114 4080 0
-1055 4090 4114 0
1055 -4090 0
1055 -4114 0
4115 -4074 -4085 0
-4115 4074 0
-4115 4085 0
-1053 4095 4115 0
1053 -4095 0
1053 -4115 0
4116 -4074 -4074 0
-4116 4074 0
-4116 4074 0
-4117 4101 4116 0
4117 -4101 0
4117 -4116 0
4118 -4119 -4120 0
-4118 4119 0
-4118 4120 0
4121 -4120 -4120 0
-4121 4120 0
-4121 4120 0
4122 -4120 -4119 0
-4122 4120 0
-4122 4119 0
4123 -4119 -4119 -4124 0
-4123 4119 0
-4123 4119 0
-4123 4124 0
-4125 4126 4118 4121 4122 4123 0
4125 -4126 0
4125 -4118 0
4125 -4121 0
4125 -4122 0
4125 -4123 0
4127 -4119 -4128 0
-4127 4119 0
-4127 4128 0
4129 -4120 -4128 0
-4129 4120 0
-4129 4128 0
4130 -4120 -4131 0
-4130 4120 0
-4130 4131 0
4132 -4119 -4131 -4124 0
-4132 4119 0
-4132 4131 0
-4132 4124 0
-349 4133 4127 4129 4130 4132 0
349 -4133 0
349 -4127 0
349 -4129 0
349 -4130 0
349 -4132 0
4134 -4119 -4135 0
-4134 4119 0
-4134 4135 0
4136 -4120 -4137 0
-4136 4120 0
-4136 4137 0
4138 -4120 -4135 0
-4138 4120 0
-4138 4135 0
4139 -4119 -4137 -4124 0
-4139 4119 0
-4139 4137 0
-4139 4124 0
-347 4140 4134 4136 4138 4139 0
347 -4140 0
347 -4134 0
347 -4136 0
347 -4138 0
347 -4139 0
4141 -4142 -4135 0
-4141 4142 0
-4141 4135 0
4143 -4144 -4135 0
-4143 4144 0
-4143 4135 0
4145 -4144 -4137 0
-4145 4144 0
-4145 4137 0
4146 -4142 -4137 -4124 0
-4146 4142 0
-4146 4137 0
-4146 4124 0
-350 4147 4141 4143 4145 4146 0
350 -4147 0
350 -4141 0
350 -4143 0
350 -4145 0
350 -4146 0
4148 -4131 -4144 0
-4148 4131 0
-4148 4144 0
4149 -4128 -4142 0
-4149 4128 0
-4149 4142 0
4150 -4128 -4144 0
-4150 4128 0
-4150 4144 0
4151 -4131 -4142 -4124 0
-4151 4131 0
-4151 4142 0
-4151 4124 0
-348 4152 4148 4149 4150 4151 0
348 -4152 0
348 -4148 0
348 -4149 0
348 -4150 0
348 -4151 0
4153 -4131 -4128 0
-4153 4131 0
-4153 4128 0
4154 -4128 -4128 0
-4154 4128 0
-4154 4128 0
4155 -4128 -4131 0
-4155 4128 0
-4155 4131 0
4156 -4131 -4131 -4124 0
-4156 4131 0
-4156 4131 0
-4156 4124 0
-4157 4158 4153 4154 4155 4156 0
4157 -4158 0
4157 -4153 0
4157 -4154 0
4157 -4155 0
4157 -4156 0
4159 -4160 -4161 0
-4159 4160 0
-4159 4161 0
4162 -4161 -4161 0
-4162 4161 0
-4162 4161 0
4163 -4161 -4160 0
-4163 4161 0
-4163 4160 0
4164 -4160 -4160 -4165 0
-4164 4160 0
-4164 4160 0
-4164 4165 0
-4166 4167 4159 4162 4163 4164 0
4166 -4167 0
4166 -4159 0
4166 -4162 0
4166 -4163 0
4166 -4164 0
4168 -4160 -4169 0
-4168 4160 0
-4168 4169 0
4170 -4161 -4169 0
-4170 4161 0
-4170 4169 0
4171 -4161 -4172 0
-4171 4161 0
-4171 4172 0
4173 -4160 -4172 -4165 0
-4173 4160 0
-4173 4172 0
-4173 4165 0
-364 4174 4168 4170 4171 4173 0
364 -4174 0
364 -4168 0
364 -4170 0
364 -4171 0
364 -4173 0
4175 -4160 -4176 0
-4175 4160 0
-4175 4176 0
4177 -4161 -4178 0
-4177 4161 0
-4177 4178 0
4179 -4161 -4176 0
-4179 4161 0
-4179 4176 0
4180 -4160 -4178 -4165 0
-4180 4160 0
-4180 4178 0
-4180 4165 0
-362 4181 4175 4177 4179 4180 0
362 -4181 0
362 -4175 0
362 -4177 0
362 -4179 0
362 -4180 0
4182 -4183 -4176 0
-4182 4183 0
-4182 4176 0
4184 -4185 -4176 0
-4184 4185 0
-4184 4176 0
4186 -4185 -4178 0
-4186 4185 0
-4186 4178 0
4187 -4183 -4178 -4165 0
-4187 4183 0
-4187 4178 0
-4187 4165 0
-365 4188 4182 4184 4186 4187 0
365 -4188 0
365 -4182 0
365 -4184 0
365 -4186 0
365 -4187 0
4189 -4172 -4185 0
-4189 4172 0
-4189 4185 0
4190 -4169 -4183 0
-4190 4169 0
-4190 4183 0
4191 -4169 -4185 0
-4191 4169 0
-4191 4185 0
4192 -4172 -4183 -4165 0
-4192 4172 0
-4192 4183 0
-4192 4165 0
-363 4193 4189 4190 4191 4192 0
363 -4193 0
363 -4189 0
363 -4190 0
363 -4191 0
363 -4192 0
4194 -4172 -4169 0
-4194 4172 0
-4194 4169 0
4195 -4169 -4169 0
-4195 4169 0
-4195 4169 0
4196 -4169 -4172 0
-4196 4169 0
-4196 4172 0
4197 -4172 -4172 -4165 0
-4197 4172 0
-4197 4172 0
-4197 4165 0
-4198 4199 4194 4195 4196 4197 0
4198 -4199 0
4198 -4194 0
4198 -4195 0
4198 -4196 0
4198 -4197 0
4200 -2335 -2335 0
-4200 2335 0
-4200 2335 0
-4201 2342 4200 0
4201 -2342 0
4201 -4200 0
4202 -2335 -2347 0
-4202 2335 0
-4202 2347 0
-79 2349 4202 0
79 -2349 0
79 -4202 0
4203 -2335 -2353 0
-4203 2335 0
-4203 2353 0
-77 2356 4203 0
77 -2356 0
77 -4203 0
4204 -2358 -2353 0
-4204 2358 0
-4204 2353 0
-80 2363 4204 0
80 -2363 0
80 -4204 0
4205 -2347 -2358 0
-4205 2347 0
-4205 2358 0
-78 2368 4205 0
78 -2368 0
78 -4205 0
4206 -2347 -2347 0
-4206 2347 0
-4206 2347 0
-4207 2374 4206 0
4207 -2374 0
4207 -4206 0
4208 -2294 -2294 0
-4208 2294 0
-4208 2294 0
-4209 2301 4208 0
4209 -2301 0
4209 -4208 0
4210 -2294 -2306 0
-4210 2294 0
-4210 2306 0
-939 2308 4210 0
939 -2308 0
939 -4210 0
4211 -2294 -2312 0
-4211 2294 0
-4211 2312 0
-937 2315 4211 0
937 -2315 0
937 -4211 0
4212 -2317 -2312 0
-4212 2317 0
-4212 2312 0
-940 2322 4212 0
940 -2322 0
940 -4212 0
4213 -2306 -2317 0
-4213 2306 0
-4213 2317 0
-938 2327 4213 0
938 -2327 0
938 -4213 0
4214 -2306 -2306 0
-4214 2306 0
-4214 2306 0
-4215 2333 4214 0
4215 -2333 0
4215 -4214 0
4216 -4217 -4218 0
-4216 4217 0
-4216 4218 0
4219 -4218 -4218 0
-4219 4218 0
-4219 4218 0
4220 -4218 -4217 0
-4220 4218 0
-4220 4217 0
4221 -4217 -4217 -4222 0
-4221 4217 0
-4221 4217 0
-4221 4222 0
-4223 4224 4216 4219 4220 4221 0
4223 -4224 0
4223 -4216 0
4223 -4219 0
4223 -4220 0
4223 -4221 0
4225 -4217 -4226 0
-4225 4217 0
-4225 4226 0
4227 -4218 -4226 0
-4227 4218 0
-4227 4226 0
4228 -4218 -4229 0
-4228 4218 0
-4228 4229 0
4230 -4217 -4229 -4222 0
-4230 4217 0
-4230 4229 0
-4230 4222 0
-794 4231 4225 4227 4228 4230 0
794 -4231 0
794 -4225 0
794 -4227 0
794 -4228 0
794 -4230 0
4232 -4217 -4233 0
-4232 4217 0
-4232 4233 0
4234 -4218 -4235 0
-4234 4218 0
-4234 4235 0
4236 -4218 -4233 0
-4236 4218 0
-4236 4233 0
4237 -4217 -4235 -4222 0
-4237 4217 0
-4237 4235 0
-4237 4222 0
-792 4238 4232 4234 4236 4237 0
792 -4238 0
792 -4232 0
792 -4234 0
792 -4236 0
792 -4237 0
4239 -4240 -4233 0
-4239 4240 0
-4239 4233 0
4241 -4242 -4233 0
-4241 4242 0
-4241 4233 0
4243 -4242 -4235 0
-4243 4242 0
-4243 4235 0
4244 -4240 -4235 -4222 0
-4244 4240 0
-4244 4235 0
-4244 4222 0
-795 4245 4239 4241 4243 4244 0
795 -4245 0
795 -4239 0
795 -4241 0
795 -4243 0
795 -4244 0
4246 -4229 -4242 0
-4246 4229 0
-4246 4242 0
4247 -4226 -4240 0
-4247 4226 0
-4247 4240 0
4248 -4226 -4242 0
-4248 4226 0
-4248 4242 0
4249 -4229 -4240 -4222 0
-4249 4229 0
-4249 4240 0
-4249 4222 0
-793 4250 4246 4247 4248 4249 0
793 -4250 0
793 -4246 0
793 -4247 0
793 -4248 0
793 -4249 0
4251 -4229 -4226 0
-4251 4229 0
-4251 4226 0
4252 -4226 -4226 0
-4252 4226 0
-4252 4226 0
4253 -4226 -4229 0
-4253 4226 0
-4253 4229 0
4254 -4229 -4229 -4222 0
-4254 4229 0
-4254 4229 0
-4254 4222 0
-4255 4256 4251 4252 4253 4254 0
4255 -4256 0
4255 -4251 0
4255 -4252 0
4255 -4253 0
4255 -4254 0
4257 -4036 -4258 0
-4257 4036 0
-4257 4258 0
4259 -4258 -4258 0
-4259 4258 0
-4259 4258 0
4260 -4258 -4036 0
-4260 4258 0
-4260 4036 0
4261 -4036 -4036 -4262 0
-4261 4036 0
-4261 4036 0
-4261 4262 0
-4263 4038 4257 4259 4260 4261 0
4263 -4038 0
4263 -4257 0
4263 -4259 0
4263 -4260 0
4263 -4261 0
4264 -4036 -4265 0
-4264 4036 0
-4264 4265 0
4266 -4258 -4265 0
-4266 4258 0
-4266 4265 0
4267 -4258 -4040 0
-4267 4258 0
-4267 4040 0
4268 -4036 -4040 -4262 0
-4268 4036 0
-4268 4040 0
-4268 4262 0
-59 4041 4264 4266 4267 4268 0
59 -4041 0
59 -4264 0
59 -4266 0
59 -4267 0
59 -4268 0
4269 -4036 -4270 0
-4269 4036 0
-4269 4270 0
4271 -4258 -4043 0
-4271 4258 0
-4271 4043 0
4272 -4258 -4270 0
-4272 4258 0
-4272 4270 0
4273 -4036 -4043 -4262 0
-4273 4036 0
-4273 4043 0
-4273 4262 0
-57 4044 4269 4271 4272 4273 0
57 -4044 0
57 -4269 0
57 -4271 0
57 -4272 0
57 -4273 0
4274 -4046 -4270 0
-4274 4046 0
-4274 4270 0
4275 -4276 -4270 0
-4275 4276 0
-4275 4270 0
4277 -4276 -4043 0
-4277 4276 0
-4277 4043 0
4278 -4046 -4043 -4262 0
-4278 4046 0
-4278 4043 0
-4278 4262 0
-60 4047 4274 4275 4277 4278 0
60 -4047 0
60 -4274 0
60 -4275 0
60 -4277 0
60 -4278 0
4279 -4040 -4276 0
-4279 4040 0
-4279 4276 0
4280 -4265 -4046 0
-4280 4265 0
-4280 4046 0
4281 -4265 -4276 0
-4281 4265 0
-4281 4276 0
4282 -4040 -4046 -4262 0
-4282 4040 0
-4282 4046 0
-4282 4262 0
-58 4049 4279 4280 4281 4282 0
58 -4049 0
58 -4279 0
58 -4280 0
58 -4281 0
58 -4282 0
4283 -4040 -4265 0
-4283 4040 0
-4283 4265 0
4284 -4265 -4265 0
-4284 4265 0
-4284 4265 0
4285 -4265 -4040 0
-4285 4265 0
-4285 4040 0
4286 -4040 -4040 -4262 0
-4286 4040 0
-4286 4040 0
-4286 4262 0
-4287 4052 4283 4284 4285 4286 0
4287 -4052 0
4287 -4283 0
4287 -4284 0
4287 -4285 0
4287 -4286 0
4288 -2678 -2654 0
-4288 2678 0
-4288 2654 0
2655 -2654 -2654 0
-2655 2654 0
-2655 2654 0
4289 -2654 -2678 0
-4289 2654 0
-4289 2678 0
4290 -2678 -2678 -2660 0
-4290 2678 0
-4290 2678 0
-4290 2660 0
-4291 2658 4288 2655 4289 4290 0
4291 -2658 0
4291 -4288 0
4291 -2655 0
4291 -4289 0
4291 -4290 0
4292 -2678 -2667 0
-4292 2678 0
-4292 2667 0
4293 -2654 -2667 0
-4293 2654 0
-4293 2667 0
4294 -2654 -2686 0
-4294 2654 0
-4294 2686 0
4295 -2678 -2686 -2660 0
-4295 2678 0
-4295 2686 0
-4295 2660 0
-144 2662 4292 4293 4294 4295 0
144 -2662 0
144 -4292 0
144 -4293 0
144 -4294 0
144 -4295 0
4296 -2678 -2674 0
-4296 2678 0
-4296 2674 0
4297 -2654 -2681 0
-4297 2654 0
-4297 2681 0
4298 -2654 -2674 0
-4298 2654 0
-4298 2674 0
4299 -2678 -2681 -2660 0
-4299 2678 0
-4299 2681 0
-4299 2660 0
-142 2669 4296 4297 4298 4299 0
142 -2669 0
142 -4296 0
142 -4297 0
142 -4298 0
142 -4299 0
4300 -2676 -2674 0
-4300 2676 0
-4300 2674 0
4301 -2653 -2674 0
-4301 2653 0
-4301 2674 0
4302 -2653 -2681 0
-4302 2653 0
-4302 2681 0
4303 -2676 -2681 -2660 0
-4303 2676 0
-4303 2681 0
-4303 2660 0
-145 2671 4300 4301 4302 4303 0
145 -2671 0
145 -4300 0
145 -4301 0
145 -4302 0
145 -4303 0
4304 -2686 -2653 0
-4304 2686 0
-4304 2653 0
4305 -2667 -2676 0
-4305 2667 0
-4305 2676 0
4306 -2667 -2653 0
-4306 2667 0
-4306 2653 0
4307 -2686 -2676 -2660 0
-4307 2686 0
-4307 2676 0
-4307 2660 0
-143 2665 4304 4305 4306 4307 0
143 -2665 0
143 -4304 0
143 -4305 0
143 -4306 0
143 -4307 0
4308 -2686 -2667 0
-4308 2686 0
-4308 2667 0
4309 -2667 -2667 0
-4309 2667 0
-4309 2667 0
4310 -2667 -2686 0
-4310 2667 0
-4310 2686 0
4311 -2686 -2686 -2660 0
-4311 2686 0
-4311 2686 0
-4311 2660 0
-4312 2692 4308 4309 4310 4311 0
4312 -2692 0
4312 -4308 0
4312 -4309 0
4312 -4310 0
4312 -4311 0
4313 -1248 -1224 0
-4313 1248 0
-4313 1224 0
1225 -1224 -1224 0
-1225 1224 0
-1225 1224 0
4314 -1224 -1248 0
-4314 1224 0
-4314 1248 0
4315 -1248 -1248 -1230 0
-4315 1248 0
-4315 1248 0
-4315 1230 0
-4316 1228 4313 1225 4314 4315 0
4316 -1228 0
4316 -4313 0
4316 -1225 0
4316 -4314 0
4316 -4315 0
4317 -1248 -1237 0
-4317 1248 0
-4317 1237 0
4318 -1224 -1237 0
-4318 1224 0
-4318 1237 0
4319 -1224 -1256 0
-4319 1224 0
-4319 1256 0
4320 -1248 -1256 -1230 0
-4320 1248 0
-4320 1256 0
-4320 1230 0
-904 1232 4317 4318 4319 4320 0
904 -1232 0
904 -4317 0
904 -4318 0
904 -4319 0
904 -4320 0
4321 -1248 -1244 0
-4321 1248 0
-4321 1244 0
4322 -1224 -1251 0
-4322 1224 0
-4322 1251 0
4323 -1224 -1244 0
-4323 1224 0
-4323 1244 0
4324 -1248 -1251 -1230 0
-4324 1248 0
-4324 1251 0
-4324 1230 0
-902 1239 4321 4322 4323 4324 0
902 -1239 0
902 -4321 0
902 -4322 0
902 -4323 0
902 -4324 0
4325 -1246 -1244 0
-4325 1246 0
-4325 1244 0
4326 -1223 -1244 0
-4326 1223 0
-4326 1244 0
4327 -1223 -1251 0
-4327 1223 0
-4327 1251 0
4328 -1246 -1251 -1230 0
-4328 1246 0
-4328 1251 0
-4328 1230 0
-905 1241 4325 4326 4327 4328 0
905 -1241 0
905 -4325 0
905 -4326 0
905 -4327 0
905 -4328 0
4329 -1256 -1223 0
-4329 1256 0
-4329 1223 0
4330 -1237 -1246 0
-4330 1237 0
-4330 1246 0
4331 -1237 -1223 0
-4331 1237 0
-4331 1223 0
4332 -1256 -1246 -1230 0
-4332 1256 0
-4332 1246 0
-4332 1230 0
-903 1235 4329 4330 4331 4332 0
903 -1235 0
903 -4329 0
903 -4330 0
903 -4331 0
903 -4332 0
4333 -1256 -1237 0
-4333 1256 0
-4333 1237 0
4334 -1237 -1237 0
-4334 1237 0
-4334 1237 0
4335 -1237 -1256 0
-4335 1237 0
-4335 1256 0
4336 -1256 -1256 -1230 0
-4336 1256 0
-4336 1256 0
-4336 1230 0
-4337 1262 4333 4334 4335 4336 0
4337 -1262 0
4337 -4333 0
4337 -4334 0
4337 -4335 0
4337 -4336 0
4338 -4339 -4340 0
-4338 4339 0
-4338 4340 0
4341 -4340 -4340 0
-4341 4340 0
-4341 4340 0
4342 -4340 -4339 0
-4342 4340 0
-4342 4339 0
4343 -4339 -4339 -4344 0
-4343 4339 0
-4343 4339 0
-4343 4344 0
-4345 4346 4338 4341 4342 4343 0
4345 -4346 0
4345 -4338 0
4345 -4341 0
4345 -4342 0
4345 -4343 0
4347 -4339 -4348 0
-4347 4339 0
-4347 4348 0
4349 -4340 -4348 0
-4349 4340 0
-4349 4348 0
4350 -4340 -4351 0
-4350 4340 0
-4350 4351 0
4352 -4339 -4351 -4344 0
-4352 4339 0
-4352 4351 0
-4352 4344 0
-289 4353 4347 4349 4350 4352 0
289 -4353 0
289 -4347 0
289 -4349 0
289 -4350 0
289 -4352 0
4354 -4339 -4355 0
-4354 4339 0
-4354 4355 0
4356 -4340 -4357 0
-4356 4340 0
-4356 4357 0
4358 -4340 -4355 0
-4358 4340 0
-4358 4355 0
4359 -4339 -4357 -4344 0
-4359 4339 0
-4359 4357 0
-4359 4344 0
-287 4360 4354 4356 4358 4359 0
287 -4360 0
287 -4354 0
287 -4356 0
287 -4358 0
287 -4359 0
4361 -4362 -4355 0
-4361 4362 0
-4361 4355 0
4363 -4364 -4355 0
-4363 4364 0
-4363 4355 0
4365 -4364 -4357 0
-4365 4364 0
-4365 4357 0
4366 -4362 -4357 -4344 0
-4366 4362 0
-4366 4357 0
-4366 4344 0
-290 4367 4361 4363 4365 4366 0
290 -4367 0
290 -4361 0
290 -4363 0
290 -4365 0
290 -4366 0
4368 -4351 -4364 0
-4368 4351 0
-4368 4364 0
4369 -4348 -4362 0
-4369 4348 0
-4369 4362 0
4370 -4348 -4364 0
-4370 4348 0
-4370 4364 0
4371 -4351 -4362 -4344 0
-4371 4351 0
-4371 4362 0
-4371 4344 0
-288 4372 4368 4369 4370 4371 0
288 -4372 0
288 -4368 0
288 -4369 0
288 -4370 0
288 -4371 0
4373 -4351 -4348 0
-4373 4351 0
-4373 4348 0
4374 -4348 -4348 0
-4374 4348 0
-4374 4348 0
4375 -4348 -4351 0
-4375 4348 0
-4375 4351 0
4376 -4351 -4351 -4344 0
-4376 4351 0
-4376 4351 0
-4376 4344 0
-4377 4378 4373 4374 4375 4376 0
4377 -4378 0
4377 -4373 0
4377 -4374 0
4377 -4375 0
4377 -4376 0
4379 -3623 -3621 0
-4379 3623 0
-4379 3621 0
4380 -3621 -3621 0
-4380 3621 0
-4380 3621 0
4381 -3621 -3623 0
-4381 3621 0
-4381 3623 0
4382 -3623 -3623 -3269 0
-4382 3623 0
-4382 3623 0
-4382 3269 0
-4383 3619 4379 4380 4381 4382 0
4383 -3619 0
4383 -4379 0
4383 -4380 0
4383 -4381 0
4383 -4382 0
4384 -3623 -3258 0
-4384 3623 0
-4384 3258 0
4385 -3621 -3258 0
-4385 3621 0
-4385 3258 0
4386 -3621 -3261 0
-4386 3621 0
-4386 3261 0
4387 -3623 -3261 -3269 0
-4387 3623 0
-4387 3261 0
-4387 3269 0
-89 3801 4384 4385 4386 4387 0
89 -3801 0
89 -4384 0
89 -4385 0
89 -4386 0
89 -4387 0
4388 -3623 -3266 0
-4388 3623 0
-4388 3266 0
4389 -3621 -3264 0
-4389 3621 0
-4389 3264 0
4390 -3621 -3266 0
-4390 3621 0
-4390 3266 0
4391 -3623 -3264 -3269 0
-4391 3623 0
-4391 3264 0
-4391 3269 0
-87 3617 4388 4389 4390 4391 0
87 -3617 0
87 -4388 0
87 -4389 0
87 -4390 0
87 -4391 0
4392 -3260 -3266 0
-4392 3260 0
-4392 3266 0
4393 -3257 -3266 0
-4393 3257 0
-4393 3266 0
4394 -3257 -3264 0
-4394 3257 0
-4394 3264 0
4395 -3260 -3264 -3269 0
-4395 3260 0
-4395 3264 0
-4395 3269 0
-90 3263 4392 4393 4394 4395 0
90 -3263 0
90 -4392 0
90 -4393 0
90 -4394 0
90 -4395 0
4396 -3261 -3257 0
-4396 3261 0
-4396 3257 0
4397 -3258 -3260 0
-4397 3258 0
-4397 3260 0
4398 -3258 -3257 0
-4398 3258 0
-4398 3257 0
4399 -3261 -3260 -3269 0
-4399 3261 0
-4399 3260 0
-4399 3269 0
-88 3253 4396 4397 4398 4399 0
88 -3253 0
88 -4396 0
88 -4397 0
88 -4398 0
88 -4399 0
4400 -3261 -3258 0
-4400 3261 0
-4400 3258 0
3823 -3258 -3258 0
-3823 3258 0
-3823 3258 0
4401 -3258 -3261 0
-4401 3258 0
-4401 3261 0
4402 -3261 -3261 -3269 0
-4402 3261 0
-4402 3261 0
-4402 3269 0
-4403 3255 4400 3823 4401 4402 0
4403 -3255 0
4403 -4400 0
4403 -3823 0
4403 -4401 0
4403 -4402 0
4404 -4405 -4405 0
-4404 4405 0
-4404 4405 0
-4406 4407 4404 0
4406 -4407 0
4406 -4404 0
4408 -4405 -4409 0
-4408 4405 0
-4408 4409 0
-359 4410 4408 0
359 -4410 0
359 -4408 0
4411 -4405 -4412 0
-4411 4405 0
-4411 4412 0
-357 4413 4411 0
357 -4413 0
357 -4411 0
4414 -4415 -4412 0
-4414 4415 0
-4414 4412 0
-360 4416 4414 0
360 -4416 0
360 -4414 0
4417 -4409 -4415 0
-4417 4409 0
-4417 4415 0
-358 4418 4417 0
358 -4418 0
358 -4417 0
4419 -4409 -4409 0
-4419 4409 0
-4419 4409 0
-4420 4421 4419 0
4420 -4421 0
4420 -4419 0
4422 -1813 -4423 0
-4422 1813 0
-4422 4423 0
4424 -4423 -4423 0
-4424 4423 0
-4424 4423 0
4425 -4423 -1813 0
-4425 4423 0
-4425 1813 0
4426 -1813 -1813 -2522 0
-4426 1813 0
-4426 1813 0
-4426 2522 0
-4427 1815 4422 4424 4425 4426 0
4427 -1815 0
4427 -4422 0
4427 -4424 0
4427 -4425 0
4427 -4426 0
4428 -1813 -2524 0
-4428 1813 0
-4428 2524 0
4429 -4423 -2524 0
-4429 4423 0
-4429 2524 0
4430 -4423 -1817 0
-4430 4423 0
-4430 1817 0
4431 -1813 -1817 -2522 0
-4431 1813 0
-4431 1817 0
-4431 2522 0
-569 1818 4428 4429 4430 4431 0
569 -1818 0
569 -4428 0
569 -4429 0
569 -4430 0
569 -4431 0
4432 -1813 -2526 0
-4432 1813 0
-4432 2526 0
4433 -4423 -1820 0
-4433 4423 0
-4433 1820 0
4434 -4423 -2526 0
-4434 4423 0
-4434 2526 0
4435 -1813 -1820 -2522 0
-4435 1813 0
-4435 1820 0
-4435 2522 0
-567 1821 4432 4433 4434 4435 0
567 -1821 0
567 -4432 0
567 -4433 0
567 -4434 0
567 -4435 0
4436 -1823 -2526 0
-4436 1823 0
-4436 2526 0
4437 -2520 -2526 0
-4437 2520 0
-4437 2526 0
4438 -2520 -1820 0
-4438 2520 0
-4438 1820 0
4439 -1823 -1820 -2522 0
-4439 1823 0
-4439 1820 0
-4439 2522 0
-570 1824 4436 4437 4438 4439 0
570 -1824 0
570 -4436 0
570 -4437 0
570 -4438 0
570 -4439 0
4440 -1817 -2520 0
-4440 1817 0
-4440 2520 0
4441 -2524 -1823 0
-4441 2524 0
-4441 1823 0
4442 -2524 -2520 0
-4442 2524 0
-4442 2520 0
4443 -1817 -1823 -2522 0
-4443 1817 0
-4443 1823 0
-4443 2522 0
-568 1826 4440 4441 4442 4443 0
568 -1826 0
568 -4440 0
568 -4441 0
568 -4442 0
568 -4443 0
4444 -1817 -2524 0
-4444 1817 0
-4444 2524 0
4445 -2524 -2524 0
-4445 2524 0
-4445 2524 0
4446 -2524 -1817 0
-4446 2524 0
-4446 1817 0
4447 -1817 -1817 -2522 0
-4447 1817 0
-4447 1817 0
-4447 2522 0
-4448 1829 4444 4445 4446 4447 0
4448 -1829 0
4448 -4444 0
4448 -4445 0
4448 -4446 0
4448 -4447 0
4449 -2101 -2101 0
-4449 2101 0
-4449 2101 0
-4450 2087 4449 0
4450 -2087 0
4450 -4449 0
4451 -2101 -2096 0
-4451 2101 0
-4451 2096 0
-409 2081 4451 0
409 -2081 0
409 -4451 0
4452 -2101 -2098 0
-4452 2101 0
-4452 2098 0
-407 2080 4452 0
407 -2080 0
407 -4452 0
4453 -2108 -2098 0
-4453 2108 0
-4453 2098 0
-410 2103 4453 0
410 -2103 0
410 -4453 0
4454 -2096 -2108 0
-4454 2096 0
-4454 2108 0
-408 2105 4454 0
408 -2105 0
408 -4454 0
4455 -2096 -2096 0
-4455 2096 0
-4455 2096 0
-4456 2085 4455 0
4456 -2085 0
4456 -4455 0
4457 -1428 -1428 0
-4457 1428 0
-4457 1428 0
-4458 1435 4457 0
4458 -1435 0
4458 -4457 0
4459 -1428 -1440 0
-4459 1428 0
-4459 1440 0
-339 1442 4459 0
339 -1442 0
339 -4459 0
4460 -1428 -1446 0
-4460 1428 0
-4460 1446 0
-337 1449 4460 0
337 -1449 0
337 -4460 0
4461 -1451 -1446 0
-4461 1451 0
-4461 1446 0
-340 1456 4461 0
340 -1456 0
340 -4461 0
4462 -1440 -1451 0
-4462 1440 0
-4462 1451 0
-338 1461 4462 0
338 -1461 0
338 -4462 0
4463 -1440 -1440 0
-4463 1440 0
-4463 1440 0
-4464 1467 4463 0
4464 -1467 0
4464 -4463 0
4465 -2653 -2653 0
-4465 2653 0
-4465 2653 0
-4466 2660 4465 0
4466 -2660 0
4466 -4465 0
4467 -2653 -2665 0
-4467 2653 0
-4467 2665 0
-589 2667 4467 0
589 -2667 0
589 -4467 0
4468 -2653 -2671 0
-4468 2653 0
-4468 2671 0
-587 2674 4468 0
587 -2674 0
587 -4468 0
4469 -2676 -2671 0
-4469 2676 0
-4469 2671 0
-590 2681 4469 0
590 -2681 0
590 -4469 0
4470 -2665 -2676 0
-4470 2665 0
-4470 2676 0
-588 2686 4470 0
588 -2686 0
588 -4470 0
4471 -2665 -2665 0
-4471 2665 0
-4471 2665 0
-4472 2692 4471 0
4472 -2692 0
4472 -4471 0
4473 -2961 -4474 0
-4473 2961 0
-4473 4474 0
4475 -4474 -4474 0
-4475 4474 0
-4475 4474 0
4476 -4474 -2961 0
-4476 4474 0
-4476 2961 0
4477 -2961 -2961 -4478 0
-4477 2961 0
-4477 2961 0
-4477 4478 0
-4479 2963 4473 4475 4476 4477 0
4479 -2963 0
4479 -4473 0
4479 -4475 0
4479 -4476 0
4479 -4477 0
4480 -2961 -4481 0
-4480 2961 0
-4480 4481 0
4482 -4474 -4481 0
-4482 4474 0
-4482 4481 0
4483 -4474 -2965 0
-4483 4474 0
-4483 2965 0
4484 -2961 -2965 -4478 0
-4484 2961 0
-4484 2965 0
-4484 4478 0
-759 2966 4480 4482 4483 4484 0
759 -2966 0
759 -4480 0
759 -4482 0
759 -4483 0
759 -4484 0
4485 -2961 -4486 0
-4485 2961 0
-4485 4486 0
4487 -4474 -2968 0
-4487 4474 0
-4487 2968 0
4488 -4474 -4486 0
-4488 4474 0
-4488 4486 0
4489 -2961 -2968 -4478 0
-4489 2961 0
-4489 2968 0
-4489 4478 0
-757 2969 4485 4487 4488 4489 0
757 -2969 0
757 -4485 0
757 -4487 0
757 -4488 0
757 -4489 0
4490 -2971 -4486 0
-4490 2971 0
-4490 4486 0
4491 -4492 -4486 0
-4491 4492 0
-4491 4486 0
4493 -4492 -2968 0
-4493 4492 0
-4493 2968 0
4494 -2971 -2968 -4478 0
-4494 2971 0
-4494 2968 0
-4494 4478 0
-760 2972 4490 4491 4493 4494 0
760 -2972 0
760 -4490 0
760 -4491 0
760 -4493 0
760 -4494 0
4495 -2965 -4492 0
-4495 2965 0
-4495 4492 0
4496 -4481 -2971 0
-4496 4481 0
-4496 2971 0
4497 -4481 -4492 0
-4497 4481 0
-4497 4492 0
4498 -2965 -2971 -4478 0
-4498 2965 0
-4498 2971 0
-4498 4478 0
-758 2974 4495 4496 4497 4498 0
758 -2974 0
758 -4495 0
758 -4496 0
758 -4497 0
758 -4498 0
4499 -2965 -4481 0
-4499 2965 0
-4499 4481 0
4500 -4481 -4481 0
-4500 4481 0
-4500 4481 0
4501 -4481 -2965 0
-4501 4481 0
-4501 2965 0
4502 -2965 -2965 -4478 0
-4502 2965 0
-4502 2965 0
-4502 4478 0
-4503 2977 4499 4500 4501 4502 0
4503 -2977 0
4503 -4499 0
4503 -4500 0
4503 -4501 0
4503 -4502 0
4504 -2694 -4505 0
-4504 2694 0
-4504 4505 0
4506 -4505 -4505 0
-4506 4505 0
-4506 4505 0
4507 -4505 -2694 0
-4507 4505 0
-4507 2694 0
4508 -2694 -2694 -4509 0
-4508 2694 0
-4508 2694 0
-4508 4509 0
-4510 2696 4504 4506 4507 4508 0
4510 -2696 0
4510 -4504 0
4510 -4506 0
4510 -4507 0
4510 -4508 0
4511 -2694 -4512 0
-4511 2694 0
-4511 4512 0
4513 -4505 -4512 0
-4513 4505 0
-4513 4512 0
4514 -4505 -2698 0
-4514 4505 0
-4514 2698 0
4515 -2694 -2698 -4509 0
-4515 2694 0
-4515 2698 0
-4515 4509 0
-884 2699 4511 4513 4514 4515 0
884 -2699 0
884 -4511 0
884 -4513 0
884 -4514 0
884 -4515 0
4516 -2694 -4517 0
-4516 2694 0
-4516 4517 0
4518 -4505 -2701 0
-4518 4505 0
-4518 2701 0
4519 -4505 -4517 0
-4519 4505 0
-4519 4517 0
4520 -2694 -2701 -4509 0
-4520 2694 0
-4520 2701 0
-4520 4509 0
-882 2702 4516 4518 4519 4520 0
882 -2702 0
882 -4516 0
882 -4518 0
882 -4519 0
882 -4520 0
4521 -2704 -4517 0
-4521 2704 0
-4521 4517 0
4522 -4523 -4517 0
-4522 4523 0
-4522 4517 0
4524 -4523 -2701 0
-4524 4523 0
-4524 2701 0
4525 -2704 -2701 -4509 0
-4525 2704 0
-4525 2701 0
-4525 4509 0
-885 2705 4521 4522 4524 4525 0
885 -2705 0
885 -4521 0
885 -4522 0
885 -4524 0
885 -4525 0
4526 -2698 -4523 0
-4526 2698 0
-4526 4523 0
4527 -4512 -2704 0
-4527 4512 0
-4527 2704 0
4528 -4512 -4523 0
-4528 4512 0
-4528 4523 0
4529 -2698 -2704 -4509 0
-4529 2698 0
-4529 2704 0
-4529 4509 0
-883 2707 4526 4527 4528 4529 0
883 -2707 0
883 -4526 0
883 -4527 0
883 -4528 0
883 -4529 0
4530 -2698 -4512 0
-4530 2698 0
-4530 4512 0
4531 -4512 -4512 0
-4531 4512 0
-4531 4512 0
4532 -4512 -2698 0
-4532 4512 0
-4532 2698 0
4533 -2698 -2698 -4509 0
-4533 2698 0
-4533 2698 0
-4533 4509 0
-4534 2710 4530 4531 4532 4533 0
4534 -2710 0
4534 -4530 0
4534 -4531 0
4534 -4532 0
4534 -4533 0
4535 -4536 -4536 0
-4535 4536 0
-4535 4536 0
-4537 4538 4535 0
4537 -4538 0
4537 -4535 0
4539 -4536 -4540 0
-4539 4536 0
-4539 4540 0
-1059 4541 4539 0
1059 -4541 0
1059 -4539 0
4542 -4536 -4543 0
-4542 4536 0
-4542 4543 0
-1057 4544 4542 0
1057 -4544 0
1057 -4542 0
4545 -4546 -4543 0
-4545 4546 0
-4545 4543 0
-1060 4547 4545 0
1060 -4547 0
1060 -4545 0
4548 -4540 -4546 0
-4548 4540 0
-4548 4546 0
-1058 4549 4548 0
1058 -4549 0
1058 -4548 0
4550 -4540 -4540 0
-4550 4540 0
-4550 4540 0
-4551 4552 4550 0
4551 -4552 0
4551 -4550 0
4553 -4005 -4005 0
-4553 4005 0
-4553 4005 0
-4554 4011 4553 0
4554 -4011 0
4554 -4553 0
4555 -4005 -3708 0
-4555 4005 0
-4555 3708 0
-199 4016 4555 0
199 -4016 0
199 -4555 0
4556 -4005 -3706 0
-4556 4005 0
-4556 3706 0
-197 4021 4556 0
197 -4021 0
197 -4556 0
4557 -3705 -3706 0
-4557 3705 0
-4557 3706 0
-200 3702 4557 0
200 -3702 0
200 -4557 0
4558 -3708 -3705 0
-4558 3708 0
-4558 3705 0
-198 3699 4558 0
198 -3699 0
198 -4558 0
4559 -3708 -3708 0
-4559 3708 0
-4559 3708 0
-4560 3711 4559 0
4560 -3711 0
4560 -4559 0
4561 -2113 -2113 0
-4561 2113 0
-4561 2113 0
-4562 2119 4561 0
4562 -2119 0
4562 -4561 0
4563 -2113 -2105 0
-4563 2113 0
-4563 2105 0
-529 2089 4563 0
529 -2089 0
529 -4563 0
4564 -2113 -2103 0
-4564 2113 0
-4564 2103 0
-527 2092 4564 0
527 -2092 0
527 -4564 0
4565 -2108 -2103 0
-4565 2108 0
-4565 2103 0
-530 2098 4565 0
530 -2098 0
530 -4565 0
4566 -2105 -2108 0
-4566 2105 0
-4566 2108 0
-528 2096 4566 0
528 -2096 0
528 -4566 0
4567 -2105 -2105 0
-4567 2105 0
-4567 2105 0
-4568 2085 4567 0
4568 -2085 0
4568 -4567 0
4569 -2979 -4570 0
-4569 2979 0
-4569 4570 0
4571 -4570 -4570 0
-4571 4570 0
-4571 4570 0
4572 -4570 -2979 0
-4572 4570 0
-4572 2979 0
4573 -2979 -2979 -2945 0
-4573 2979 0
-4573 2979 0
-4573 2945 0
-4574 2981 4569 4571 4572 4573 0
4574 -2981 0
4574 -4569 0
4574 -4571 0
4574 -4572 0
4574 -4573 0
4575 -2979 -2948 0
-4575 2979 0
-4575 2948 0
4576 -4570 -2948 0
-4576 4570 0
-4576 2948 0
4577 -4570 -2956 0
-4577 4570 0
-4577 2956 0
4578 -2979 -2956 -2945 0
-4578 2979 0
-4578 2956 0
-4578 2945 0
-584 2983 4575 4576 4577 4578 0
584 -2983 0
584 -4575 0
584 -4576 0
584 -4577 0
584 -4578 0
4579 -2979 -2951 0
-4579 2979 0
-4579 2951 0
4580 -4570 -2954 0
-4580 4570 0
-4580 2954 0
4581 -4570 -2951 0
-4581 4570 0
-4581 2951 0
4582 -2979 -2954 -2945 0
-4582 2979 0
-4582 2954 0
-4582 2945 0
-582 2985 4579 4580 4581 4582 0
582 -2985 0
582 -4579 0
582 -4580 0
582 -4581 0
582 -4582 0
4583 -2953 -2951 0
-4583 2953 0
-4583 2951 0
4584 -2943 -2951 0
-4584 2943 0
-4584 2951 0
4585 -2943 -2954 0
-4585 2943 0
-4585 2954 0
4586 -2953 -2954 -2945 0
-4586 2953 0
-4586 2954 0
-4586 2945 0
-585 2950 4583 4584 4585 4586 0
585 -2950 0
585 -4583 0
585 -4584 0
585 -4585 0
585 -4586 0
4587 -2956 -2943 0
-4587 2956 0
-4587 2943 0
4588 -2948 -2953 0
-4588 2948 0
-4588 2953 0
4589 -2948 -2943 0
-4589 2948 0
-4589 2943 0
4590 -2956 -2953 -2945 0
-4590 2956 0
-4590 2953 0
-4590 2945 0
-583 2947 4587 4588 4589 4590 0
583 -2947 0
583 -4587 0
583 -4588 0
583 -4589 0
583 -4590 0
4591 -2956 -2948 0
-4591 2956 0
-4591 2948 0
4592 -2948 -2948 0
-4592 2948 0
-4592 2948 0
4593 -2948 -2956 0
-4593 2948 0
-4593 2956 0
4594 -2956 -2956 -2945 0
-4594 2956 0
-4594 2956 0
-4594 2945 0
-4595 2959 4591 4592 4593 4594 0
4595 -2959 0
4595 -4591 0
4595 -4592 0
4595 -4593 0
4595 -4594 0
4596 -2101 -2094 0
-4596 2101 0
-4596 2094 0
4597 -2094 -2094 0
-4597 2094 0
-4597 2094 0
4598 -2094 -2101 0
-4598 2094 0
-4598 2101 0
4599 -2101 -2101 -2119 0
-4599 2101 0
-4599 2101 0
-4599 2119 0
-4600 2087 4596 4597 4598 4599 0
4600 -2087 0
4600 -4596 0
4600 -4597 0
4600 -4598 0
4600 -4599 0
4601 -2101 -2089 0
-4601 2101 0
-4601 2089 0
4602 -2094 -2089 0
-4602 2094 0
-4602 2089 0
4603 -2094 -2096 0
-4603 2094 0
-4603 2096 0
4604 -2101 -2096 -2119 0
-4604 2101 0
-4604 2096 0
-4604 2119 0
-104 2081 4601 4602 4603 4604 0
104 -2081 0
104 -4601 0
104 -4602 0
104 -4603 0
104 -4604 0
4605 -2101 -2092 0
-4605 2101 0
-4605 2092 0
4606 -2094 -2098 0
-4606 2094 0
-4606 2098 0
4607 -2094 -2092 0
-4607 2094 0
-4607 2092 0
4608 -2101 -2098 -2119 0
-4608 2101 0
-4608 2098 0
-4608 2119 0
-102 2080 4605 4606 4607 4608 0
102 -2080 0
102 -4605 0
102 -4606 0
102 -4607 0
102 -4608 0
4609 -2108 -2092 0
-4609 2108 0
-4609 2092 0
4610 -2113 -2092 0
-4610 2113 0
-4610 2092 0
4611 -2113 -2098 0
-4611 2113 0
-4611 2098 0
4612 -2108 -2098 -2119 0
-4612 2108 0
-4612 2098 0
-4612 2119 0
-105 2103 4609 4610 4611 4612 0
105 -2103 0
105 -4609 0
105 -4610 0
105 -4611 0
105 -4612 0
4613 -2096 -2113 0
-4613 2096 0
-4613 2113 0
4614 -2089 -2108 0
-4614 2089 0
-4614 2108 0
4615 -2089 -2113 0
-4615 2089 0
-4615 2113 0
4616 -2096 -2108 -2119 0
-4616 2096 0
-4616 2108 0
-4616 2119 0
-103 2105 4613 4614 4615 4616 0
103 -2105 0
103 -4613 0
103 -4614 0
103 -4615 0
103 -4616 0
4617 -2096 -2089 0
-4617 2096 0
-4617 2089 0
2115 -2089 -2089 0
-2115 2089 0
-2115 2089 0
4618 -2089 -2096 0
-4618 2089 0
-4618 2096 0
4619 -2096 -2096 -2119 0
-4619 2096 0
-4619 2096 0
-4619 2119 0
-4620 2085 4617 2115 4618 4619 0
4620 -2085 0
4620 -4617 0
4620 -2115 0
4620 -4618 0
4620 -4619 0
4621 -3623 -3623 0
-4621 3623 0
-4621 3623 0
-4622 3619 4621 0
4622 -3619 0
4622 -4621 0
4623 -3623 -3261 0
-4623 3623 0
-4623 3261 0
-384 3801 4623 0
384 -3801 0
384 -4623 0
4624 -3623 -3264 0
-4624 3623 0
-4624 3264 0
-382 3617 4624 0
382 -3617 0
382 -4624 0
4625 -3260 -3264 0
-4625 3260 0
-4625 3264 0
-385 3263 4625 0
385 -3263 0
385 -4625 0
4626 -3261 -3260 0
-4626 3261 0
-4626 3260 0
-383 3253 4626 0
383 -3253 0
383 -4626 0
4627 -3261 -3261 0
-4627 3261 0
-4627 3261 0
-4628 3255 4627 0
4628 -3255 0
4628 -4627 0
4629 -3828 -3828 0
-4629 3828 0
-4629 3828 0
-4630 3835 4629 0
4630 -3835 0
4630 -4629 0
4631 -3828 -3840 0
-4631 3828 0
-4631 3840 0
-1069 3842 4631 0
1069 -3842 0
1069 -4631 0
4632 -3828 -3846 0
-4632 3828 0
-4632 3846 0
-1067 3849 4632 0
1067 -3849 0
1067 -4632 0
4633 -3851 -3846 0
-4633 3851 0
-4633 3846 0
-1070 3856 4633 0
1070 -3856 0
1070 -4633 0
4634 -3840 -3851 0
-4634 3840 0
-4634 3851 0
-1068 3861 4634 0
1068 -3861 0
1068 -4634 0
4635 -3840 -3840 0
-4635 3840 0
-4635 3840 0
-4636 3867 4635 0
4636 -3867 0
4636 -4635 0
4637 -3752 -3752 0
-4637 3752 0
-4637 3752 0
-4638 3759 4637 0
4638 -3759 0
4638 -4637 0
4639 -3752 -3764 0
-4639 3752 0
-4639 3764 0
-1079 3766 4639 0
1079 -3766 0
1079 -4639 0
4640 -3752 -3770 0
-4640 3752 0
-4640 3770 0
-1077 3773 4640 0
1077 -3773 0
1077 -4640 0
4641 -3775 -3770 0
-4641 3775 0
-4641 3770 0
-1080 3780 4641 0
1080 -3780 0
1080 -4641 0
4642 -3764 -3775 0
-4642 3764 0
-4642 3775 0
-1078 3785 4642 0
1078 -3785 0
1078 -4642 0
4643 -3764 -3764 0
-4643 3764 0
-4643 3764 0
-4644 3791 4643 0
4644 -3791 0
4644 -4643 0
4645 -1330 -1330 0
-4645 1330 0
-4645 1330 0
-4646 1310 4645 0
4646 -1310 0
4646 -4645 0
4647 -1330 -1338 0
-4647 1330 0
-4647 1338 0
-1169 1314 4647 0
1169 -1314 0
1169 -4647 0
4648 -1330 -1333 0
-4648 1330 0
-4648 1333 0
-1167 1321 4648 0
1167 -1321 0
1167 -4648 0
4649 -1328 -1333 0
-4649 1328 0
-4649 1333 0
-1170 1323 4649 0
1170 -1323 0
1170 -4649 0
4650 -1338 -1328 0
-4650 1338 0
-4650 1328 0
-1168 1317 4650 0
1168 -1317 0
1168 -4650 0
4651 -1338 -1338 0
-4651 1338 0
-4651 1338 0
-4652 1344 4651 0
4652 -1344 0
4652 -4651 0
4653 -3296 -3272 0
-4653 3296 0
-4653 3272 0
3273 -3272 -3272 0
-3273 3272 0
-3273 3272 0
4654 -3272 -3296 0
-4654 3272 0
-4654 3296 0
4655 -3296 -3296 -3278 0
-4655 3296 0
-4655 3296 0
-4655 3278 0
-4656 3276 4653 3273 4654 4655 0
4656 -3276 0
4656 -4653 0
4656 -3273 0
4656 -4654 0
4656 -4655 0
4657 -3296 -3285 0
-4657 3296 0
-4657 3285 0
4658 -3272 -3285 0
-4658 3272 0
-4658 3285 0
4659 -3272 -3304 0
-4659 3272 0
-4659 3304 0
4660 -3296 -3304 -3278 0
-4660 3296 0
-4660 3304 0
-4660 3278 0
-19 3280 4657 4658 4659 4660 0
19 -3280 0
19 -4657 0
19 -4658 0
19 -4659 0
19 -4660 0
4661 -3296 -3292 0
-4661 3296 0
-4661 3292 0
4662 -3272 -3299 0
-4662 3272 0
-4662 3299 0
4663 -3272 -3292 0
-4663 3272 0
-4663 3292 0
4664 -3296 -3299 -3278 0
-4664 3296 0
-4664 3299 0
-4664 3278 0
-17 3287 4661 4662 4663 4664 0
17 -3287 0
17 -4661 0
17 -4662 0
17 -4663 0
17 -4664 0
4665 -3294 -3292 0
-4665 3294 0
-4665 3292 0
4666 -3271 -3292 0
-4666 3271 0
-4666 3292 0
4667 -3271 -3299 0
-4667 3271 0
-4667 3299 0
4668 -3294 -3299 -3278 0
-4668 3294 0
-4668 3299 0
-4668 3278 0
-20 3289 4665 4666 4667 4668 0
20 -3289 0
20 -4665 0
20 -4666 0
20 -4667 0
20 -4668 0
4669 -3304 -3271 0
-4669 3304 0
-4669 3271 0
4670 -3285 -3294 0
-4670 3285 0
-4670 3294 0
4671 -3285 -3271 0
-4671 3285 0
-4671 3271 0
4672 -3304 -3294 -3278 0
-4672 3304 0
-4672 3294 0
-4672 3278 0
-18 3283 4669 4670 4671 4672 0
18 -3283 0
18 -4669 0
18 -4670 0
18 -4671 0
18 -4672 0
4673 -3304 -3285 0
-4673 3304 0
-4673 3285 0
4674 -3285 -3285 0
-4674 3285 0
-4674 3285 0
4675 -3285 -3304 0
-4675 3285 0
-4675 3304 0
4676 -3304 -3304 -3278 0
-4676 3304 0
-4676 3304 0
-4676 3278 0
-4677 3310 4673 4674 4675 4676 0
4677 -3310 0
4677 -4673 0
4677 -4674 0
4677 -4675 0
4677 -4676 0
4678 -1931 -1931 0
-4678 1931 0
-4678 1931 0
-4679 1938 4678 0
4679 -1938 0
4679 -4678 0
4680 -1931 -1943 0
-4680 1931 0
-4680 1943 0
-679 1945 4680 0
679 -1945 0
679 -4680 0
4681 -1931 -1949 0
-4681 1931 0
-4681 1949 0
-677 1952 4681 0
677 -1952 0
677 -4681 0
4682 -1954 -1949 0
-4682 1954 0
-4682 1949 0
-680 1959 4682 0
680 -1959 0
680 -4682 0
4683 -1943 -1954 0
-4683 1943 0
-4683 1954 0
-678 1964 4683 0
678 -1964 0
678 -4683 0
4684 -1943 -1943 0
-4684 1943 0
-4684 1943 0
-4685 1970 4684 0
4685 -1970 0
4685 -4684 0
4686 -2861 -2861 0
-4686 2861 0
-4686 2861 0
-4687 2868 4686 0
4687 -2868 0
4687 -4686 0
4688 -2861 -2873 0
-4688 2861 0
-4688 2873 0
-574 2875 4688 0
574 -2875 0
574 -4688 0
4689 -2861 -2879 0
-4689 2861 0
-4689 2879 0
-572 2882 4689 0
572 -2882 0
572 -4689 0
4690 -2884 -2879 0
-4690 2884 0
-4690 2879 0
-575 2889 4690 0
575 -2889 0
575 -4690 0
4691 -2873 -2884 0
-4691 2873 0
-4691 2884 0
-573 2894 4691 0
573 -2894 0
573 -4691 0
4692 -2873 -2873 0
-4692 2873 0
-4692 2873 0
-4693 2900 4692 0
4693 -2900 0
4693 -4692 0
4694 -3721 -3721 0
-4694 3721 0
-4694 3721 0
-4695 3727 4694 0
4695 -3727 0
4695 -4694 0
4696 -3721 -3642 0
-4696 3721 0
-4696 3642 0
-239 3732 4696 0
239 -3732 0
239 -4696 0
4697 -3721 -3640 0
-4697 3721 0
-4697 3640 0
-237 3737 4697 0
237 -3737 0
237 -4697 0
4698 -3639 -3640 0
-4698 3639 0
-4698 3640 0
-240 3636 4698 0
240 -3636 0
240 -4698 0
4699 -3642 -3639 0
-4699 3642 0
-4699 3639 0
-238 3633 4699 0
238 -3633 0
238 -4699 0
4700 -3642 -3642 0
-4700 3642 0
-4700 3642 0
-4701 3645 4700 0
4701 -3645 0
4701 -4700 0
4702 -3253 -3801 0
-4702 3253 0
-4702 3801 0
3802 -3801 -3801 0
-3802 3801 0
-3802 3801 0
4703 -3801 -3253 0
-4703 3801 0
-4703 3253 0
4704 -3253 -3253 -3619 0
-4704 3253 0
-4704 3253 0
-4704 3619 0
-4705 3255 4702 3802 4703 4704 0
4705 -3255 0
4705 -4702 0
4705 -3802 0
4705 -4703 0
4705 -4704 0
4706 -3253 -3621 0
-4706 3253 0
-4706 3621 0
4707 -3801 -3621 0
-4707 3801 0
-4707 3621 0
4708 -3801 -3257 0
-4708 3801 0
-4708 3257 0
4709 -3253 -3257 -3619 0
-4709 3253 0
-4709 3257 0
-4709 3619 0
-189 3258 4706 4707 4708 4709 0
189 -3258 0
189 -4706 0
189 -4707 0
189 -4708 0
189 -4709 0
4710 -3253 -3623 0
-4710 3253 0
-4710 3623 0
4711 -3801 -3260 0
-4711 3801 0
-4711 3260 0
4712 -3801 -3623 0
-4712 3801 0
-4712 3623 0
4713 -3253 -3260 -3619 0
-4713 3253 0
-4713 3260 0
-4713 3619 0
-187 3261 4710 4711 4712 4713 0
187 -3261 0
187 -4710 0
187 -4711 0
187 -4712 0
187 -4713 0
4714 -3263 -3623 0
-4714 3263 0
-4714 3623 0
4715 -3617 -3623 0
-4715 3617 0
-4715 3623 0
4716 -3617 -3260 0
-4716 3617 0
-4716 3260 0
4717 -3263 -3260 -3619 0
-4717 3263 0
-4717 3260 0
-4717 3619 0
-190 3264 4714 4715 4716 4717 0
190 -3264 0
190 -4714 0
190 -4715 0
190 -4716 0
190 -4717 0
4718 -3257 -3617 0
-4718 3257 0
-4718 3617 0
4719 -3621 -3263 0
-4719 3621 0
-4719 3263 0
4720 -3621 -3617 0
-4720 3621 0
-4720 3617 0
4721 -3257 -3263 -3619 0
-4721 3257 0
-4721 3263 0
-4721 3619 0
-188 3266 4718 4719 4720 4721 0
188 -3266 0
188 -4718 0
188 -4719 0
188 -4720 0
188 -4721 0
4722 -3257 -3621 0
-4722 3257 0
-4722 3621 0
4380 -3621 -3621 0
-4380 3621 0
-4380 3621 0
4723 -3621 -3257 0
-4723 3621 0
-4723 3257 0
4724 -3257 -3257 -3619 0
-4724 3257 0
-4724 3257 0
-4724 3619 0
-4725 3269 4722 4380 4723 4724 0
4725 -3269 0
4725 -4722 0
4725 -4380 0
4725 -4723 0
4725 -4724 0
4726 -4727 -4728 0
-4726 4727 0
-4726 4728 0
4729 -4728 -4728 0
-4729 4728 0
-4729 4728 0
4730 -4728 -4727 0
-4730 4728 0
-4730 4727 0
4731 -4727 -4727 -4732 0
-4731 4727 0
-4731 4727 0
-4731 4732 0
-4733 4734 4726 4729 4730 4731 0
4733 -4734 0
4733 -4726 0
4733 -4729 0
4733 -4730 0
4733 -4731 0
4735 -4727 -4736 0
-4735 4727 0
-4735 4736 0
4737 -4728 -4736 0
-4737 4728 0
-4737 4736 0
4738 -4728 -4739 0
-4738 4728 0
-4738 4739 0
4740 -4727 -4739 -4732 0
-4740 4727 0
-4740 4739 0
-4740 4732 0
-719 4741 4735 4737 4738 4740 0
719 -4741 0
719 -4735 0
719 -4737 0
719 -4738 0
719 -4740 0
4742 -4727 -4743 0
-4742 4727 0
-4742 4743 0
4744 -4728 -4745 0
-4744 4728 0
-4744 4745 0
4746 -4728 -4743 0
-4746 4728 0
-4746 4743 0
4747 -4727 -4745 -4732 0
-4747 4727 0
-4747 4745 0
-4747 4732 0
-717 4748 4742 4744 4746 4747 0
717 -4748 0
717 -4742 0
717 -4744 0
717 -4746 0
717 -4747 0
4749 -4750 -4743 0
-4749 4750 0
-4749 4743 0
4751 -4752 -4743 0
-4751 4752 0
-4751 4743 0
4753 -4752 -4745 0
-4753 4752 0
-4753 4745 0
4754 -4750 -4745 -4732 0
-4754 4750 0
-4754 4745 0
-4754 4732 0
-720 4755 4749 4751 4753 4754 0
720 -4755 0
720 -4749 0
720 -4751 0
720 -4753 0
720 -4754 0
4756 -4739 -4752 0
-4756 4739 0
-4756 4752 0
4757 -4736 -4750 0
-4757 4736 0
-4757 4750 0
4758 -4736 -4752 0
-4758 4736 0
-4758 4752 0
4759 -4739 -4750 -4732 0
-4759 4739 0
-4759 4750 0
-4759 4732 0
-718 4760 4756 4757 4758 4759 0
718 -4760 0
718 -4756 0
718 -4757 0
718 -4758 0
718 -4759 0
4761 -4739 -4736 0
-4761 4739 0
-4761 4736 0
4762 -4736 -4736 0
-4762 4736 0
-4762 4736 0
4763 -4736 -4739 0
-4763 4736 0
-4763 4739 0
4764 -4739 -4739 -4732 0
-4764 4739 0
-4764 4739 0
-4764 4732 0
-4765 4766 4761 4762 4763 4764 0
4765 -4766 0
4765 -4761 0
4765 -4762 0
4765 -4763 0
4765 -4764 0
4767 -1690 -1690 0
-4767 1690 0
-4767 1690 0
-4768 1697 4767 0
4768 -1697 0
4768 -4767 0
4769 -1690 -1702 0
-4769 1690 0
-4769 1702 0
-439 1704 4769 0
439 -1704 0
439 -4769 0
4770 -1690 -1708 0
-4770 1690 0
-4770 1708 0
-437 1711 4770 0
437 -1711 0
437 -4770 0
4771 -1713 -1708 0
-4771 1713 0
-4771 1708 0
-440 1718 4771 0
440 -1718 0
440 -4771 0
4772 -1702 -1713 0
-4772 1702 0
-4772 1713 0
-438 1723 4772 0
438 -1723 0
438 -4772 0
4773 -1702 -1702 0
-4773 1702 0
-4773 1702 0
-4774 1729 4773 0
4774 -1729 0
4774 -4773 0
4775 -4119 -4119 0
-4775 4119 0
-4775 4119 0
-4776 4126 4775 0
4776 -4126 0
4776 -4775 0
4777 -4119 -4131 0
-4777 4119 0
-4777 4131 0
-774 4133 4777 0
774 -4133 0
774 -4777 0
4778 -4119 -4137 0
-4778 4119 0
-4778 4137 0
-772 4140 4778 0
772 -4140 0
772 -4778 0
4779 -4142 -4137 0
-4779 4142 0
-4779 4137 0
-775 4147 4779 0
775 -4147 0
775 -4779 0
4780 -4131 -4142 0
-4780 4131 0
-4780 4142 0
-773 4152 4780 0
773 -4152 0
773 -4780 0
4781 -4131 -4131 0
-4781 4131 0
-4781 4131 0
-4782 4158 4781 0
4782 -4158 0
4782 -4781 0
4783 -4217 -4217 0
-4783 4217 0
-4783 4217 0
-4784 4224 4783 0
4784 -4224 0
4784 -4783 0
4785 -4217 -4229 0
-4785 4217 0
-4785 4229 0
-1099 4231 4785 0
1099 -4231 0
1099 -4785 0
4786 -4217 -4235 0
-4786 4217 0
-4786 4235 0
-1097 4238 4786 0
1097 -4238 0
1097 -4786 0
4787 -4240 -4235 0
-4787 4240 0
-4787 4235 0
-1100 4245 4787 0
1100 -4245 0
1100 -4787 0
4788 -4229 -4240 0
-4788 4229 0
-4788 4240 0
-1098 4250 4788 0
1098 -4250 0
1098 -4788 0
4789 -4229 -4229 0
-4789 4229 0
-4789 4229 0
-4790 4256 4789 0
4790 -4256 0
4790 -4789 0
4791 -4792 -4792 0
-4791 4792 0
-4791 4792 0
-4793 4794 4791 0
4793 -4794 0
4793 -4791 0
4795 -4792 -4796 0
-4795 4792 0
-4795 4796 0
-1119 4797 4795 0
1119 -4797 0
1119 -4795 0
4798 -4792 -4799 0
-4798 4792 0
-4798 4799 0
-1117 4800 4798 0
1117 -4800 0
1117 -4798 0
4801 -4802 -4799 0
-4801 4802 0
-4801 4799 0
-1120 4803 4801 0
1120 -4803 0
1120 -4801 0
4804 -4796 -4802 0
-4804 4796 0
-4804 4802 0
-1118 4805 4804 0
1118 -4805 0
1118 -4804 0
4806 -4796 -4796 0
-4806 4796 0
-4806 4796 0
-4807 4808 4806 0
4807 -4808 0
4807 -4806 0
4809 -1330 -1306 0
-4809 1330 0
-4809 1306 0
1307 -1306 -1306 0
-1307 1306 0
-1307 1306 0
4810 -1306 -1330 0
-4810 1306 0
-4810 1330 0
4811 -1330 -1330 -1312 0
-4811 1330 0
-4811 1330 0
-4811 1312 0
-4812 1310 4809 1307 4810 4811 0
4812 -1310 0
4812 -4809 0
4812 -1307 0
4812 -4810 0
4812 -4811 0
4813 -1330 -1319 0
-4813 1330 0
-4813 1319 0
4814 -1306 -1319 0
-4814 1306 0
-4814 1319 0
4815 -1306 -1338 0
-4815 1306 0
-4815 1338 0
4816 -1330 -1338 -1312 0
-4816 1330 0
-4816 1338 0
-4816 1312 0
-1004 1314 4813 4814 4815 4816 0
1004 -1314 0
1004 -4813 0
1004 -4814 0
1004 -4815 0
1004 -4816 0
4817 -1330 -1326 0
-4817 1330 0
-4817 1326 0
4818 -1306 -1333 0
-4818 1306 0
-4818 1333 0
4819 -1306 -1326 0
-4819 1306 0
-4819 1326 0
4820 -1330 -1333 -1312 0
-4820 1330 0
-4820 1333 0
-4820 1312 0
-1002 1321 4817 4818 4819 4820 0
1002 -1321 0
1002 -4817 0
1002 -4818 0
1002 -4819 0
1002 -4820 0
4821 -1328 -1326 0
-4821 1328 0
-4821 1326 0
4822 -1305 -1326 0
-4822 1305 0
-4822 1326 0
4823 -1305 -1333 0
-4823 1305 0
-4823 1333 0
4824 -1328 -1333 -1312 0
-4824 1328 0
-4824 1333 0
-4824 1312 0
-1005 1323 4821 4822 4823 4824 0
1005 -1323 0
1005 -4821 0
1005 -4822 0
1005 -4823 0
1005 -4824 0
4825 -1338 -1305 0
-4825 1338 0
-4825 1305 0
4826 -1319 -1328 0
-4826 1319 0
-4826 1328 0
4827 -1319 -1305 0
-4827 1319 0
-4827 1305 0
4828 -1338 -1328 -1312 0
-4828 1338 0
-4828 1328 0
-4828 1312 0
-1003 1317 4825 4826 4827 4828 0
1003 -1317 0
1003 -4825 0
1003 -4826 0
1003 -4827 0
1003 -4828 0
4829 -1338 -1319 0
-4829 1338 0
-4829 1319 0
4830 -1319 -1319 0
-4830 1319 0
-4830 1319 0
4831 -1319 -1338 0
-4831 1319 0
-4831 1338 0
4832 -1338 -1338 -1312 0
-4832 1338 0
-4832 1338 0
-4832 1312 0
-4833 1344 4829 4830 4831 4832 0
4833 -1344 0
4833 -4829 0
4833 -4830 0
4833 -4831 0
4833 -4832 0
4834 -3695 -4006 0
-4834 3695 0
-4834 4006 0
4007 -4006 -4006 0
-4007 4006 0
-4007 4006 0
4835 -4006 -3695 0
-4835 4006 0
-4835 3695 0
4836 -3695 -3695 -4011 0
-4836 3695 0
-4836 3695 0
-4836 4011 0
-4837 3697 4834 4007 4835 4836 0
4837 -3697 0
4837 -4834 0
4837 -4007 0
4837 -4835 0
4837 -4836 0
4838 -3695 -4016 0
-4838 3695 0
-4838 4016 0
4839 -4006 -4016 0
-4839 4006 0
-4839 4016 0
4840 -4006 -3699 0
-4840 4006 0
-4840 3699 0
4841 -3695 -3699 -4011 0
-4841 3695 0
-4841 3699 0
-4841 4011 0
-14 3700 4838 4839 4840 4841 0
14 -3700 0
14 -4838 0
14 -4839 0
14 -4840 0
14 -4841 0
4842 -3695 -4021 0
-4842 3695 0
-4842 4021 0
4843 -4006 -3702 0
-4843 4006 0
-4843 3702 0
4844 -4006 -4021 0
-4844 4006 0
-4844 4021 0
4845 -3695 -3702 -4011 0
-4845 3695 0
-4845 3702 0
-4845 4011 0
-12 3703 4842 4843 4844 4845 0
12 -3703 0
12 -4842 0
12 -4843 0
12 -4844 0
12 -4845 0
4846 -3705 -4021 0
-4846 3705 0
-4846 4021 0
4847 -4005 -4021 0
-4847 4005 0
-4847 4021 0
4848 -4005 -3702 0
-4848 4005 0
-4848 3702 0
4849 -3705 -3702 -4011 0
-4849 3705 0
-4849 3702 0
-4849 4011 0
-15 3706 4846 4847 4848 4849 0
15 -3706 0
15 -4846 0
15 -4847 0
15 -4848 0
15 -4849 0
4850 -3699 -4005 0
-4850 3699 0
-4850 4005 0
4851 -4016 -3705 0
-4851 4016 0
-4851 3705 0
4852 -4016 -4005 0
-4852 4016 0
-4852 4005 0
4853 -3699 -3705 -4011 0
-4853 3699 0
-4853 3705 0
-4853 4011 0
-13 3708 4850 4851 4852 4853 0
13 -3708 0
13 -4850 0
13 -4851 0
13 -4852 0
13 -4853 0
4854 -3699 -4016 0
-4854 3699 0
-4854 4016 0
4855 -4016 -4016 0
-4855 4016 0
-4855 4016 0
4856 -4016 -3699 0
-4856 4016 0
-4856 3699 0
4857 -3699 -3699 -4011 0
-4857 3699 0
-4857 3699 0
-4857 4011 0
-4858 3711 4854 4855 4856 4857 0
4858 -3711 0
4858 -4854 0
4858 -4855 0
4858 -4856 0
4858 -4857 0
4859 -3209 -3209 0
-4859 3209 0
-4859 3209 0
-4860 3195 4859 0
4860 -3195 0
4860 -4859 0
4861 -3209 -2183 0
-4861 3209 0
-4861 2183 0
-604 3198 4861 0
604 -3198 0
604 -4861 0
4862 -3209 -2181 0
-4862 3209 0
-4862 2181 0
-602 3203 4862 0
602 -3203 0
602 -4862 0
4863 -2180 -2181 0
-4863 2180 0
-4863 2181 0
-605 2177 4863 0
605 -2177 0
605 -4863 0
4864 -2183 -2180 0
-4864 2183 0
-4864 2180 0
-603 2174 4864 0
603 -2174 0
603 -4864 0
4865 -2183 -2183 0
-4865 2183 0
-4865 2183 0
-4866 2186 4865 0
4866 -2186 0
4866 -4865 0
4867 -1897 -1897 0
-4867 1897 0
-4867 1897 0
-4868 1877 4867 0
4868 -1877 0
4868 -4867 0
4869 -1897 -1905 0
-4869 1897 0
-4869 1905 0
-929 1881 4869 0
929 -1881 0
929 -4869 0
4870 -1897 -1900 0
-4870 1897 0
-4870 1900 0
-927 1888 4870 0
927 -1888 0
927 -4870 0
4871 -1895 -1900 0
-4871 1895 0
-4871 1900 0
-930 1890 4871 0
930 -1890 0
930 -4871 0
4872 -1905 -1895 0
-4872 1905 0
-4872 1895 0
-928 1884 4872 0
928 -1884 0
928 -4872 0
4873 -1905 -1905 0
-4873 1905 0
-4873 1905 0
-4874 1911 4873 0
4874 -1911 0
4874 -4873 0
4875 -3629 -3722 0
-4875 3629 0
-4875 3722 0
3723 -3722 -3722 0
-3723 3722 0
-3723 3722 0
4876 -3722 -3629 0
-4876 3722 0
-4876 3629 0
4877 -3629 -3629 -3727 0
-4877 3629 0
-4877 3629 0
-4877 3727 0
-4878 3631 4875 3723 4876 4877 0
4878 -3631 0
4878 -4875 0
4878 -3723 0
4878 -4876 0
4878 -4877 0
4879 -3629 -3732 0
-4879 3629 0
-4879 3732 0
4880 -3722 -3732 0
-4880 3722 0
-4880 3732 0
4881 -3722 -3633 0
-4881 3722 0
-4881 3633 0
4882 -3629 -3633 -3727 0
-4882 3629 0
-4882 3633 0
-4882 3727 0
-24 3634 4879 4880 4881 4882 0
24 -3634 0
24 -4879 0
24 -4880 0
24 -4881 0
24 -4882 0
4883 -3629 -3737 0
-4883 3629 0
-4883 3737 0
4884 -3722 -3636 0
-4884 3722 0
-4884 3636 0
4885 -3722 -3737 0
-4885 3722 0
-4885 3737 0
4886 -3629 -3636 -3727 0
-4886 3629 0
-4886 3636 0
-4886 3727 0
-22 3637 4883 4884 4885 4886 0
22 -3637 0
22 -4883 0
22 -4884 0
22 -4885 0
22 -4886 0
4887 -3639 -3737 0
-4887 3639 0
-4887 3737 0
4888 -3721 -3737 0
-4888 3721 0
-4888 3737 0
4889 -3721 -3636 0
-4889 3721 0
-4889 3636 0
4890 -3639 -3636 -3727 0
-4890 3639 0
-4890 3636 0
-4890 3727 0
-25 3640 4887 4888 4889 4890 0
25 -3640 0
25 -4887 0
25 -4888 0
25 -4889 0
25 -4890 0
4891 -3633 -3721 0
-4891 3633 0
-4891 3721 0
4892 -3732 -3639 0
-4892 3732 0
-4892 3639 0
4893 -3732 -3721 0
-4893 3732 0
-4893 3721 0
4894 -3633 -3639 -3727 0
-4894 3633 0
-4894 3639 0
-4894 3727 0
-23 3642 4891 4892 4893 4894 0
23 -3642 0
23 -4891 0
23 -4892 0
23 -4893 0
23 -4894 0
4895 -3633 -3732 0
-4895 3633 0
-4895 3732 0
4896 -3732 -3732 0
-4896 3732 0
-4896 3732 0
4897 -3732 -3633 0
-4897 3732 0
-4897 3633 0
4898 -3633 -3633 -3727 0
-4898 3633 0
-4898 3633 0
-4898 3727 0
-4899 3645 4895 4896 4897 4898 0
4899 -3645 0
4899 -4895 0
4899 -4896 0
4899 -4897 0
4899 -4898 0
4900 -2943 -4570 0
-4900 2943 0
-4900 4570 0
4571 -4570 -4570 0
-4571 4570 0
-4571 4570 0
4901 -4570 -2943 0
-4901 4570 0
-4901 2943 0
4902 -2943 -2943 -2981 0
-4902 2943 0
-4902 2943 0
-4902 2981 0
-4903 2945 4900 4571 4901 4902 0
4903 -2945 0
4903 -4900 0
4903 -4571 0
4903 -4901 0
4903 -4902 0
4904 -2943 -2983 0
-4904 2943 0
-4904 2983 0
4905 -4570 -2983 0
-4905 4570 0
-4905 2983 0
4906 -4570 -2947 0
-4906 4570 0
-4906 2947 0
4907 -2943 -2947 -2981 0
-4907 2943 0
-4907 2947 0
-4907 2981 0
-464 2948 4904 4905 4906 4907 0
464 -2948 0
464 -4904 0
464 -4905 0
464 -4906 0
464 -4907 0
4908 -2943 -2985 0
-4908 2943 0
-4908 2985 0
4909 -4570 -2950 0
-4909 4570 0
-4909 2950 0
4910 -4570 -2985 0
-4910 4570 0
-4910 2985 0
4911 -2943 -2950 -2981 0
-4911 2943 0
-4911 2950 0
-4911 2981 0
-462 2951 4908 4909 4910 4911 0
462 -2951 0
462 -4908 0
462 -4909 0
462 -4910 0
462 -4911 0
4912 -2953 -2985 0
-4912 2953 0
-4912 2985 0
4913 -2979 -2985 0
-4913 2979 0
-4913 2985 0
4914 -2979 -2950 0
-4914 2979 0
-4914 2950 0
4915 -2953 -2950 -2981 0
-4915 2953 0
-4915 2950 0
-4915 2981 0
-465 2954 4912 4913 4914 4915 0
465 -2954 0
465 -4912 0
465 -4913 0
465 -4914 0
465 -4915 0
4916 -2947 -2979 0
-4916 2947 0
-4916 2979 0
4917 -2983 -2953 0
-4917 2983 0
-4917 2953 0
4918 -2983 -2979 0
-4918 2983 0
-4918 2979 0
4919 -2947 -2953 -2981 0
-4919 2947 0
-4919 2953 0
-4919 2981 0
-463 2956 4916 4917 4918 4919 0
463 -2956 0
463 -4916 0
463 -4917 0
463 -4918 0
463 -4919 0
4920 -2947 -2983 0
-4920 2947 0
-4920 2983 0
4921 -2983 -2983 0
-4921 2983 0
-4921 2983 0
4922 -2983 -2947 0
-4922 2983 0
-4922 2947 0
4923 -2947 -2947 -2981 0
-4923 2947 0
-4923 2947 0
-4923 2981 0
-4924 2959 4920 4921 4922 4923 0
4924 -2959 0
4924 -4920 0
4924 -4921 0
4924 -4922 0
4924 -4923 0
4925 -4926 -4926 0
-4925 4926 0
-4925 4926 0
-4927 4928 4925 0
4927 -4928 0
4927 -4925 0
4929 -4926 -4930 0
-4929 4926 0
-4929 4930 0
-1114 4931 4929 0
1114 -4931 0
1114 -4929 0
4932 -4926 -4933 0
-4932 4926 0
-4932 4933 0
-1112 4934 4932 0
1112 -4934 0
1112 -4932 0
4935 -4936 -4933 0
-4935 4936 0
-4935 4933 0
-1115 4937 4935 0
1115 -4937 0
1115 -4935 0
4938 -4930 -4936 0
-4938 4930 0
-4938 4936 0
-1113 4939 4938 0
1113 -4939 0
1113 -4938 0
4940 -4930 -4930 0
-4940 4930 0
-4940 4930 0
-4941 4942 4940 0
4941 -4942 0
4941 -4940 0
4943 -2550 -2550 0
-4943 2550 0
-4943 2550 0
-4944 2557 4943 0
4944 -2557 0
4944 -4943 0
4945 -2550 -2562 0
-4945 2550 0
-4945 2562 0
-444 2564 4945 0
444 -2564 0
444 -4945 0
4946 -2550 -2568 0
-4946 2550 0
-4946 2568 0
-442 2571 4946 0
442 -2571 0
442 -4946 0
4947 -2573 -2568 0
-4947 2573 0
-4947 2568 0
-445 2578 4947 0
445 -2578 0
445 -4947 0
4948 -2562 -2573 0
-4948 2562 0
-4948 2573 0
-443 2583 4948 0
443 -2583 0
443 -4948 0
4949 -2562 -2562 0
-4949 2562 0
-4949 2562 0
-4950 2589 4949 0
4950 -2589 0
4950 -4949 0
4951 -1494 -1470 0
-4951 1494 0
-4951 1470 0
1471 -1470 -1470 0
-1471 1470 0
-1471 1470 0
4952 -1470 -1494 0
-4952 1470 0
-4952 1494 0
4953 -1494 -1494 -1476 0
-4953 1494 0
-4953 1494 0
-4953 1476 0
-4954 1474 4951 1471 4952 4953 0
4954 -1474 0
4954 -4951 0
4954 -1471 0
4954 -4952 0
4954 -4953 0
4955 -1494 -1483 0
-4955 1494 0
-4955 1483 0
4956 -1470 -1483 0
-4956 1470 0
-4956 1483 0
4957 -1470 -1502 0
-4957 1470 0
-4957 1502 0
4958 -1494 -1502 -1476 0
-4958 1494 0
-4958 1502 0
-4958 1476 0
-169 1478 4955 4956 4957 4958 0
169 -1478 0
169 -4955 0
169 -4956 0
169 -4957 0
169 -4958 0
4959 -1494 -1490 0
-4959 1494 0
-4959 1490 0
4960 -1470 -1497 0
-4960 1470 0
-4960 1497 0
4961 -1470 -1490 0
-4961 1470 0
-4961 1490 0
4962 -1494 -1497 -1476 0
-4962 1494 0
-4962 1497 0
-4962 1476 0
-167 1485 4959 4960 4961 4962 0
167 -1485 0
167 -4959 0
167 -4960 0
167 -4961 0
167 -4962 0
4963 -1492 -1490 0
-4963 1492 0
-4963 1490 0
4964 -1469 -1490 0
-4964 1469 0
-4964 1490 0
4965 -1469 -1497 0
-4965 1469 0
-4965 1497 0
4966 -1492 -1497 -1476 0
-4966 1492 0
-4966 1497 0
-4966 1476 0
-170 1487 4963 4964 4965 4966 0
170 -1487 0
170 -4963 0
170 -4964 0
170 -4965 0
170 -4966 0
4967 -1502 -1469 0
-4967 1502 0
-4967 1469 0
4968 -1483 -1492 0
-4968 1483 0
-4968 1492 0
4969 -1483 -1469 0
-4969 1483 0
-4969 1469 0
4970 -1502 -1492 -1476 0
-4970 1502 0
-4970 1492 0
-4970 1476 0
-168 1481 4967 4968 4969 4970 0
168 -1481 0
168 -4967 0
168 -4968 0
168 -4969 0
168 -4970 0
4971 -1502 -1483 0
-4971 1502 0
-4971 1483 0
4972 -1483 -1483 0
-4972 1483 0
-4972 1483 0
4973 -1483 -1502 0
-4973 1483 0
-4973 1502 0
4974 -1502 -1502 -1476 0
-4974 1502 0
-4974 1502 0
-4974 1476 0
-4975 1508 4971 4972 4973 4974 0
4975 -1508 0
4975 -4971 0
4975 -4972 0
4975 -4973 0
4975 -4974 0
4976 -2532 -2623 0
-4976 2532 0
-4976 2623 0
2624 -2623 -2623 0
-2624 2623 0
-2624 2623 0
4977 -2623 -2532 0
-4977 2623 0
-4977 2532 0
4978 -2532 -2532 -2628 0
-4978 2532 0
-4978 2532 0
-4978 2628 0
-4979 2534 4976 2624 4977 4978 0
4979 -2534 0
4979 -4976 0
4979 -2624 0
4979 -4977 0
4979 -4978 0
4980 -2532 -2633 0
-4980 2532 0
-4980 2633 0
4981 -2623 -2633 0
-4981 2623 0
-4981 2633 0
4982 -2623 -2536 0
-4982 2623 0
-4982 2536 0
4983 -2532 -2536 -2628 0
-4983 2532 0
-4983 2536 0
-4983 2628 0
-599 2537 4980 4981 4982 4983 0
599 -2537 0
599 -4980 0
599 -4981 0
599 -4982 0
599 -4983 0
4984 -2532 -2638 0
-4984 2532 0
-4984 2638 0
4985 -2623 -2539 0
-4985 2623 0
-4985 2539 0
4986 -2623 -2638 0
-4986 2623 0
-4986 2638 0
4987 -2532 -2539 -2628 0
-4987 2532 0
-4987 2539 0
-4987 2628 0
-597 2540 4984 4985 4986 4987 0
597 -2540 0
597 -4984 0
597 -4985 0
597 -4986 0
597 -4987 0
4988 -2542 -2638 0
-4988 2542 0
-4988 2638 0
4989 -2622 -2638 0
-4989 2622 0
-4989 2638 0
4990 -2622 -2539 0
-4990 2622 0
-4990 2539 0
4991 -2542 -2539 -2628 0
-4991 2542 0
-4991 2539 0
-4991 2628 0
-600 2543 4988 4989 4990 4991 0
600 -2543 0
600 -4988 0
600 -4989 0
600 -4990 0
600 -4991 0
4992 -2536 -2622 0
-4992 2536 0
-4992 2622 0
4993 -2633 -2542 0
-4993 2633 0
-4993 2542 0
4994 -2633 -2622 0
-4994 2633 0
-4994 2622 0
4995 -2536 -2542 -2628 0
-4995 2536 0
-4995 2542 0
-4995 2628 0
-598 2545 4992 4993 4994 4995 0
598 -2545 0
598 -4992 0
598 -4993 0
598 -4994 0
598 -4995 0
4996 -2536 -2633 0
-4996 2536 0
-4996 2633 0
4997 -2633 -2633 0
-4997 2633 0
-4997 2633 0
4998 -2633 -2536 0
-4998 2633 0
-4998 2536 0
4999 -2536 -2536 -2628 0
-4999 2536 0
-4999 2536 0
-4999 2628 0
-5000 2548 4996 4997 4998 4999 0
5000 -2548 0
5000 -4996 0
5000 -4997 0
5000 -4998 0
5000 -4999 0
5001 -1893 -1893 0
-5001 1893 0
-5001 1893 0
-5002 1879 5001 0
5002 -1879 0
5002 -5001 0
5003 -1893 -1888 0
-5003 1893 0
-5003 1888 0
-829 1873 5003 0
829 -1873 0
829 -5003 0
5004 -1893 -1890 0
-5004 1893 0
-5004 1890 0
-827 1872 5004 0
827 -1872 0
827 -5004 0
5005 -1900 -1890 0
-5005 1900 0
-5005 1890 0
-830 1895 5005 0
830 -1895 0
830 -5005 0
5006 -1888 -1900 0
-5006 1888 0
-5006 1900 0
-828 1897 5006 0
828 -1897 0
828 -5006 0
5007 -1888 -1888 0
-5007 1888 0
-5007 1888 0
-5008 1877 5007 0
5008 -1877 0
5008 -5007 0
5009 -1772 -1772 0
-5009 1772 0
-5009 1772 0
-5010 1779 5009 0
5010 -1779 0
5010 -5009 0
5011 -1772 -1784 0
-5011 1772 0
-5011 1784 0
-1194 1786 5011 0
1194 -1786 0
1194 -5011 0
5012 -1772 -1790 0
-5012 1772 0
-5012 1790 0
-1192 1793 5012 0
1192 -1793 0
1192 -5012 0
5013 -1795 -1790 0
-5013 1795 0
-5013 1790 0
-1195 1800 5013 0
1195 -1800 0
1195 -5013 0
5014 -1784 -1795 0
-5014 1784 0
-5014 1795 0
-1193 1805 5014 0
1193 -1805 0
1193 -5014 0
5015 -1784 -1784 0
-5015 1784 0
-5015 1784 0
-5016 1811 5015 0
5016 -1811 0
5016 -5015 0
5017 -2520 -4423 0
-5017 2520 0
-5017 4423 0
4424 -4423 -4423 0
-4424 4423 0
-4424 4423 0
5018 -4423 -2520 0
-5018 4423 0
-5018 2520 0
5019 -2520 -2520 -1815 0
-5019 2520 0
-5019 2520 0
-5019 1815 0
-5020 2522 5017 4424 5018 5019 0
5020 -2522 0
5020 -5017 0
5020 -4424 0
5020 -5018 0
5020 -5019 0
5021 -2520 -1818 0
-5021 2520 0
-5021 1818 0
5022 -4423 -1818 0
-5022 4423 0
-5022 1818 0
5023 -4423 -1826 0
-5023 4423 0
-5023 1826 0
5024 -2520 -1826 -1815 0
-5024 2520 0
-5024 1826 0
-5024 1815 0
-449 2524 5021 5022 5023 5024 0
449 -2524 0
449 -5021 0
449 -5022 0
449 -5023 0
449 -5024 0
5025 -2520 -1821 0
-5025 2520 0
-5025 1821 0
5026 -4423 -1824 0
-5026 4423 0
-5026 1824 0
5027 -4423 -1821 0
-5027 4423 0
-5027 1821 0
5028 -2520 -1824 -1815 0
-5028 2520 0
-5028 1824 0
-5028 1815 0
-447 2526 5025 5026 5027 5028 0
447 -2526 0
447 -5025 0
447 -5026 0
447 -5027 0
447 -5028 0
5029 -1823 -1821 0
-5029 1823 0
-5029 1821 0
5030 -1813 -1821 0
-5030 1813 0
-5030 1821 0
5031 -1813 -1824 0
-5031 1813 0
-5031 1824 0
5032 -1823 -1824 -1815 0
-5032 1823 0
-5032 1824 0
-5032 1815 0
-450 1820 5029 5030 5031 5032 0
450 -1820 0
450 -5029 0
450 -5030 0
450 -5031 0
450 -5032 0
5033 -1826 -1813 0
-5033 1826 0
-5033 1813 0
5034 -1818 -1823 0
-5034 1818 0
-5034 1823 0
5035 -1818 -1813 0
-5035 1818 0
-5035 1813 0
5036 -1826 -1823 -1815 0
-5036 1826 0
-5036 1823 0
-5036 1815 0
-448 1817 5033 5034 5035 5036 0
448 -1817 0
448 -5033 0
448 -5034 0
448 -5035 0
448 -5036 0
5037 -1826 -1818 0
-5037 1826 0
-5037 1818 0
5038 -1818 -1818 0
-5038 1818 0
-5038 1818 0
5039 -1818 -1826 0
-5039 1818 0
-5039 1826 0
5040 -1826 -1826 -1815 0
-5040 1826 0
-5040 1826 0
-5040 1815 0
-5041 1829 5037 5038 5039 5040 0
5041 -1829 0
5041 -5037 0
5041 -5038 0
5041 -5039 0
5041 -5040 0
5042 -5043 -5043 0
-5042 5043 0
-5042 5043 0
-5044 5045 5042 0
5044 -5045 0
5044 -5042 0
5046 -5043 -5047 0
-5046 5043 0
-5046 5047 0
-1039 5048 5046 0
1039 -5048 0
1039 -5046 0
5049 -5043 -5050 0
-5049 5043 0
-5049 5050 0
-1037 5051 5049 0
1037 -5051 0
1037 -5049 0
5052 -5053 -5050 0
-5052 5053 0
-5052 5050 0
-1040 5054 5052 0
1040 -5054 0
1040 -5052 0
5055 -5047 -5053 0
-5055 5047 0
-5055 5053 0
-1038 5056 5055 0
1038 -5056 0
1038 -5055 0
5057 -5047 -5047 0
-5057 5047 0
-5057 5047 0
-5058 5059 5057 0
5058 -5059 0
5058 -5057 0
5060 -3165 -5061 0
-5060 3165 0
-5060 5061 0
5062 -5061 -5061 0
-5062 5061 0
-5062 5061 0
5063 -5061 -3165 0
-5063 5061 0
-5063 3165 0
5064 -3165 -3165 -5065 0
-5064 3165 0
-5064 3165 0
-5064 5065 0
-5066 3167 5060 5062 5063 5064 0
5066 -3167 0
5066 -5060 0
5066 -5062 0
5066 -5063 0
5066 -5064 0
5067 -3165 -5068 0
-5067 3165 0
-5067 5068 0
5069 -5061 -5068 0
-5069 5061 0
-5069 5068 0
5070 -5061 -3169 0
-5070 5061 0
-5070 3169 0
5071 -3165 -3169 -5065 0
-5071 3165 0
-5071 3169 0
-5071 5065 0
-1044 3170 5067 5069 5070 5071 0
1044 -3170 0
1044 -5067 0
1044 -5069 0
1044 -5070 0
1044 -5071 0
5072 -3165 -5073 0
-5072 3165 0
-5072 5073 0
5074 -5061 -3172 0
-5074 5061 0
-5074 3172 0
5075 -5061 -5073 0
-5075 5061 0
-5075 5073 0
5076 -3165 -3172 -5065 0
-5076 3165 0
-5076 3172 0
-5076 5065 0
-1042 3173 5072 5074 5075 5076 0
1042 -3173 0
1042 -5072 0
1042 -5074 0
1042 -5075 0
1042 -5076 0
5077 -3175 -5073 0
-5077 3175 0
-5077 5073 0
5078 -5079 -5073 0
-5078 5079 0
-5078 5073 0
5080 -5079 -3172 0
-5080 5079 0
-5080 3172 0
5081 -3175 -3172 -5065 0
-5081 3175 0
-5081 3172 0
-5081 5065 0
-1045 3176 5077 5078 5080 5081 0
1045 -3176 0
1045 -5077 0
1045 -5078 0
1045 -5080 0
1045 -5081 0
5082 -3169 -5079 0
-5082 3169 0
-5082 5079 0
5083 -5068 -3175 0
-5083 5068 0
-5083 3175 0
5084 -5068 -5079 0
-5084 5068 0
-5084 5079 0
5085 -3169 -3175 -5065 0
-5085 3169 0
-5085 3175 0
-5085 5065 0
-1043 3178 5082 5083 5084 5085 0
1043 -3178 0
1043 -5082 0
1043 -5083 0
1043 -5084 0
1043 -5085 0
5086 -3169 -5068 0
-5086 3169 0
-5086 5068 0
5087 -5068 -5068 0
-5087 5068 0
-5087 5068 0
5088 -5068 -3169 0
-5088 5068 0
-5088 3169 0
5089 -3169 -3169 -5065 0
-5089 3169 0
-5089 3169 0
-5089 5065 0
-5090 3181 5086 5087 5088 5089 0
5090 -3181 0
5090 -5086 0
5090 -5087 0
5090 -5088 0
5090 -5089 0
5091 -3209 -3191 0
-5091 3209 0
-5091 3191 0
3192 -3191 -3191 0
-3192 3191 0
-3192 3191 0
5092 -3191 -3209 0
-5092 3191 0
-5092 3209 0
5093 -3209 -3209 -2172 0
-5093 3209 0
-5093 3209 0
-5093 2172 0
-5094 3195 5091 3192 5092 5093 0
5094 -3195 0
5094 -5091 0
5094 -3192 0
5094 -5092 0
5094 -5093 0
5095 -3209 -2175 0
-5095 3209 0
-5095 2175 0
5096 -3191 -2175 0
-5096 3191 0
-5096 2175 0
5097 -3191 -2183 0
-5097 3191 0
-5097 2183 0
5098 -3209 -2183 -2172 0
-5098 3209 0
-5098 2183 0
-5098 2172 0
-234 3198 5095 5096 5097 5098 0
234 -3198 0
234 -5095 0
234 -5096 0
234 -5097 0
234 -5098 0
5099 -3209 -2178 0
-5099 3209 0
-5099 2178 0
5100 -3191 -2181 0
-5100 3191 0
-5100 2181 0
5101 -3191 -2178 0
-5101 3191 0
-5101 2178 0
5102 -3209 -2181 -2172 0
-5102 3209 0
-5102 2181 0
-5102 2172 0
-232 3203 5099 5100 5101 5102 0
232 -3203 0
232 -5099 0
232 -5100 0
232 -5101 0
232 -5102 0
5103 -2180 -2178 0
-5103 2180 0
-5103 2178 0
5104 -2170 -2178 0
-5104 2170 0
-5104 2178 0
5105 -2170 -2181 0
-5105 2170 0
-5105 2181 0
5106 -2180 -2181 -2172 0
-5106 2180 0
-5106 2181 0
-5106 2172 0
-235 2177 5103 5104 5105 5106 0
235 -2177 0
235 -5103 0
235 -5104 0
235 -5105 0
235 -5106 0
5107 -2183 -2170 0
-5107 2183 0
-5107 2170 0
5108 -2175 -2180 0
-5108 2175 0
-5108 2180 0
5109 -2175 -2170 0
-5109 2175 0
-5109 2170 0
5110 -2183 -2180 -2172 0
-5110 2183 0
-5110 2180 0
-5110 2172 0
-233 2174 5107 5108 5109 5110 0
233 -2174 0
233 -5107 0
233 -5108 0
233 -5109 0
233 -5110 0
5111 -2183 -2175 0
-5111 2183 0
-5111 2175 0
5112 -2175 -2175 0
-5112 2175 0
-5112 2175 0
5113 -2175 -2183 0
-5113 2175 0
-5113 2183 0
5114 -2183 -2183 -2172 0
-5114 2183 0
-5114 2183 0
-5114 2172 0
-5115 2186 5111 5112 5113 5114 0
5115 -2186 0
5115 -5111 0
5115 -5112 0
5115 -5113 0
5115 -5114 0
5116 -1631 -1631 0
-5116 1631 0
-5116 1631 0
-5117 1638 5116 0
5117 -1638 0
5117 -5116 0
5118 -1631 -1643 0
-5118 1631 0
-5118 1643 0
-899 1645 5118 0
899 -1645 0
899 -5118 0
5119 -1631 -1649 0
-5119 1631 0
-5119 1649 0
-897 1652 5119 0
897 -1652 0
897 -5119 0
5120 -1654 -1649 0
-5120 1654 0
-5120 1649 0
-900 1659 5120 0
900 -1659 0
900 -5120 0
5121 -1643 -1654 0
-5121 1643 0
-5121 1654 0
-898 1664 5121 0
898 -1664 0
898 -5121 0
5122 -1643 -1643 0
-5122 1643 0
-5122 1643 0
-5123 1670 5122 0
5123 -1670 0
5123 -5122 0
5124 -1831 -1831 0
-5124 1831 0
-5124 1831 0
-5125 1838 5124 0
5125 -1838 0
5125 -5124 0
5126 -1831 -1843 0
-5126 1831 0
-5126 1843 0
-694 1845 5126 0
694 -1845 0
694 -5126 0
5127 -1831 -1849 0
-5127 1831 0
-5127 1849 0
-692 1852 5127 0
692 -1852 0
692 -5127 0
5128 -1854 -1849 0
-5128 1854 0
-5128 1849 0
-695 1859 5128 0
695 -1859 0
695 -5128 0
5129 -1843 -1854 0
-5129 1843 0
-5129 1854 0
-693 1864 5129 0
693 -1864 0
693 -5129 0
5130 -1843 -1843 0
-5130 1843 0
-5130 1843 0
-5131 1870 5130 0
5131 -1870 0
5131 -5130 0
5132 -2113 -2094 0
-5132 2113 0
-5132 2094 0
4597 -2094 -2094 0
-4597 2094 0
-4597 2094 0
5133 -2094 -2113 0
-5133 2094 0
-5133 2113 0
5134 -2113 -2113 -2087 0
-5134 2113 0
-5134 2113 0
-5134 2087 0
-5135 2119 5132 4597 5133 5134 0
5135 -2119 0
5135 -5132 0
5135 -4597 0
5135 -5133 0
5135 -5134 0
5136 -2113 -2081 0
-5136 2113 0
-5136 2081 0
5137 -2094 -2081 0
-5137 2094 0
-5137 2081 0
5138 -2094 -2105 0
-5138 2094 0
-5138 2105 0
5139 -2113 -2105 -2087 0
-5139 2113 0
-5139 2105 0
-5139 2087 0
-184 2089 5136 5137 5138 5139 0
184 -2089 0
184 -5136 0
184 -5137 0
184 -5138 0
184 -5139 0
5140 -2113 -2080 0
-5140 2113 0
-5140 2080 0
5141 -2094 -2103 0
-5141 2094 0
-5141 2103 0
5142 -2094 -2080 0
-5142 2094 0
-5142 2080 0
5143 -2113 -2103 -2087 0
-5143 2113 0
-5143 2103 0
-5143 2087 0
-182 2092 5140 5141 5142 5143 0
182 -2092 0
182 -5140 0
182 -5141 0
182 -5142 0
182 -5143 0
5144 -2108 -2080 0
-5144 2108 0
-5144 2080 0
5145 -2101 -2080 0
-5145 2101 0
-5145 2080 0
5146 -2101 -2103 0
-5146 2101 0
-5146 2103 0
5147 -2108 -2103 -2087 0
-5147 2108 0
-5147 2103 0
-5147 2087 0
-185 2098 5144 5145 5146 5147 0
185 -2098 0
185 -5144 0
185 -5145 0
185 -5146 0
185 -5147 0
5148 -2105 -2101 0
-5148 2105 0
-5148 2101 0
5149 -2081 -2108 0
-5149 2081 0
-5149 2108 0
5150 -2081 -2101 0
-5150 2081 0
-5150 2101 0
5151 -2105 -2108 -2087 0
-5151 2105 0
-5151 2108 0
-5151 2087 0
-183 2096 5148 5149 5150 5151 0
183 -2096 0
183 -5148 0
183 -5149 0
183 -5150 0
183 -5151 0
5152 -2105 -2081 0
-5152 2105 0
-5152 2081 0
2082 -2081 -2081 0
-2082 2081 0
-2082 2081 0
5153 -2081 -2105 0
-5153 2081 0
-5153 2105 0
5154 -2105 -2105 -2087 0
-5154 2105 0
-5154 2105 0
-5154 2087 0
-5155 2085 5152 2082 5153 5154 0
5155 -2085 0
5155 -5152 0
5155 -2082 0
5155 -5153 0
5155 -5154 0
5156 -1223 -1223 0
-5156 1223 0
-5156 1223 0
-5157 1230 5156 0
5157 -1230 0
5157 -5156 0
5158 -1223 -1235 0
-5158 1223 0
-5158 1235 0
-1164 1237 5158 0
1164 -1237 0
1164 -5158 0
5159 -1223 -1241 0
-5159 1223 0
-5159 1241 0
-1162 1244 5159 0
1162 -1244 0
1162 -5159 0
5160 -1246 -1241 0
-5160 1246 0
-5160 1241 0
-1165 1251 5160 0
1165 -1251 0
1165 -5160 0
5161 -1235 -1246 0
-5161 1235 0
-5161 1246 0
-1163 1256 5161 0
1163 -1256 0
1163 -5161 0
5162 -1235 -1235 0
-5162 1235 0
-5162 1235 0
-5163 1262 5162 0
5163 -1262 0
5163 -5162 0
5164 -5165 -5165 0
-5164 5165 0
-5164 5165 0
-5166 5167 5164 0
5166 -5167 0
5166 -5164 0
5168 -5165 -5169 0
-5168 5165 0
-5168 5169 0
-654 5170 5168 0
654 -5170 0
654 -5168 0
5171 -5165 -5172 0
-5171 5165 0
-5171 5172 0
-652 5173 5171 0
652 -5173 0
652 -5171 0
5174 -5175 -5172 0
-5174 5175 0
-5174 5172 0
-655 5176 5174 0
655 -5176 0
655 -5174 0
5177 -5169 -5175 0
-5177 5169 0
-5177 5175 0
-653 5178 5177 0
653 -5178 0
653 -5177 0
5179 -5169 -5169 0
-5179 5169 0
-5179 5169 0
-5180 5181 5179 0
5180 -5181 0
5180 -5179 0
5182 -2368 -2349 0
-5182 2368 0
-5182 2349 0
5183 -2349 -2349 0
-5183 2349 0
-5183 2349 0
5184 -2349 -2368 0
-5184 2349 0
-5184 2368 0
5185 -2368 -2368 -2342 0
-5185 2368 0
-5185 2368 0
-5185 2342 0
-5186 2374 5182 5183 5184 5185 0
5186 -2374 0
5186 -5182 0
5186 -5183 0
5186 -5184 0
5186 -5185 0
5187 -2368 -2336 0
-5187 2368 0
-5187 2336 0
5188 -2349 -2336 0
-5188 2349 0
-5188 2336 0
5189 -2349 -2360 0
-5189 2349 0
-5189 2360 0
5190 -2368 -2360 -2342 0
-5190 2368 0
-5190 2360 0
-5190 2342 0
-29 2344 5187 5188 5189 5190 0
29 -2344 0
29 -5187 0
29 -5188 0
29 -5189 0
29 -5190 0
5191 -2368 -2335 0
-5191 2368 0
-5191 2335 0
5192 -2349 -2358 0
-5192 2349 0
-5192 2358 0
5193 -2349 -2335 0
-5193 2349 0
-5193 2335 0
5194 -2368 -2358 -2342 0
-5194 2368 0
-5194 2358 0
-5194 2342 0
-27 2347 5191 5192 5193 5194 0
27 -2347 0
27 -5191 0
27 -5192 0
27 -5193 0
27 -5194 0
5195 -2363 -2335 0
-5195 2363 0
-5195 2335 0
5196 -2356 -2335 0
-5196 2356 0
-5196 2335 0
5197 -2356 -2358 0
-5197 2356 0
-5197 2358 0
5198 -2363 -2358 -2342 0
-5198 2363 0
-5198 2358 0
-5198 2342 0
-30 2353 5195 5196 5197 5198 0
30 -2353 0
30 -5195 0
30 -5196 0
30 -5197 0
30 -5198 0
5199 -2360 -2356 0
-5199 2360 0
-5199 2356 0
5200 -2336 -2363 0
-5200 2336 0
-5200 2363 0
5201 -2336 -2356 0
-5201 2336 0
-5201 2356 0
5202 -2360 -2363 -2342 0
-5202 2360 0
-5202 2363 0
-5202 2342 0
-28 2351 5199 5200 5201 5202 0
28 -2351 0
28 -5199 0
28 -5200 0
28 -5201 0
28 -5202 0
5203 -2360 -2336 0
-5203 2360 0
-5203 2336 0
2337 -2336 -2336 0
-2337 2336 0
-2337 2336 0
5204 -2336 -2360 0
-5204 2336 0
-5204 2360 0
5205 -2360 -2360 -2342 0
-5205 2360 0
-5205 2360 0
-5205 2342 0
-5206 2340 5203 2337 5204 5205 0
5206 -2340 0
5206 -5203 0
5206 -2337 0
5206 -5204 0
5206 -5205 0
5207 -4523 -4505 0
-5207 4523 0
-5207 4505 0
4506 -4505 -4505 0
-4506 4505 0
-4506 4505 0
5208 -4505 -4523 0
-5208 4505 0
-5208 4523 0
5209 -4523 -4523 -2696 0
-5209 4523 0
-5209 4523 0
-5209 2696 0
-5210 4509 5207 4506 5208 5209 0
5210 -4509 0
5210 -5207 0
5210 -4506 0
5210 -5208 0
5210 -5209 0
5211 -4523 -2699 0
-5211 4523 0
-5211 2699 0
5212 -4505 -2699 0
-5212 4505 0
-5212 2699 0
5213 -4505 -2707 0
-5213 4505 0
-5213 2707 0
5214 -4523 -2707 -2696 0
-5214 4523 0
-5214 2707 0
-5214 2696 0
-964 4512 5211 5212 5213 5214 0
964 -4512 0
964 -5211 0
964 -5212 0
964 -5213 0
964 -5214 0
5215 -4523 -2702 0
-5215 4523 0
-5215 2702 0
5216 -4505 -2705 0
-5216 4505 0
-5216 2705 0
5217 -4505 -2702 0
-5217 4505 0
-5217 2702 0
5218 -4523 -2705 -2696 0
-5218 4523 0
-5218 2705 0
-5218 2696 0
-962 4517 5215 5216 5217 5218 0
962 -4517 0
962 -5215 0
962 -5216 0
962 -5217 0
962 -5218 0
5219 -2704 -2702 0
-5219 2704 0
-5219 2702 0
5220 -2694 -2702 0
-5220 2694 0
-5220 2702 0
5221 -2694 -2705 0
-5221 2694 0
-5221 2705 0
5222 -2704 -2705 -2696 0
-5222 2704 0
-5222 2705 0
-5222 2696 0
-965 2701 5219 5220 5221 5222 0
965 -2701 0
965 -5219 0
965 -5220 0
965 -5221 0
965 -5222 0
5223 -2707 -2694 0
-5223 2707 0
-5223 2694 0
5224 -2699 -2704 0
-5224 2699 0
-5224 2704 0
5225 -2699 -2694 0
-5225 2699 0
-5225 2694 0
5226 -2707 -2704 -2696 0
-5226 2707 0
-5226 2704 0
-5226 2696 0
-963 2698 5223 5224 5225 5226 0
963 -2698 0
963 -5223 0
963 -5224 0
963 -5225 0
963 -5226 0
5227 -2707 -2699 0
-5227 2707 0
-5227 2699 0
5228 -2699 -2699 0
-5228 2699 0
-5228 2699 0
5229 -2699 -2707 0
-5229 2699 0
-5229 2707 0
5230 -2707 -2707 -2696 0
-5230 2707 0
-5230 2707 0
-5230 2696 0
-5231 2710 5227 5228 5229 5230 0
5231 -2710 0
5231 -5227 0
5231 -5228 0
5231 -5229 0
5231 -5230 0
5232 -4727 -4727 0
-5232 4727 0
-5232 4727 0
-5233 4734 5232 0
5233 -4734 0
5233 -5232 0
5234 -4727 -4739 0
-5234 4727 0
-5234 4739 0
-1049 4741 5234 0
1049 -4741 0
1049 -5234 0
5235 -4727 -4745 0
-5235 4727 0
-5235 4745 0
-1047 4748 5235 0
1047 -4748 0
1047 -5235 0
5236 -4750 -4745 0
-5236 4750 0
-5236 4745 0
-1050 4755 5236 0
1050 -4755 0
1050 -5236 0
5237 -4739 -4750 0
-5237 4739 0
-5237 4750 0
-1048 4760 5237 0
1048 -4760 0
1048 -5237 0
5238 -4739 -4739 0
-5238 4739 0
-5238 4739 0
-5239 4766 5238 0
5239 -4766 0
5239 -5238 0
5240 -2927 -2903 0
-5240 2927 0
-5240 2903 0
2904 -2903 -2903 0
-2904 2903 0
-2904 2903 0
5241 -2903 -2927 0
-5241 2903 0
-5241 2927 0
5242 -2927 -2927 -2909 0
-5242 2927 0
-5242 2927 0
-5242 2909 0
-5243 2907 5240 2904 5241 5242 0
5243 -2907 0
5243 -5240 0
5243 -2904 0
5243 -5241 0
5243 -5242 0
5244 -2927 -2916 0
-5244 2927 0
-5244 2916 0
5245 -2903 -2916 0
-5245 2903 0
-5245 2916 0
5246 -2903 -2935 0
-5246 2903 0
-5246 2935 0
5247 -2927 -2935 -2909 0
-5247 2927 0
-5247 2935 0
-5247 2909 0
-244 2911 5244 5245 5246 5247 0
244 -2911 0
244 -5244 0
244 -5245 0
244 -5246 0
244 -5247 0
5248 -2927 -2923 0
-5248 2927 0
-5248 2923 0
5249 -2903 -2930 0
-5249 2903 0
-5249 2930 0
5250 -2903 -2923 0
-5250 2903 0
-5250 2923 0
5251 -2927 -2930 -2909 0
-5251 2927 0
-5251 2930 0
-5251 2909 0
-242 2918 5248 5249 5250 5251 0
242 -2918 0
242 -5248 0
242 -5249 0
242 -5250 0
242 -5251 0
5252 -2925 -2923 0
-5252 2925 0
-5252 2923 0
5253 -2902 -2923 0
-5253 2902 0
-5253 2923 0
5254 -2902 -2930 0
-5254 2902 0
-5254 2930 0
5255 -2925 -2930 -2909 0
-5255 2925 0
-5255 2930 0
-5255 2909 0
-245 2920 5252 5253 5254 5255 0
245 -2920 0
245 -5252 0
245 -5253 0
245 -5254 0
245 -5255 0
5256 -2935 -2902 0
-5256 2935 0
-5256 2902 0
5257 -2916 -2925 0
-5257 2916 0
-5257 2925 0
5258 -2916 -2902 0
-5258 2916 0
-5258 2902 0
5259 -2935 -2925 -2909 0
-5259 2935 0
-5259 2925 0
-5259 2909 0
-243 2914 5256 5257 5258 5259 0
243 -2914 0
243 -5256 0
243 -5257 0
243 -5258 0
243 -5259 0
5260 -2935 -2916 0
-5260 2935 0
-5260 2916 0
5261 -2916 -2916 0
-5261 2916 0
-5261 2916 0
5262 -2916 -2935 0
-5262 2916 0
-5262 2935 0
5263 -2935 -2935 -2909 0
-5263 2935 0
-5263 2935 0
-5263 2909 0
-5264 2941 5260 5261 5262 5263 0
5264 -2941 0
5264 -5260 0
5264 -5261 0
5264 -5262 0
5264 -5263 0
5265 -2902 -2902 0
-5265 2902 0
-5265 2902 0
-5266 2909 5265 0
5266 -2909 0
5266 -5265 0
5267 -2902 -2914 0
-5267 2902 0
-5267 2914 0
-499 2916 5267 0
499 -2916 0
499 -5267 0
5268 -2902 -2920 0
-5268 2902 0
-5268 2920 0
-497 2923 5268 0
497 -2923 0
497 -5268 0
5269 -2925 -2920 0
-5269 2925 0
-5269 2920 0
-500 2930 5269 0
500 -2930 0
500 -5269 0
5270 -2914 -2925 0
-5270 2914 0
-5270 2925 0
-498 2935 5270 0
498 -2935 0
498 -5270 0
5271 -2914 -2914 0
-5271 2914 0
-5271 2914 0
-5272 2941 5271 0
5272 -2941 0
5272 -5271 0
5273 -3504 -3504 0
-5273 3504 0
-5273 3504 0
-5274 3511 5273 0
5274 -3511 0
5274 -5273 0
5275 -3504 -3516 0
-5275 3504 0
-5275 3516 0
-744 3518 5275 0
744 -3518 0
744 -5275 0
5276 -3504 -3522 0
-5276 3504 0
-5276 3522 0
-742 3525 5276 0
742 -3525 0
742 -5276 0
5277 -3527 -3522 0
-5277 3527 0
-5277 3522 0
-745 3532 5277 0
745 -3532 0
745 -5277 0
5278 -3516 -3527 0
-5278 3516 0
-5278 3527 0
-743 3537 5278 0
743 -3537 0
743 -5278 0
5279 -3516 -3516 0
-5279 3516 0
-5279 3516 0
-5280 3543 5279 0
5280 -3543 0
5280 -5279 0
5281 -3395 -3395 0
-5281 3395 0
-5281 3395 0
-5282 3402 5281 0
5282 -3402 0
5282 -5281 0
5283 -3395 -3407 0
-5283 3395 0
-5283 3407 0
-1094 3409 5283 0
1094 -3409 0
1094 -5283 0
5284 -3395 -3413 0
-5284 3395 0
-5284 3413 0
-1092 3416 5284 0
1092 -3416 0
1092 -5284 0
5285 -3418 -3413 0
-5285 3418 0
-5285 3413 0
-1095 3423 5285 0
1095 -3423 0
1095 -5285 0
5286 -3407 -3418 0
-5286 3407 0
-5286 3418 0
-1093 3428 5286 0
1093 -3428 0
1093 -5286 0
5287 -3407 -3407 0
-5287 3407 0
-5287 3407 0
-5288 3434 5287 0
5288 -3434 0
5288 -5287 0
5289 -3926 -3926 0
-5289 3926 0
-5289 3926 0
-5290 3912 5289 0
5290 -3912 0
5290 -5289 0
5291 -3926 -2430 0
-5291 3926 0
-5291 2430 0
-974 3915 5291 0
974 -3915 0
974 -5291 0
5292 -3926 -2428 0
-5292 3926 0
-5292 2428 0
-972 3920 5292 0
972 -3920 0
972 -5292 0
5293 -2427 -2428 0
-5293 2427 0
-5293 2428 0
-975 2424 5293 0
975 -2424 0
975 -5293 0
5294 -2430 -2427 0
-5294 2430 0
-5294 2427 0
-973 2421 5294 0
973 -2421 0
973 -5294 0
5295 -2430 -2430 0
-5295 2430 0
-5295 2430 0
-5296 2433 5295 0
5296 -2433 0
5296 -5295 0
5297 -5298 -5299 0
-5297 5298 0
-5297 5299 0
5300 -5299 -5299 0
-5300 5299 0
-5300 5299 0
5301 -5299 -5298 0
-5301 5299 0
-5301 5298 0
5302 -5298 -5298 -5303 0
-5302 5298 0
-5302 5298 0
-5302 5303 0
-5304 5305 5297 5300 5301 5302 0
5304 -5305 0
5304 -5297 0
5304 -5300 0
5304 -5301 0
5304 -5302 0
5306 -5298 -5307 0
-5306 5298 0
-5306 5307 0
5308 -5299 -5307 0
-5308 5299 0
-5308 5307 0
5309 -5299 -5310 0
-5309 5299 0
-5309 5310 0
5311 -5298 -5310 -5303 0
-5311 5298 0
-5311 5310 0
-5311 5303 0
-1064 5312 5306 5308 5309 5311 0
1064 -5312 0
1064 -5306 0
1064 -5308 0
1064 -5309 0
1064 -5311 0
5313 -5298 -5314 0
-5313 5298 0
-5313 5314 0
5315 -5299 -5316 0
-5315 5299 0
-5315 5316 0
5317 -5299 -5314 0
-5317 5299 0
-5317 5314 0
5318 -5298 -5316 -5303 0
-5318 5298 0
-5318 5316 0
-5318 5303 0
-1062 5319 5313 5315 5317 5318 0
1062 -5319 0
1062 -5313 0
1062 -5315 0
1062 -5317 0
1062 -5318 0
5320 -5321 -5314 0
-5320 5321 0
-5320 5314 0
5322 -5323 -5314 0
-5322 5323 0
-5322 5314 0
5324 -5323 -5316 0
-5324 5323 0
-5324 5316 0
5325 -5321 -5316 -5303 0
-5325 5321 0
-5325 5316 0
-5325 5303 0
-1065 5326 5320 5322 5324 5325 0
1065 -5326 0
1065 -5320 0
1065 -5322 0
1065 -5324 0
1065 -5325 0
5327 -5310 -5323 0
-5327 5310 0
-5327 5323 0
5328 -5307 -5321 0
-5328 5307 0
-5328 5321 0
5329 -5307 -5323 0
-5329 5307 0
-5329 5323 0
5330 -5310 -5321 -5303 0
-5330 5310 0
-5330 5321 0
-5330 5303 0
-1063 5331 5327 5328 5329 5330 0
1063 -5331 0
1063 -5327 0
1063 -5328 0
1063 -5329 0
1063 -5330 0
5332 -5310 -5307 0
-5332 5310 0
-5332 5307 0
5333 -5307 -5307 0
-5333 5307 0
-5333 5307 0
5334 -5307 -5310 0
-5334 5307 0
-5334 5310 0
5335 -5310 -5310 -5303 0
-5335 5310 0
-5335 5310 0
-5335 5303 0
-5336 5337 5332 5333 5334 5335 0
5336 -5337 0
5336 -5332 0
5336 -5333 0
5336 -5334 0
5336 -5335 0
5338 -2607 -2607 0
-5338 2607 0
-5338 2607 0
-5339 2597 5338 0
5339 -2597 0
5339 -5338 0
5340 -2607 -1926 0
-5340 2607 0
-5340 1926 0
-424 2592 5340 0
424 -2592 0
424 -5340 0
5341 -2607 -1924 0
-5341 2607 0
-5341 1924 0
-422 2591 5341 0
422 -2591 0
422 -5341 0
5342 -1923 -1924 0
-5342 1923 0
-5342 1924 0
-425 1920 5342 0
425 -1920 0
425 -5342 0
5343 -1926 -1923 0
-5343 1926 0
-5343 1923 0
-423 1917 5343 0
423 -1917 0
423 -5343 0
5344 -1926 -1926 0
-5344 1926 0
-5344 1926 0
-5345 1929 5344 0
5345 -1929 0
5345 -5344 0
5346 -4536 -5347 0
-5346 4536 0
-5346 5347 0
5348 -5347 -5347 0
-5348 5347 0
-5348 5347 0
5349 -5347 -4536 0
-5349 5347 0
-5349 4536 0
5350 -4536 -4536 -5351 0
-5350 4536 0
-5350 4536 0
-5350 5351 0
-5352 4538 5346 5348 5349 5350 0
5352 -4538 0
5352 -5346 0
5352 -5348 0
5352 -5349 0
5352 -5350 0
5353 -4536 -5354 0
-5353 4536 0
-5353 5354 0
5355 -5347 -5354 0
-5355 5347 0
-5355 5354 0
5356 -5347 -4540 0
-5356 5347 0
-5356 4540 0
5357 -4536 -4540 -5351 0
-5357 4536 0
-5357 4540 0
-5357 5351 0
-734 4541 5353 5355 5356 5357 0
734 -4541 0
734 -5353 0
734 -5355 0
734 -5356 0
734 -5357 0
5358 -4536 -5359 0
-5358 4536 0
-5358 5359 0
5360 -5347 -4543 0
-5360 5347 0
-5360 4543 0
5361 -5347 -5359 0
-5361 5347 0
-5361 5359 0
5362 -4536 -4543 -5351 0
-5362 4536 0
-5362 4543 0
-5362 5351 0
-732 4544 5358 5360 5361 5362 0
732 -4544 0
732 -5358 0
732 -5360 0
732 -5361 0
732 -5362 0
5363 -4546 -5359 0
-5363 4546 0
-5363 5359 0
5364 -5365 -5359 0
-5364 5365 0
-5364 5359 0
5366 -5365 -4543 0
-5366 5365 0
-5366 4543 0
5367 -4546 -4543 -5351 0
-5367 4546 0
-5367 4543 0
-5367 5351 0
-735 4547 5363 5364 5366 5367 0
735 -4547 0
735 -5363 0
735 -5364 0
735 -5366 0
735 -5367 0
5368 -4540 -5365 0
-5368 4540 0
-5368 5365 0
5369 -5354 -4546 0
-5369 5354 0
-5369 4546 0
5370 -5354 -5365 0
-5370 5354 0
-5370 5365 0
5371 -4540 -4546 -5351 0
-5371 4540 0
-5371 4546 0
-5371 5351 0
-733 4549 5368 5369 5370 5371 0
733 -4549 0
733 -5368 0
733 -5369 0
733 -5370 0
733 -5371 0
5372 -4540 -5354 0
-5372 4540 0
-5372 5354 0
5373 -5354 -5354 0
-5373 5354 0
-5373 5354 0
5374 -5354 -4540 0
-5374 5354 0
-5374 4540 0
5375 -4540 -4540 -5351 0
-5375 4540 0
-5375 4540 0
-5375 5351 0
-5376 4552 5372 5373 5374 5375 0
5376 -4552 0
5376 -5372 0
5376 -5373 0
5376 -5374 0
5376 -5375 0
5377 -3436 -5378 0
-5377 3436 0
-5377 5378 0
5379 -5378 -5378 0
-5379 5378 0
-5379 5378 0
5380 -5378 -3436 0
-5380 5378 0
-5380 3436 0
5381 -3436 -3436 -5382 0
-5381 3436 0
-5381 3436 0
-5381 5382 0
-5383 3438 5377 5379 5380 5381 0
5383 -3438 0
5383 -5377 0
5383 -5379 0
5383 -5380 0
5383 -5381 0
5384 -3436 -5385 0
-5384 3436 0
-5384 5385 0
5386 -5378 -5385 0
-5386 5378 0
-5386 5385 0
5387 -5378 -3440 0
-5387 5378 0
-5387 3440 0
5388 -3436 -3440 -5382 0
-5388 3436 0
-5388 3440 0
-5388 5382 0
-369 3441 5384 5386 5387 5388 0
369 -3441 0
369 -5384 0
369 -5386 0
369 -5387 0
369 -5388 0
5389 -3436 -5390 0
-5389 3436 0
-5389 5390 0
5391 -5378 -3443 0
-5391 5378 0
-5391 3443 0
5392 -5378 -5390 0
-5392 5378 0
-5392 5390 0
5393 -3436 -3443 -5382 0
-5393 3436 0
-5393 3443 0
-5393 5382 0
-367 3444 5389 5391 5392 5393 0
367 -3444 0
367 -5389 0
367 -5391 0
367 -5392 0
367 -5393 0
5394 -3446 -5390 0
-5394 3446 0
-5394 5390 0
5395 -5396 -5390 0
-5395 5396 0
-5395 5390 0
5397 -5396 -3443 0
-5397 5396 0
-5397 3443 0
5398 -3446 -3443 -5382 0
-5398 3446 0
-5398 3443 0
-5398 5382 0
-370 3447 5394 5395 5397 5398 0
370 -3447 0
370 -5394 0
370 -5395 0
370 -5397 0
370 -5398 0
5399 -3440 -5396 0
-5399 3440 0
-5399 5396 0
5400 -5385 -3446 0
-5400 5385 0
-5400 3446 0
5401 -5385 -5396 0
-5401 5385 0
-5401 5396 0
5402 -3440 -3446 -5382 0
-5402 3440 0
-5402 3446 0
-5402 5382 0
-368 3449 5399 5400 5401 5402 0
368 -3449 0
368 -5399 0
368 -5400 0
368 -5401 0
368 -5402 0
5403 -3440 -5385 0
-5403 3440 0
-5403 5385 0
5404 -5385 -5385 0
-5404 5385 0
-5404 5385 0
5405 -5385 -3440 0
-5405 5385 0
-5405 3440 0
5406 -3440 -3440 -5382 0
-5406 3440 0
-5406 3440 0
-5406 5382 0
-5407 3452 5403 5404 5405 5406 0
5407 -3452 0
5407 -5403 0
5407 -5404 0
5407 -5405 0
5407 -5406 0
5408 -5409 -5410 0
-5408 5409 0
-5408 5410 0
5411 -5410 -5410 0
-5411 5410 0
-5411 5410 0
5412 -5410 -5409 0
-5412 5410 0
-5412 5409 0
5413 -5409 -5409 -5414 0
-5413 5409 0
-5413 5409 0
-5413 5414 0
-5415 5416 5408 5411 5412 5413 0
5415 -5416 0
5415 -5408 0
5415 -5411 0
5415 -5412 0
5415 -5413 0
5417 -5409 -5418 0
-5417 5409 0
-5417 5418 0
5419 -5410 -5418 0
-5419 5410 0
-5419 5418 0
5420 -5410 -5421 0
-5420 5410 0
-5420 5421 0
5422 -5409 -5421 -5414 0
-5422 5409 0
-5422 5421 0
-5422 5414 0
-1024 5423 5417 5419 5420 5422 0
1024 -5423 0
1024 -5417 0
1024 -5419 0
1024 -5420 0
1024 -5422 0
5424 -5409 -5425 0
-5424 5409 0
-5424 5425 0
5426 -5410 -5427 0
-5426 5410 0
-5426 5427 0
5428 -5410 -5425 0
-5428 5410 0
-5428 5425 0
5429 -5409 -5427 -5414 0
-5429 5409 0
-5429 5427 0
-5429 5414 0
-1022 5430 5424 5426 5428 5429 0
1022 -5430 0
1022 -5424 0
1022 -5426 0
1022 -5428 0
1022 -5429 0
5431 -5432 -5425 0
-5431 5432 0
-5431 5425 0
5433 -5434 -5425 0
-5433 5434 0
-5433 5425 0
5435 -5434 -5427 0
-5435 5434 0
-5435 5427 0
5436 -5432 -5427 -5414 0
-5436 5432 0
-5436 5427 0
-5436 5414 0
-1025 5437 5431 5433 5435 5436 0
1025 -5437 0
1025 -5431 0
1025 -5433 0
1025 -5435 0
1025 -5436 0
5438 -5421 -5434 0
-5438 5421 0
-5438 5434 0
5439 -5418 -5432 0
-5439 5418 0
-5439 5432 0
5440 -5418 -5434 0
-5440 5418 0
-5440 5434 0
5441 -5421 -5432 -5414 0
-5441 5421 0
-5441 5432 0
-5441 5414 0
-1023 5442 5438 5439 5440 5441 0
1023 -5442 0
1023 -5438 0
1023 -5439 0
1023 -5440 0
1023 -5441 0
5443 -5421 -5418 0
-5443 5421 0
-5443 5418 0
5444 -5418 -5418 0
-5444 5418 0
-5444 5418 0
5445 -5418 -5421 0
-5445 5418 0
-5445 5421 0
5446 -5421 -5421 -5414 0
-5446 5421 0
-5446 5421 0
-5446 5414 0
-5447 5448 5443 5444 5445 5446 0
5447 -5448 0
5447 -5443 0
5447 -5444 0
5447 -5445 0
5447 -5446 0
5449 -2376 -2376 0
-5449 2376 0
-5449 2376 0
-5450 2383 5449 0
5450 -2383 0
5450 -5449 0
5451 -2376 -2388 0
-5451 2376 0
-5451 2388 0
-914 2390 5451 0
914 -2390 0
914 -5451 0
5452 -2376 -2394 0
-5452 2376 0
-5452 2394 0
-912 2397 5452 0
912 -2397 0
912 -5452 0
5453 -2399 -2394 0
-5453 2399 0
-5453 2394 0
-915 2404 5453 0
915 -2404 0
915 -5453 0
5454 -2388 -2399 0
-5454 2388 0
-5454 2399 0
-913 2409 5454 0
913 -2409 0
913 -5454 0
5455 -2388 -2388 0
-5455 2388 0
-5455 2388 0
-5456 2415 5455 0
5456 -2415 0
5456 -5455 0
5457 -3099 -3099 0
-5457 3099 0
-5457 3099 0
-5458 3106 5457 0
5458 -3106 0
5458 -5457 0
5459 -3099 -3111 0
-5459 3099 0
-5459 3111 0
-1029 3113 5459 0
1029 -3113 0
1029 -5459 0
5460 -3099 -3117 0
-5460 3099 0
-5460 3117 0
-1027 3120 5460 0
1027 -3120 0
1027 -5460 0
5461 -3122 -3117 0
-5461 3122 0
-5461 3117 0
-1030 3127 5461 0
1030 -3127 0
1030 -5461 0
5462 -3111 -3122 0
-5462 3111 0
-5462 3122 0
-1028 3132 5462 0
1028 -3132 0
1028 -5462 0
5463 -3111 -3111 0
-5463 3111 0
-5463 3111 0
-5464 3138 5463 0
5464 -3138 0
5464 -5463 0
5465 -4926 -5466 0
-5465 4926 0
-5465 5466 0
5467 -5466 -5466 0
-5467 5466 0
-5467 5466 0
5468 -5466 -4926 0
-5468 5466 0
-5468 4926 0
5469 -4926 -4926 -5470 0
-5469 4926 0
-5469 4926 0
-5469 5470 0
-5471 4928 5465 5467 5468 5469 0
5471 -4928 0
5471 -5465 0
5471 -5467 0
5471 -5468 0
5471 -5469 0
5472 -4926 -5473 0
-5472 4926 0
-5472 5473 0
5474 -5466 -5473 0
-5474 5466 0
-5474 5473 0
5475 -5466 -4930 0
-5475 5466 0
-5475 4930 0
5476 -4926 -4930 -5470 0
-5476 4926 0
-5476 4930 0
-5476 5470 0
-819 4931 5472 5474 5475 5476 0
819 -4931 0
819 -5472 0
819 -5474 0
819 -5475 0
819 -5476 0
5477 -4926 -5478 0
-5477 4926 0
-5477 5478 0
5479 -5466 -4933 0
-5479 5466 0
-5479 4933 0
5480 -5466 -5478 0
-5480 5466 0
-5480 5478 0
5481 -4926 -4933 -5470 0
-5481 4926 0
-5481 4933 0
-5481 5470 0
-817 4934 5477 5479 5480 5481 0
817 -4934 0
817 -5477 0
817 -5479 0
817 -5480 0
817 -5481 0
5482 -4936 -5478 0
-5482 4936 0
-5482 5478 0
5483 -5484 -5478 0
-5483 5484 0
-5483 5478 0
5485 -5484 -4933 0
-5485 5484 0
-5485 4933 0
5486 -4936 -4933 -5470 0
-5486 4936 0
-5486 4933 0
-5486 5470 0
-820 4937 5482 5483 5485 5486 0
820 -4937 0
820 -5482 0
820 -5483 0
820 -5485 0
820 -5486 0
5487 -4930 -5484 0
-5487 4930 0
-5487 5484 0
5488 -5473 -4936 0
-5488 5473 0
-5488 4936 0
5489 -5473 -5484 0
-5489 5473 0
-5489 5484 0
5490 -4930 -4936 -5470 0
-5490 4930 0
-5490 4936 0
-5490 5470 0
-818 4939 5487 5488 5489 5490 0
818 -4939 0
818 -5487 0
818 -5488 0
818 -5489 0
818 -5490 0
5491 -4930 -5473 0
-5491 4930 0
-5491 5473 0
5492 -5473 -5473 0
-5492 5473 0
-5492 5473 0
5493 -5473 -4930 0
-5493 5473 0
-5493 4930 0
5494 -4930 -4930 -5470 0
-5494 4930 0
-5494 4930 0
-5494 5470 0
-5495 4942 5491 5492 5493 5494 0
5495 -4942 0
5495 -5491 0
5495 -5492 0
5495 -5493 0
5495 -5494 0
5496 -2443 -5497 0
-5496 2443 0
-5496 5497 0
5498 -5497 -5497 0
-5498 5497 0
-5498 5497 0
5499 -5497 -2443 0
-5499 5497 0
-5499 2443 0
5500 -2443 -2443 -5501 0
-5500 2443 0
-5500 2443 0
-5500 5501 0
-5502 2445 5496 5498 5499 5500 0
5502 -2445 0
5502 -5496 0
5502 -5498 0
5502 -5499 0
5502 -5500 0
5503 -2443 -5504 0
-5503 2443 0
-5503 5504 0
5505 -5497 -5504 0
-5505 5497 0
-5505 5504 0
5506 -5497 -2447 0
-5506 5497 0
-5506 2447 0
5507 -2443 -2447 -5501 0
-5507 2443 0
-5507 2447 0
-5507 5501 0
-54 2448 5503 5505 5506 5507 0
54 -2448 0
54 -5503 0
54 -5505 0
54 -5506 0
54 -5507 0
5508 -2443 -5509 0
-5508 2443 0
-5508 5509 0
5510 -5497 -2450 0
-5510 5497 0
-5510 2450 0
5511 -5497 -5509 0
-5511 5497 0
-5511 5509 0
5512 -2443 -2450 -5501 0
-5512 2443 0
-5512 2450 0
-5512 5501 0
-52 2451 5508 5510 5511 5512 0
52 -2451 0
52 -5508 0
52 -5510 0
52 -5511 0
52 -5512 0
5513 -2453 -5509 0
-5513 2453 0
-5513 5509 0
5514 -5515 -5509 0
-5514 5515 0
-5514 5509 0
5516 -5515 -2450 0
-5516 5515 0
-5516 2450 0
5517 -2453 -2450 -5501 0
-5517 2453 0
-5517 2450 0
-5517 5501 0
-55 2454 5513 5514 5516 5517 0
55 -2454 0
55 -5513 0
55 -5514 0
55 -5516 0
55 -5517 0
5518 -2447 -5515 0
-5518 2447 0
-5518 5515 0
5519 -5504 -2453 0
-5519 5504 0
-5519 2453 0
5520 -5504 -5515 0
-5520 5504 0
-5520 5515 0
5521 -2447 -2453 -5501 0
-5521 2447 0
-5521 2453 0
-5521 5501 0
-53 2456 5518 5519 5520 5521 0
53 -2456 0
53 -5518 0
53 -5519 0
53 -5520 0
53 -5521 0
5522 -2447 -5504 0
-5522 2447 0
-5522 5504 0
5523 -5504 -5504 0
-5523 5504 0
-5523 5504 0
5524 -5504 -2447 0
-5524 5504 0
-5524 2447 0
5525 -2447 -2447 -5501 0
-5525 2447 0
-5525 2447 0
-5525 5501 0
-5526 2459 5522 5523 5524 5525 0
5526 -2459 0
5526 -5522 0
5526 -5523 0
5526 -5524 0
5526 -5525 0
5527 -4339 -4339 0
-5527 4339 0
-5527 4339 0
-5528 4346 5527 0
5528 -4346 0
5528 -5527 0
5529 -4339 -4351 0
-5529 4339 0
-5529 4351 0
-684 4353 5529 0
684 -4353 0
684 -5529 0
5530 -4339 -4357 0
-5530 4339 0
-5530 4357 0
-682 4360 5530 0
682 -4360 0
682 -5530 0
5531 -4362 -4357 0
-5531 4362 0
-5531 4357 0
-685 4367 5531 0
685 -4367 0
685 -5531 0
5532 -4351 -4362 0
-5532 4351 0
-5532 4362 0
-683 4372 5532 0
683 -4372 0
683 -5532 0
5533 -4351 -4351 0
-5533 4351 0
-5533 4351 0
-5534 4378 5533 0
5534 -4378 0
5534 -5533 0
5535 -4523 -4523 0
-5535 4523 0
-5535 4523 0
-5536 4509 5535 0
5536 -4509 0
5536 -5535 0
5537 -4523 -2707 0
-5537 4523 0
-5537 2707 0
-1159 4512 5537 0
1159 -4512 0
1159 -5537 0
5538 -4523 -2705 0
-5538 4523 0
-5538 2705 0
-1157 4517 5538 0
1157 -4517 0
1157 -5538 0
5539 -2704 -2705 0
-5539 2704 0
-5539 2705 0
-1160 2701 5539 0
1160 -2701 0
1160 -5539 0
5540 -2707 -2704 0
-5540 2707 0
-5540 2704 0
-1158 2698 5540 0
1158 -2698 0
1158 -5540 0
5541 -2707 -2707 0
-5541 2707 0
-5541 2707 0
-5542 2710 5541 0
5542 -2710 0
5542 -5541 0
5543 -2356 -2349 0
-5543 2356 0
-5543 2349 0
5183 -2349 -2349 0
-5183 2349 0
-5183 2349 0
5544 -2349 -2356 0
-5544 2349 0
-5544 2356 0
5545 -2356 -2356 -2374 0
-5545 2356 0
-5545 2356 0
-5545 2374 0
-5546 2342 5543 5183 5544 5545 0
5546 -2342 0
5546 -5543 0
5546 -5183 0
5546 -5544 0
5546 -5545 0
5547 -2356 -2344 0
-5547 2356 0
-5547 2344 0
5548 -2349 -2344 0
-5548 2349 0
-5548 2344 0
5549 -2349 -2351 0
-5549 2349 0
-5549 2351 0
5550 -2356 -2351 -2374 0
-5550 2356 0
-5550 2351 0
-5550 2374 0
-9 2336 5547 5548 5549 5550 0
9 -2336 0
9 -5547 0
9 -5548 0
9 -5549 0
9 -5550 0
5551 -2356 -2347 0
-5551 2356 0
-5551 2347 0
5552 -2349 -2353 0
-5552 2349 0
-5552 2353 0
5553 -2349 -2347 0
-5553 2349 0
-5553 2347 0
5554 -2356 -2353 -2374 0
-5554 2356 0
-5554 2353 0
-5554 2374 0
-7 2335 5551 5552 5553 5554 0
7 -2335 0
7 -5551 0
7 -5552 0
7 -5553 0
7 -5554 0
5555 -2363 -2347 0
-5555 2363 0
-5555 2347 0
5556 -2368 -2347 0
-5556 2368 0
-5556 2347 0
5557 -2368 -2353 0
-5557 2368 0
-5557 2353 0
5558 -2363 -2353 -2374 0
-5558 2363 0
-5558 2353 0
-5558 2374 0
-10 2358 5555 5556 5557 5558 0
10 -2358 0
10 -5555 0
10 -5556 0
10 -5557 0
10 -5558 0
5559 -2351 -2368 0
-5559 2351 0
-5559 2368 0
5560 -2344 -2363 0
-5560 2344 0
-5560 2363 0
5561 -2344 -2368 0
-5561 2344 0
-5561 2368 0
5562 -2351 -2363 -2374 0
-5562 2351 0
-5562 2363 0
-5562 2374 0
-8 2360 5559 5560 5561 5562 0
8 -2360 0
8 -5559 0
8 -5560 0
8 -5561 0
8 -5562 0
5563 -2351 -2344 0
-5563 2351 0
-5563 2344 0
2370 -2344 -2344 0
-2370 2344 0
-2370 2344 0
5564 -2344 -2351 0
-5564 2344 0
-5564 2351 0
5565 -2351 -2351 -2374 0
-5565 2351 0
-5565 2351 0
-5565 2374 0
-5566 2340 5563 2370 5564 5565 0
5566 -2340 0
5566 -5563 0
5566 -2370 0
5566 -5564 0
5566 -5565 0
5567 -2461 -5568 0
-5567 2461 0
-5567 5568 0
5569 -5568 -5568 0
-5569 5568 0
-5569 5568 0
5570 -5568 -2461 0
-5570 5568 0
-5570 2461 0
5571 -2461 -2461 -5572 0
-5571 2461 0
-5571 2461 0
-5571 5572 0
-5573 2463 5567 5569 5570 5571 0
5573 -2463 0
5573 -5567 0
5573 -5569 0
5573 -5570 0
5573 -5571 0
5574 -2461 -5575 0
-5574 2461 0
-5574 5575 0
5576 -5568 -5575 0
-5576 5568 0
-5576 5575 0
5577 -5568 -2465 0
-5577 5568 0
-5577 2465 0
5578 -2461 -2465 -5572 0
-5578 2461 0
-5578 2465 0
-5578 5572 0
-304 2466 5574 5576 5577 5578 0
304 -2466 0
304 -5574 0
304 -5576 0
304 -5577 0
304 -5578 0
5579 -2461 -5580 0
-5579 2461 0
-5579 5580 0
5581 -5568 -2468 0
-5581 5568 0
-5581 2468 0
5582 -5568 -5580 0
-5582 5568 0
-5582 5580 0
5583 -2461 -2468 -5572 0
-5583 2461 0
-5583 2468 0
-5583 5572 0
-302 2469 5579 5581 5582 5583 0
302 -2469 0
302 -5579 0
302 -5581 0
302 -5582 0
302 -5583 0
5584 -2471 -5580 0
-5584 2471 0
-5584 5580 0
5585 -5586 -5580 0
-5585 5586 0
-5585 5580 0
5587 -5586 -2468 0
-5587 5586 0
-5587 2468 0
5588 -2471 -2468 -5572 0
-5588 2471 0
-5588 2468 0
-5588 5572 0
-305 2472 5584 5585 5587 5588 0
305 -2472 0
305 -5584 0
305 -5585 0
305 -5587 0
305 -5588 0
5589 -2465 -5586 0
-5589 2465 0
-5589 5586 0
5590 -5575 -2471 0
-5590 5575 0
-5590 2471 0
5591 -5575 -5586 0
-5591 5575 0
-5591 5586 0
5592 -2465 -2471 -5572 0
-5592 2465 0
-5592 2471 0
-5592 5572 0
-303 2474 5589 5590 5591 5592 0
303 -2474 0
303 -5589 0
303 -5590 0
303 -5591 0
303 -5592 0
5593 -2465 -5575 0
-5593 2465 0
-5593 5575 0
5594 -5575 -5575 0
-5594 5575 0
-5594 5575 0
5595 -5575 -2465 0
-5595 5575 0
-5595 2465 0
5596 -2465 -2465 -5572 0
-5596 2465 0
-5596 2465 0
-5596 5572 0
-5597 2477 5593 5594 5595 5596 0
5597 -2477 0
5597 -5593 0
5597 -5594 0
5597 -5595 0
5597 -5596 0
5598 -2356 -2356 0
-5598 2356 0
-5598 2356 0
-5599 2342 5598 0
5599 -2342 0
5599 -5598 0
5600 -2356 -2351 0
-5600 2356 0
-5600 2351 0
-99 2336 5600 0
99 -2336 0
99 -5600 0
5601 -2356 -2353 0
-5601 2356 0
-5601 2353 0
-97 2335 5601 0
97 -2335 0
97 -5601 0
5602 -2363 -2353 0
-5602 2363 0
-5602 2353 0
-100 2358 5602 0
100 -2358 0
100 -5602 0
5603 -2351 -2363 0
-5603 2351 0
-5603 2363 0
-98 2360 5603 0
98 -2360 0
98 -5603 0
5604 -2351 -2351 0
-5604 2351 0
-5604 2351 0
-5605 2340 5604 0
5605 -2340 0
5605 -5604 0
5606 -3296 -3296 0
-5606 3296 0
-5606 3296 0
-5607 3276 5606 0
5607 -3276 0
5607 -5606 0
5608 -3296 -3304 0
-5608 3296 0
-5608 3304 0
-139 3280 5608 0
139 -3280 0
139 -5608 0
5609 -3296 -3299 0
-5609 3296 0
-5609 3299 0
-137 3287 5609 0
137 -3287 0
137 -5609 0
5610 -3294 -3299 0
-5610 3294 0
-5610 3299 0
-140 3289 5610 0
140 -3289 0
140 -5610 0
5611 -3304 -3294 0
-5611 3304 0
-5611 3294 0
-138 3283 5611 0
138 -3283 0
138 -5611 0
5612 -3304 -3304 0
-5612 3304 0
-5612 3304 0
-5613 3310 5612 0
5613 -3310 0
5613 -5612 0
5614 -1615 -1615 0
-5614 1615 0
-5614 1615 0
-5615 1595 5614 0
5615 -1595 0
5615 -5614 0
5616 -1615 -1623 0
-5616 1615 0
-5616 1623 0
-474 1599 5616 0
474 -1599 0
474 -5616 0
5617 -1615 -1618 0
-5617 1615 0
-5617 1618 0
-472 1606 5617 0
472 -1606 0
472 -5617 0
5618 -1613 -1618 0
-5618 1613 0
-5618 1618 0
-475 1608 5618 0
475 -1608 0
475 -5618 0
5619 -1623 -1613 0
-5619 1623 0
-5619 1613 0
-473 1602 5619 0
473 -1602 0
473 -5619 0
5620 -1623 -1623 0
-5620 1623 0
-5620 1623 0
-5621 1629 5620 0
5621 -1629 0
5621 -5620 0
5622 -3939 -3939 0
-5622 3939 0
-5622 3939 0
-5623 3946 5622 0
5623 -3946 0
5623 -5622 0
5624 -3939 -3951 0
-5624 3939 0
-5624 3951 0
-724 3953 5624 0
724 -3953 0
724 -5624 0
5625 -3939 -3957 0
-5625 3939 0
-5625 3957 0
-722 3960 5625 0
722 -3960 0
722 -5625 0
5626 -3962 -3957 0
-5626 3962 0
-5626 3957 0
-725 3967 5626 0
725 -3967 0
725 -5626 0
5627 -3951 -3962 0
-5627 3951 0
-5627 3962 0
-723 3972 5627 0
723 -3972 0
723 -5627 0
5628 -3951 -3951 0
-5628 3951 0
-5628 3951 0
-5629 3978 5628 0
5629 -3978 0
5629 -5628 0
5630 -1731 -1731 0
-5630 1731 0
-5630 1731 0
-5631 1738 5630 0
5631 -1738 0
5631 -5630 0
5632 -1731 -1743 0
-5632 1731 0
-5632 1743 0
-769 1745 5632 0
769 -1745 0
769 -5632 0
5633 -1731 -1749 0
-5633 1731 0
-5633 1749 0
-767 1752 5633 0
767 -1752 0
767 -5633 0
5634 -1754 -1749 0
-5634 1754 0
-5634 1749 0
-770 1759 5634 0
770 -1759 0
770 -5634 0
5635 -1743 -1754 0
-5635 1743 0
-5635 1754 0
-768 1764 5635 0
768 -1764 0
768 -5635 0
5636 -1743 -1743 0
-5636 1743 0
-5636 1743 0
-5637 1770 5636 0
5637 -1770 0
5637 -5636 0
5638 -5639 -5640 0
-5638 5639 0
-5638 5640 0
5641 -5640 -5640 0
-5641 5640 0
-5641 5640 0
5642 -5640 -5639 0
-5642 5640 0
-5642 5639 0
5643 -5639 -5639 -5644 0
-5643 5639 0
-5643 5639 0
-5643 5644 0
-5645 5646 5638 5641 5642 5643 0
5645 -5646 0
5645 -5638 0
5645 -5641 0
5645 -5642 0
5645 -5643 0
5647 -5639 -5648 0
-5647 5639 0
-5647 5648 0
5649 -5640 -5648 0
-5649 5640 0
-5649 5648 0
5650 -5640 -5651 0
-5650 5640 0
-5650 5651 0
5652 -5639 -5651 -5644 0
-5652 5639 0
-5652 5651 0
-5652 5644 0
-309 5653 5647 5649 5650 5652 0
309 -5653 0
309 -5647 0
309 -5649 0
309 -5650 0
309 -5652 0
5654 -5639 -5655 0
-5654 5639 0
-5654 5655 0
5656 -5640 -5657 0
-5656 5640 0
-5656 5657 0
5658 -5640 -5655 0
-5658 5640 0
-5658 5655 0
5659 -5639 -5657 -5644 0
-5659 5639 0
-5659 5657 0
-5659 5644 0
-307 5660 5654 5656 5658 5659 0
307 -5660 0
307 -5654 0
307 -5656 0
307 -5658 0
307 -5659 0
5661 -5662 -5655 0
-5661 5662 0
-5661 5655 0
5663 -5664 -5655 0
-5663 5664 0
-5663 5655 0
5665 -5664 -5657 0
-5665 5664 0
-5665 5657 0
5666 -5662 -5657 -5644 0
-5666 5662 0
-5666 5657 0
-5666 5644 0
-310 5667 5661 5663 5665 5666 0
310 -5667 0
310 -5661 0
310 -5663 0
310 -5665 0
310 -5666 0
5668 -5651 -5664 0
-5668 5651 0
-5668 5664 0
5669 -5648 -5662 0
-5669 5648 0
-5669 5662 0
5670 -5648 -5664 0
-5670 5648 0
-5670 5664 0
5671 -5651 -5662 -5644 0
-5671 5651 0
-5671 5662 0
-5671 5644 0
-308 5672 5668 5669 5670 5671 0
308 -5672 0
308 -5668 0
308 -5669 0
308 -5670 0
308 -5671 0
5673 -5651 -5648 0
-5673 5651 0
-5673 5648 0
5674 -5648 -5648 0
-5674 5648 0
-5674 5648 0
5675 -5648 -5651 0
-5675 5648 0
-5675 5651 0
5676 -5651 -5651 -5644 0
-5676 5651 0
-5676 5651 0
-5676 5644 0
-5677 5678 5673 5674 5675 5676 0
5677 -5678 0
5677 -5673 0
5677 -5674 0
5677 -5675 0
5677 -5676 0
5679 -1980 -1980 0
-5679 1980 0
-5679 1980 0
-5680 1987 5679 0
5680 -1987 0
5680 -5679 0
5681 -1980 -1992 0
-5681 1980 0
-5681 1992 0
-1014 1994 5681 0
1014 -1994 0
1014 -5681 0
5682 -1980 -1998 0
-5682 1980 0
-5682 1998 0
-1012 2001 5682 0
1012 -2001 0
1012 -5682 0
5683 -2003 -1998 0
-5683 2003 0
-5683 1998 0
-1015 2008 5683 0
1015 -2008 0
1015 -5683 0
5684 -1992 -2003 0
-5684 1992 0
-5684 2003 0
-1013 2013 5684 0
1013 -2013 0
1013 -5684 0
5685 -1992 -1992 0
-5685 1992 0
-5685 1992 0
-5686 2019 5685 0
5686 -2019 0
5686 -5685 0
5687 -1913 -2602 0
-5687 1913 0
-5687 2602 0
5688 -2602 -2602 0
-5688 2602 0
-5688 2602 0
5689 -2602 -1913 0
-5689 2602 0
-5689 1913 0
5690 -1913 -1913 -2597 0
-5690 1913 0
-5690 1913 0
-5690 2597 0
-5691 1915 5687 5688 5689 5690 0
5691 -1915 0
5691 -5687 0
5691 -5688 0
5691 -5689 0
5691 -5690 0
5692 -1913 -2592 0
-5692 1913 0
-5692 2592 0
5693 -2602 -2592 0
-5693 2602 0
-5693 2592 0
5694 -2602 -1917 0
-5694 2602 0
-5694 1917 0
5695 -1913 -1917 -2597 0
-5695 1913 0
-5695 1917 0
-5695 2597 0
-194 1918 5692 5693 5694 5695 0
194 -1918 0
194 -5692 0
194 -5693 0
194 -5694 0
194 -5695 0
5696 -1913 -2591 0
-5696 1913 0
-5696 2591 0
5697 -2602 -1920 0
-5697 2602 0
-5697 1920 0
5698 -2602 -2591 0
-5698 2602 0
-5698 2591 0
5699 -1913 -1920 -2597 0
-5699 1913 0
-5699 1920 0
-5699 2597 0
-192 1921 5696 5697 5698 5699 0
192 -1921 0
192 -5696 0
192 -5697 0
192 -5698 0
192 -5699 0
5700 -1923 -2591 0
-5700 1923 0
-5700 2591 0
5701 -2607 -2591 0
-5701 2607 0
-5701 2591 0
5702 -2607 -1920 0
-5702 2607 0
-5702 1920 0
5703 -1923 -1920 -2597 0
-5703 1923 0
-5703 1920 0
-5703 2597 0
-195 1924 5700 5701 5702 5703 0
195 -1924 0
195 -5700 0
195 -5701 0
195 -5702 0
195 -5703 0
5704 -1917 -2607 0
-5704 1917 0
-5704 2607 0
5705 -2592 -1923 0
-5705 2592 0
-5705 1923 0
5706 -2592 -2607 0
-5706 2592 0
-5706 2607 0
5707 -1917 -1923 -2597 0
-5707 1917 0
-5707 1923 0
-5707 2597 0
-193 1926 5704 5705 5706 5707 0
193 -1926 0
193 -5704 0
193 -5705 0
193 -5706 0
193 -5707 0
5708 -1917 -2592 0
-5708 1917 0
-5708 2592 0
2593 -2592 -2592 0
-2593 2592 0
-2593 2592 0
5709 -2592 -1917 0
-5709 2592 0
-5709 1917 0
5710 -1917 -1917 -2597 0
-5710 1917 0
-5710 1917 0
-5710 2597 0
-5711 1929 5708 2593 5709 5710 0
5711 -1929 0
5711 -5708 0
5711 -2593 0
5711 -5709 0
5711 -5710 0
5712 -1371 -1347 0
-5712 1371 0
-5712 1347 0
1348 -1347 -1347 0
-1348 1347 0
-1348 1347 0
5713 -1347 -1371 0
-5713 1347 0
-5713 1371 0
5714 -1371 -1371 -1353 0
-5714 1371 0
-5714 1371 0
-5714 1353 0
-5715 1351 5712 1348 5713 5714 0
5715 -1351 0
5715 -5712 0
5715 -1348 0
5715 -5713 0
5715 -5714 0
5716 -1371 -1360 0
-5716 1371 0
-5716 1360 0
5717 -1347 -1360 0
-5717 1347 0
-5717 1360 0
5718 -1347 -1379 0
-5718 1347 0
-5718 1379 0
5719 -1371 -1379 -1353 0
-5719 1371 0
-5719 1379 0
-5719 1353 0
-524 1355 5716 5717 5718 5719 0
524 -1355 0
524 -5716 0
524 -5717 0
524 -5718 0
524 -5719 0
5720 -1371 -1367 0
-5720 1371 0
-5720 1367 0
5721 -1347 -1374 0
-5721 1347 0
-5721 1374 0
5722 -1347 -1367 0
-5722 1347 0
-5722 1367 0
5723 -1371 -1374 -1353 0
-5723 1371 0
-5723 1374 0
-5723 1353 0
-522 1362 5720 5721 5722 5723 0
522 -1362 0
522 -5720 0
522 -5721 0
522 -5722 0
522 -5723 0
5724 -1369 -1367 0
-5724 1369 0
-5724 1367 0
5725 -1346 -1367 0
-5725 1346 0
-5725 1367 0
5726 -1346 -1374 0
-5726 1346 0
-5726 1374 0
5727 -1369 -1374 -1353 0
-5727 1369 0
-5727 1374 0
-5727 1353 0
-525 1364 5724 5725 5726 5727 0
525 -1364 0
525 -5724 0
525 -5725 0
525 -5726 0
525 -5727 0
5728 -1379 -1346 0
-5728 1379 0
-5728 1346 0
5729 -1360 -1369 0
-5729 1360 0
-5729 1369 0
5730 -1360 -1346 0
-5730 1360 0
-5730 1346 0
5731 -1379 -1369 -1353 0
-5731 1379 0
-5731 1369 0
-5731 1353 0
-523 1358 5728 5729 5730 5731 0
523 -1358 0
523 -5728 0
523 -5729 0
523 -5730 0
523 -5731 0
5732 -1379 -1360 0
-5732 1379 0
-5732 1360 0
5733 -1360 -1360 0
-5733 1360 0
-5733 1360 0
5734 -1360 -1379 0
-5734 1360 0
-5734 1379 0
5735 -1379 -1379 -1353 0
-5735 1379 0
-5735 1379 0
-5735 1353 0
-5736 1385 5732 5733 5734 5735 0
5736 -1385 0
5736 -5732 0
5736 -5733 0
5736 -5734 0
5736 -5735 0
5737 -5298 -5298 0
-5737 5298 0
-5737 5298 0
-5738 5305 5737 0
5738 -5305 0
5738 -5737 0
5739 -5298 -5310 0
-5739 5298 0
-5739 5310 0
-1184 5312 5739 0
1184 -5312 0
1184 -5739 0
5740 -5298 -5316 0
-5740 5298 0
-5740 5316 0
-1182 5319 5740 0
1182 -5319 0
1182 -5740 0
5741 -5321 -5316 0
-5741 5321 0
-5741 5316 0
-1185 5326 5741 0
1185 -5326 0
1185 -5741 0
5742 -5310 -5321 0
-5742 5310 0
-5742 5321 0
-1183 5331 5742 0
1183 -5331 0
1183 -5742 0
5743 -5310 -5310 0
-5743 5310 0
-5743 5310 0
-5744 5337 5743 0
5744 -5337 0
5744 -5743 0
5745 -1897 -1873 0
-5745 1897 0
-5745 1873 0
1874 -1873 -1873 0
-1874 1873 0
-1874 1873 0
5746 -1873 -1897 0
-5746 1873 0
-5746 1897 0
5747 -1897 -1897 -1879 0
-5747 1897 0
-5747 1897 0
-5747 1879 0
-5748 1877 5745 1874 5746 5747 0
5748 -1877 0
5748 -5745 0
5748 -1874 0
5748 -5746 0
5748 -5747 0
5749 -1897 -1886 0
-5749 1897 0
-5749 1886 0
5750 -1873 -1886 0
-5750 1873 0
-5750 1886 0
5751 -1873 -1905 0
-5751 1873 0
-5751 1905 0
5752 -1897 -1905 -1879 0
-5752 1897 0
-5752 1905 0
-5752 1879 0
-539 1881 5749 5750 5751 5752 0
539 -1881 0
539 -5749 0
539 -5750 0
539 -5751 0
539 -5752 0
5753 -1897 -1893 0
-5753 1897 0
-5753 1893 0
5754 -1873 -1900 0
-5754 1873 0
-5754 1900 0
5755 -1873 -1893 0
-5755 1873 0
-5755 1893 0
5756 -1897 -1900 -1879 0
-5756 1897 0
-5756 1900 0
-5756 1879 0
-537 1888 5753 5754 5755 5756 0
537 -1888 0
537 -5753 0
537 -5754 0
537 -5755 0
537 -5756 0
5757 -1895 -1893 0
-5757 1895 0
-5757 1893 0
5758 -1872 -1893 0
-5758 1872 0
-5758 1893 0
5759 -1872 -1900 0
-5759 1872 0
-5759 1900 0
5760 -1895 -1900 -1879 0
-5760 1895 0
-5760 1900 0
-5760 1879 0
-540 1890 5757 5758 5759 5760 0
540 -1890 0
540 -5757 0
540 -5758 0
540 -5759 0
540 -5760 0
5761 -1905 -1872 0
-5761 1905 0
-5761 1872 0
5762 -1886 -1895 0
-5762 1886 0
-5762 1895 0
5763 -1886 -1872 0
-5763 1886 0
-5763 1872 0
5764 -1905 -1895 -1879 0
-5764 1905 0
-5764 1895 0
-5764 1879 0
-538 1884 5761 5762 5763 5764 0
538 -1884 0
538 -5761 0
538 -5762 0
538 -5763 0
538 -5764 0
5765 -1905 -1886 0
-5765 1905 0
-5765 1886 0
3312 -1886 -1886 0
-3312 1886 0
-3312 1886 0
5766 -1886 -1905 0
-5766 1886 0
-5766 1905 0
5767 -1905 -1905 -1879 0
-5767 1905 0
-5767 1905 0
-5767 1879 0
-5768 1911 5765 3312 5766 5767 0
5768 -1911 0
5768 -5765 0
5768 -3312 0
5768 -5766 0
5768 -5767 0
5769 -3271 -3271 0
-5769 3271 0
-5769 3271 0
-5770 3278 5769 0
5770 -3278 0
5770 -5769 0
5771 -3271 -3283 0
-5771 3271 0
-5771 3283 0
-219 3285 5771 0
219 -3285 0
219 -5771 0
5772 -3271 -3289 0
-5772 3271 0
-5772 3289 0
-217 3292 5772 0
217 -3292 0
217 -5772 0
5773 -3294 -3289 0
-5773 3294 0
-5773 3289 0
-220 3299 5773 0
220 -3299 0
220 -5773 0
5774 -3283 -3294 0
-5774 3283 0
-5774 3294 0
-218 3304 5774 0
218 -3304 0
218 -5774 0
5775 -3283 -3283 0
-5775 3283 0
-5775 3283 0
-5776 3310 5775 0
5776 -3310 0
5776 -5775 0
5777 -1590 -1590 0
-5777 1590 0
-5777 1590 0
-5778 1597 5777 0
5778 -1597 0
5778 -5777 0
5779 -1590 -1602 0
-5779 1590 0
-5779 1602 0
-594 1604 5779 0
594 -1604 0
594 -5779 0
5780 -1590 -1608 0
-5780 1590 0
-5780 1608 0
-592 1611 5780 0
592 -1611 0
592 -5780 0
5781 -1613 -1608 0
-5781 1613 0
-5781 1608 0
-595 1618 5781 0
595 -1618 0
595 -5781 0
5782 -1602 -1613 0
-5782 1602 0
-5782 1613 0
-593 1623 5782 0
593 -1623 0
593 -5782 0
5783 -1602 -1602 0
-5783 1602 0
-5783 1602 0
-5784 1629 5783 0
5784 -1629 0
5784 -5783 0
5785 -2575 -2551 0
-5785 2575 0
-5785 2551 0
2552 -2551 -2551 0
-2552 2551 0
-2552 2551 0
5786 -2551 -2575 0
-5786 2551 0
-5786 2575 0
5787 -2575 -2575 -2557 0
-5787 2575 0
-5787 2575 0
-5787 2557 0
-5788 2555 5785 2552 5786 5787 0
5788 -2555 0
5788 -5785 0
5788 -2552 0
5788 -5786 0
5788 -5787 0
5789 -2575 -2564 0
-5789 2575 0
-5789 2564 0
5790 -2551 -2564 0
-5790 2551 0
-5790 2564 0
5791 -2551 -2583 0
-5791 2551 0
-5791 2583 0
5792 -2575 -2583 -2557 0
-5792 2575 0
-5792 2583 0
-5792 2557 0
-209 2559 5789 5790 5791 5792 0
209 -2559 0
209 -5789 0
209 -5790 0
209 -5791 0
209 -5792 0
5793 -2575 -2571 0
-5793 2575 0
-5793 2571 0
5794 -2551 -2578 0
-5794 2551 0
-5794 2578 0
5795 -2551 -2571 0
-5795 2551 0
-5795 2571 0
5796 -2575 -2578 -2557 0
-5796 2575 0
-5796 2578 0
-5796 2557 0
-207 2566 5793 5794 5795 5796 0
207 -2566 0
207 -5793 0
207 -5794 0
207 -5795 0
207 -5796 0
5797 -2573 -2571 0
-5797 2573 0
-5797 2571 0
5798 -2550 -2571 0
-5798 2550 0
-5798 2571 0
5799 -2550 -2578 0
-5799 2550 0
-5799 2578 0
5800 -2573 -2578 -2557 0
-5800 2573 0
-5800 2578 0
-5800 2557 0
-210 2568 5797 5798 5799 5800 0
210 -2568 0
210 -5797 0
210 -5798 0
210 -5799 0
210 -5800 0
5801 -2583 -2550 0
-5801 2583 0
-5801 2550 0
5802 -2564 -2573 0
-5802 2564 0
-5802 2573 0
5803 -2564 -2550 0
-5803 2564 0
-5803 2550 0
5804 -2583 -2573 -2557 0
-5804 2583 0
-5804 2573 0
-5804 2557 0
-208 2562 5801 5802 5803 5804 0
208 -2562 0
208 -5801 0
208 -5802 0
208 -5803 0
208 -5804 0
5805 -2583 -2564 0
-5805 2583 0
-5805 2564 0
5806 -2564 -2564 0
-5806 2564 0
-5806 2564 0
5807 -2564 -2583 0
-5807 2564 0
-5807 2583 0
5808 -2583 -2583 -2557 0
-5808 2583 0
-5808 2583 0
-5808 2557 0
-5809 2589 5805 5806 5807 5808 0
5809 -2589 0
5809 -5805 0
5809 -5806 0
5809 -5807 0
5809 -5808 0
5810 -3545 -3545 0
-5810 3545 0
-5810 3545 0
-5811 3552 5810 0
5811 -3552 0
5811 -5810 0
5812 -3545 -3557 0
-5812 3545 0
-5812 3557 0
-649 3559 5812 0
649 -3559 0
649 -5812 0
5813 -3545 -3563 0
-5813 3545 0
-5813 3563 0
-647 3566 5813 0
647 -3566 0
647 -5813 0
5814 -3568 -3563 0
-5814 3568 0
-5814 3563 0
-650 3573 5814 0
650 -3573 0
650 -5814 0
5815 -3557 -3568 0
-5815 3557 0
-5815 3568 0
-648 3578 5815 0
648 -3578 0
648 -5815 0
5816 -3557 -3557 0
-5816 3557 0
-5816 3557 0
-5817 3584 5816 0
5817 -3584 0
5817 -5816 0
5818 -3926 -3908 0
-5818 3926 0
-5818 3908 0
3909 -3908 -3908 0
-3909 3908 0
-3909 3908 0
5819 -3908 -3926 0
-5819 3908 0
-5819 3926 0
5820 -3926 -3926 -2419 0
-5820 3926 0
-5820 3926 0
-5820 2419 0
-5821 3912 5818 3909 5819 5820 0
5821 -3912 0
5821 -5818 0
5821 -3909 0
5821 -5819 0
5821 -5820 0
5822 -3926 -2422 0
-5822 3926 0
-5822 2422 0
5823 -3908 -2422 0
-5823 3908 0
-5823 2422 0
5824 -3908 -2430 0
-5824 3908 0
-5824 2430 0
5825 -3926 -2430 -2419 0
-5825 3926 0
-5825 2430 0
-5825 2419 0
-609 3915 5822 5823 5824 5825 0
609 -3915 0
609 -5822 0
609 -5823 0
609 -5824 0
609 -5825 0
5826 -3926 -2425 0
-5826 3926 0
-5826 2425 0
5827 -3908 -2428 0
-5827 3908 0
-5827 2428 0
5828 -3908 -2425 0
-5828 3908 0
-5828 2425 0
5829 -3926 -2428 -2419 0
-5829 3926 0
-5829 2428 0
-5829 2419 0
-607 3920 5826 5827 5828 5829 0
607 -3920 0
607 -5826 0
607 -5827 0
607 -5828 0
607 -5829 0
5830 -2427 -2425 0
-5830 2427 0
-5830 2425 0
5831 -2417 -2425 0
-5831 2417 0
-5831 2425 0
5832 -2417 -2428 0
-5832 2417 0
-5832 2428 0
5833 -2427 -2428 -2419 0
-5833 2427 0
-5833 2428 0
-5833 2419 0
-610 2424 5830 5831 5832 5833 0
610 -2424 0
610 -5830 0
610 -5831 0
610 -5832 0
610 -5833 0
5834 -2430 -2417 0
-5834 2430 0
-5834 2417 0
5835 -2422 -2427 0
-5835 2422 0
-5835 2427 0
5836 -2422 -2417 0
-5836 2422 0
-5836 2417 0
5837 -2430 -2427 -2419 0
-5837 2430 0
-5837 2427 0
-5837 2419 0
-608 2421 5834 5835 5836 5837 0
608 -2421 0
608 -5834 0
608 -5835 0
608 -5836 0
608 -5837 0
5838 -2430 -2422 0
-5838 2430 0
-5838 2422 0
5839 -2422 -2422 0
-5839 2422 0
-5839 2422 0
5840 -2422 -2430 0
-5840 2422 0
-5840 2430 0
5841 -2430 -2430 -2419 0
-5841 2430 0
-5841 2430 0
-5841 2419 0
-5842 2433 5838 5839 5840 5841 0
5842 -2433 0
5842 -5838 0
5842 -5839 0
5842 -5840 0
5842 -5841 0
5843 -1510 -5844 0
-5843 1510 0
-5843 5844 0
5845 -5844 -5844 0
-5845 5844 0
-5845 5844 0
5846 -5844 -1510 0
-5846 5844 0
-5846 1510 0
5847 -1510 -1510 -5848 0
-5847 1510 0
-5847 1510 0
-5847 5848 0
-5849 1512 5843 5845 5846 5847 0
5849 -1512 0
5849 -5843 0
5849 -5845 0
5849 -5846 0
5849 -5847 0
5850 -1510 -5851 0
-5850 1510 0
-5850 5851 0
5852 -5844 -5851 0
-5852 5844 0
-5852 5851 0
5853 -5844 -1514 0
-5853 5844 0
-5853 1514 0
5854 -1510 -1514 -5848 0
-5854 1510 0
-5854 1514 0
-5854 5848 0
-779 1515 5850 5852 5853 5854 0
779 -1515 0
779 -5850 0
779 -5852 0
779 -5853 0
779 -5854 0
5855 -1510 -5856 0
-5855 1510 0
-5855 5856 0
5857 -5844 -1517 0
-5857 5844 0
-5857 1517 0
5858 -5844 -5856 0
-5858 5844 0
-5858 5856 0
5859 -1510 -1517 -5848 0
-5859 1510 0
-5859 1517 0
-5859 5848 0
-777 1518 5855 5857 5858 5859 0
777 -1518 0
777 -5855 0
777 -5857 0
777 -5858 0
777 -5859 0
5860 -1520 -5856 0
-5860 1520 0
-5860 5856 0
5861 -5862 -5856 0
-5861 5862 0
-5861 5856 0
5863 -5862 -1517 0
-5863 5862 0
-5863 1517 0
5864 -1520 -1517 -5848 0
-5864 1520 0
-5864 1517 0
-5864 5848 0
-780 1521 5860 5861 5863 5864 0
780 -1521 0
780 -5860 0
780 -5861 0
780 -5863 0
780 -5864 0
5865 -1514 -5862 0
-5865 1514 0
-5865 5862 0
5866 -5851 -1520 0
-5866 5851 0
-5866 1520 0
5867 -5851 -5862 0
-5867 5851 0
-5867 5862 0
5868 -1514 -1520 -5848 0
-5868 1514 0
-5868 1520 0
-5868 5848 0
-778 1523 5865 5866 5867 5868 0
778 -1523 0
778 -5865 0
778 -5866 0
778 -5867 0
778 -5868 0
5869 -1514 -5851 0
-5869 1514 0
-5869 5851 0
5870 -5851 -5851 0
-5870 5851 0
-5870 5851 0
5871 -5851 -1514 0
-5871 5851 0
-5871 1514 0
5872 -1514 -1514 -5848 0
-5872 1514 0
-5872 1514 0
-5872 5848 0
-5873 1526 5869 5870 5871 5872 0
5873 -1526 0
5873 -5869 0
5873 -5870 0
5873 -5871 0
5873 -5872 0
5874 -2319 -2295 0
-5874 2319 0
-5874 2295 0
2296 -2295 -2295 0
-2296 2295 0
-2296 2295 0
5875 -2295 -2319 0
-5875 2295 0
-5875 2319 0
5876 -2319 -2319 -2301 0
-5876 2319 0
-5876 2319 0
-5876 2301 0
-5877 2299 5874 2296 5875 5876 0
5877 -2299 0
5877 -5874 0
5877 -2296 0
5877 -5875 0
5877 -5876 0
5878 -2319 -2308 0
-5878 2319 0
-5878 2308 0
5879 -2295 -2308 0
-5879 2295 0
-5879 2308 0
5880 -2295 -2327 0
-5880 2295 0
-5880 2327 0
5881 -2319 -2327 -2301 0
-5881 2319 0
-5881 2327 0
-5881 2301 0
-434 2303 5878 5879 5880 5881 0
434 -2303 0
434 -5878 0
434 -5879 0
434 -5880 0
434 -5881 0
5882 -2319 -2315 0
-5882 2319 0
-5882 2315 0
5883 -2295 -2322 0
-5883 2295 0
-5883 2322 0
5884 -2295 -2315 0
-5884 2295 0
-5884 2315 0
5885 -2319 -2322 -2301 0
-5885 2319 0
-5885 2322 0
-5885 2301 0
-432 2310 5882 5883 5884 5885 0
432 -2310 0
432 -5882 0
432 -5883 0
432 -5884 0
432 -5885 0
5886 -2317 -2315 0
-5886 2317 0
-5886 2315 0
5887 -2294 -2315 0
-5887 2294 0
-5887 2315 0
5888 -2294 -2322 0
-5888 2294 0
-5888 2322 0
5889 -2317 -2322 -2301 0
-5889 2317 0
-5889 2322 0
-5889 2301 0
-435 2312 5886 5887 5888 5889 0
435 -2312 0
435 -5886 0
435 -5887 0
435 -5888 0
435 -5889 0
5890 -2327 -2294 0
-5890 2327 0
-5890 2294 0
5891 -2308 -2317 0
-5891 2308 0
-5891 2317 0
5892 -2308 -2294 0
-5892 2308 0
-5892 2294 0
5893 -2327 -2317 -2301 0
-5893 2327 0
-5893 2317 0
-5893 2301 0
-433 2306 5890 5891 5892 5893 0
433 -2306 0
433 -5890 0
433 -5891 0
433 -5892 0
433 -5893 0
5894 -2327 -2308 0
-5894 2327 0
-5894 2308 0
2797 -2308 -2308 0
-2797 2308 0
-2797 2308 0
5895 -2308 -2327 0
-5895 2308 0
-5895 2327 0
5896 -2327 -2327 -2301 0
-5896 2327 0
-5896 2327 0
-5896 2301 0
-5897 2333 5894 2797 5895 5896 0
5897 -2333 0
5897 -5894 0
5897 -2797 0
5897 -5895 0
5897 -5896 0
5898 -2575 -2575 0
-5898 2575 0
-5898 2575 0
-5899 2555 5898 0
5899 -2555 0
5899 -5898 0
5900 -2575 -2583 0
-5900 2575 0
-5900 2583 0
-564 2559 5900 0
564 -2559 0
564 -5900 0
5901 -2575 -2578 0
-5901 2575 0
-5901 2578 0
-562 2566 5901 0
562 -2566 0
562 -5901 0
5902 -2573 -2578 0
-5902 2573 0
-5902 2578 0
-565 2568 5902 0
565 -2568 0
565 -5902 0
5903 -2583 -2573 0
-5903 2583 0
-5903 2573 0
-563 2562 5903 0
563 -2562 0
563 -5903 0
5904 -2583 -2583 0
-5904 2583 0
-5904 2583 0
-5905 2589 5904 0
5905 -2589 0
5905 -5904 0
5906 -1536 -5907 0
-5906 1536 0
-5906 5907 0
5908 -5907 -5907 0
-5908 5907 0
-5908 5907 0
5909 -5907 -1536 0
-5909 5907 0
-5909 1536 0
5910 -1536 -1536 -5911 0
-5910 1536 0
-5910 1536 0
-5910 5911 0
-5912 1538 5906 5908 5909 5910 0
5912 -1538 0
5912 -5906 0
5912 -5908 0
5912 -5909 0
5912 -5910 0
5913 -1536 -5914 0
-5913 1536 0
-5913 5914 0
5915 -5907 -5914 0
-5915 5907 0
-5915 5914 0
5916 -5907 -1540 0
-5916 5907 0
-5916 1540 0
5917 -1536 -1540 -5911 0
-5917 1536 0
-5917 1540 0
-5917 5911 0
-49 1541 5913 5915 5916 5917 0
49 -1541 0
49 -5913 0
49 -5915 0
49 -5916 0
49 -5917 0
5918 -1536 -5919 0
-5918 1536 0
-5918 5919 0
5920 -5907 -1543 0
-5920 5907 0
-5920 1543 0
5921 -5907 -5919 0
-5921 5907 0
-5921 5919 0
5922 -1536 -1543 -5911 0
-5922 1536 0
-5922 1543 0
-5922 5911 0
-47 1544 5918 5920 5921 5922 0
47 -1544 0
47 -5918 0
47 -5920 0
47 -5921 0
47 -5922 0
5923 -1546 -5919 0
-5923 1546 0
-5923 5919 0
5924 -5925 -5919 0
-5924 5925 0
-5924 5919 0
5926 -5925 -1543 0
-5926 5925 0
-5926 1543 0
5927 -1546 -1543 -5911 0
-5927 1546 0
-5927 1543 0
-5927 5911 0
-50 1547 5923 5924 5926 5927 0
50 -1547 0
50 -5923 0
50 -5924 0
50 -5926 0
50 -5927 0
5928 -1540 -5925 0
-5928 1540 0
-5928 5925 0
5929 -5914 -1546 0
-5929 5914 0
-5929 1546 0
5930 -5914 -5925 0
-5930 5914 0
-5930 5925 0
5931 -1540 -1546 -5911 0
-5931 1540 0
-5931 1546 0
-5931 5911 0
-48 1549 5928 5929 5930 5931 0
48 -1549 0
48 -5928 0
48 -5929 0
48 -5930 0
48 -5931 0
5932 -1540 -5914 0
-5932 1540 0
-5932 5914 0
5933 -5914 -5914 0
-5933 5914 0
-5933 5914 0
5934 -5914 -1540 0
-5934 5914 0
-5934 1540 0
5935 -1540 -1540 -5911 0
-5935 1540 0
-5935 1540 0
-5935 5911 0
-5936 1552 5932 5933 5934 5935 0
5936 -1552 0
5936 -5932 0
5936 -5933 0
5936 -5934 0
5936 -5935 0
5937 -5409 -5409 0
-5937 5409 0
-5937 5409 0
-5938 5416 5937 0
5938 -5416 0
5938 -5937 0
5939 -5409 -5421 0
-5939 5409 0
-5939 5421 0
-1174 5423 5939 0
1174 -5423 0
1174 -5939 0
5940 -5409 -5427 0
-5940 5409 0
-5940 5427 0
-1172 5430 5940 0
1172 -5430 0
1172 -5940 0
5941 -5432 -5427 0
-5941 5432 0
-5941 5427 0
-1175 5437 5941 0
1175 -5437 0
1175 -5941 0
5942 -5421 -5432 0
-5942 5421 0
-5942 5432 0
-1173 5442 5942 0
1173 -5442 0
1173 -5942 0
5943 -5421 -5421 0
-5943 5421 0
-5943 5421 0
-5944 5448 5943 0
5944 -5448 0
5944 -5943 0
5945 -1672 -5946 0
-5945 1672 0
-5945 5946 0
5947 -5946 -5946 0
-5947 5946 0
-5947 5946 0
5948 -5946 -1672 0
-5948 5946 0
-5948 1672 0
5949 -1672 -1672 -5950 0
-5949 1672 0
-5949 1672 0
-5949 5950 0
-5951 1674 5945 5947 5948 5949 0
5951 -1674 0
5951 -5945 0
5951 -5947 0
5951 -5948 0
5951 -5949 0
5952 -1672 -5953 0
-5952 1672 0
-5952 5953 0
5954 -5946 -5953 0
-5954 5946 0
-5954 5953 0
5955 -5946 -1676 0
-5955 5946 0
-5955 1676 0
5956 -1672 -1676 -5950 0
-5956 1672 0
-5956 1676 0
-5956 5950 0
-254 1677 5952 5954 5955 5956 0
254 -1677 0
254 -5952 0
254 -5954 0
254 -5955 0
254 -5956 0
5957 -1672 -5958 0
-5957 1672 0
-5957 5958 0
5959 -5946 -1679 0
-5959 5946 0
-5959 1679 0
5960 -5946 -5958 0
-5960 5946 0
-5960 5958 0
5961 -1672 -1679 -5950 0
-5961 1672 0
-5961 1679 0
-5961 5950 0
-252 1680 5957 5959 5960 5961 0
252 -1680 0
252 -5957 0
252 -5959 0
252 -5960 0
252 -5961 0
5962 -1682 -5958 0
-5962 1682 0
-5962 5958 0
5963 -5964 -5958 0
-5963 5964 0
-5963 5958 0
5965 -5964 -1679 0
-5965 5964 0
-5965 1679 0
5966 -1682 -1679 -5950 0
-5966 1682 0
-5966 1679 0
-5966 5950 0
-255 1683 5962 5963 5965 5966 0
255 -1683 0
255 -5962 0
255 -5963 0
255 -5965 0
255 -5966 0
5967 -1676 -5964 0
-5967 1676 0
-5967 5964 0
5968 -5953 -1682 0
-5968 5953 0
-5968 1682 0
5969 -5953 -5964 0
-5969 5953 0
-5969 5964 0
5970 -1676 -1682 -5950 0
-5970 1676 0
-5970 1682 0
-5970 5950 0
-253 1685 5967 5968 5969 5970 0
253 -1685 0
253 -5967 0
253 -5968 0
253 -5969 0
253 -5970 0
5971 -1676 -5953 0
-5971 1676 0
-5971 5953 0
5972 -5953 -5953 0
-5972 5953 0
-5972 5953 0
5973 -5953 -1676 0
-5973 5953 0
-5973 1676 0
5974 -1676 -1676 -5950 0
-5974 1676 0
-5974 1676 0
-5974 5950 0
-5975 1688 5971 5972 5973 5974 0
5975 -1688 0
5975 -5971 0
5975 -5972 0
5975 -5973 0
5975 -5974 0
5976 -1305 -1305 0
-5976 1305 0
-5976 1305 0
-5977 1312 5976 0
5977 -1312 0
5977 -5976 0
5978 -1305 -1317 0
-5978 1305 0
-5978 1317 0
-1149 1319 5978 0
1149 -1319 0
1149 -5978 0
5979 -1305 -1323 0
-5979 1305 0
-5979 1323 0
-1147 1326 5979 0
1147 -1326 0
1147 -5979 0
5980 -1328 -1323 0
-5980 1328 0
-5980 1323 0
-1150 1333 5980 0
1150 -1333 0
1150 -5980 0
5981 -1317 -1328 0
-5981 1317 0
-5981 1328 0
-1148 1338 5981 0
1148 -1338 0
1148 -5981 0
5982 -1317 -1317 0
-5982 1317 0
-5982 1317 0
-5983 1344 5982 0
5983 -1344 0
5983 -5982 0
5984 -1494 -1494 0
-5984 1494 0
-5984 1494 0
-5985 1474 5984 0
5985 -1474 0
5985 -5984 0
5986 -1494 -1502 0
-5986 1494 0
-5986 1502 0
-504 1478 5986 0
504 -1478 0
504 -5986 0
5987 -1494 -1497 0
-5987 1494 0
-5987 1497 0
-502 1485 5987 0
502 -1485 0
502 -5987 0
5988 -1492 -1497 0
-5988 1492 0
-5988 1497 0
-505 1487 5988 0
505 -1487 0
505 -5988 0
5989 -1502 -1492 0
-5989 1502 0
-5989 1492 0
-503 1481 5989 0
503 -1481 0
503 -5989 0
5990 -1502 -1502 0
-5990 1502 0
-5990 1502 0
-5991 1508 5990 0
5991 -1508 0
5991 -5990 0
5992 -2927 -2927 0
-5992 2927 0
-5992 2927 0
-5993 2907 5992 0
5993 -2907 0
5993 -5992 0
5994 -2927 -2935 0
-5994 2927 0
-5994 2935 0
-619 2911 5994 0
619 -2911 0
619 -5994 0
5995 -2927 -2930 0
-5995 2927 0
-5995 2930 0
-617 2918 5995 0
617 -2918 0
617 -5995 0
5996 -2925 -2930 0
-5996 2925 0
-5996 2930 0
-620 2920 5996 0
620 -2920 0
620 -5996 0
5997 -2935 -2925 0
-5997 2935 0
-5997 2925 0
-618 2914 5997 0
618 -2914 0
618 -5997 0
5998 -2935 -2935 0
-5998 2935 0
-5998 2935 0
-5999 2941 5998 0
5999 -2941 0
5999 -5998 0
6000 -2607 -2602 0
-6000 2607 0
-6000 2602 0
5688 -2602 -2602 0
-5688 2602 0
-5688 2602 0
6001 -2602 -2607 0
-6001 2602 0
-6001 2607 0
6002 -2607 -2607 -1915 0
-6002 2607 0
-6002 2607 0
-6002 1915 0
-6003 2597 6000 5688 6001 6002 0
6003 -2597 0
6003 -6000 0
6003 -5688 0
6003 -6001 0
6003 -6002 0
6004 -2607 -1918 0
-6004 2607 0
-6004 1918 0
6005 -2602 -1918 0
-6005 2602 0
-6005 1918 0
6006 -2602 -1926 0
-6006 2602 0
-6006 1926 0
6007 -2607 -1926 -1915 0
-6007 2607 0
-6007 1926 0
-6007 1915 0
-114 2592 6004 6005 6006 6007 0
114 -2592 0
114 -6004 0
114 -6005 0
114 -6006 0
114 -6007 0
6008 -2607 -1921 0
-6008 2607 0
-6008 1921 0
6009 -2602 -1924 0
-6009 2602 0
-6009 1924 0
6010 -2602 -1921 0
-6010 2602 0
-6010 1921 0
6011 -2607 -1924 -1915 0
-6011 2607 0
-6011 1924 0
-6011 1915 0
-112 2591 6008 6009 6010 6011 0
112 -2591 0
112 -6008 0
112 -6009 0
112 -6010 0
112 -6011 0
6012 -1923 -1921 0
-6012 1923 0
-6012 1921 0
6013 -1913 -1921 0
-6013 1913 0
-6013 1921 0
6014 -1913 -1924 0
-6014 1913 0
-6014 1924 0
6015 -1923 -1924 -1915 0
-6015 1923 0
-6015 1924 0
-6015 1915 0
-115 1920 6012 6013 6014 6015 0
115 -1920 0
115 -6012 0
115 -6013 0
115 -6014 0
115 -6015 0
6016 -1926 -1913 0
-6016 1926 0
-6016 1913 0
6017 -1918 -1923 0
-6017 1918 0
-6017 1923 0
6018 -1918 -1913 0
-6018 1918 0
-6018 1913 0
6019 -1926 -1923 -1915 0
-6019 1926 0
-6019 1923 0
-6019 1915 0
-113 1917 6016 6017 6018 6019 0
113 -1917 0
113 -6016 0
113 -6017 0
113 -6018 0
113 -6019 0
6020 -1926 -1918 0
-6020 1926 0
-6020 1918 0
2617 -1918 -1918 0
-2617 1918 0
-2617 1918 0
6021 -1918 -1926 0
-6021 1918 0
-6021 1926 0
6022 -1926 -1926 -1915 0
-6022 1926 0
-6022 1926 0
-6022 1915 0
-6023 1929 6020 2617 6021 6022 0
6023 -1929 0
6023 -6020 0
6023 -2617 0
6023 -6021 0
6023 -6022 0
6024 -2146 -2122 0
-6024 2146 0
-6024 2122 0
2123 -2122 -2122 0
-2123 2122 0
-2123 2122 0
6025 -2122 -2146 0
-6025 2122 0
-6025 2146 0
6026 -2146 -2146 -2128 0
-6026 2146 0
-6026 2146 0
-6026 2128 0
-6027 2126 6024 2123 6025 6026 0
6027 -2126 0
6027 -6024 0
6027 -2123 0
6027 -6025 0
6027 -6026 0
6028 -2146 -2135 0
-6028 2146 0
-6028 2135 0
6029 -2122 -2135 0
-6029 2122 0
-6029 2135 0
6030 -2122 -2154 0
-6030 2122 0
-6030 2154 0
6031 -2146 -2154 -2128 0
-6031 2146 0
-6031 2154 0
-6031 2128 0
-944 2130 6028 6029 6030 6031 0
944 -2130 0
944 -6028 0
944 -6029 0
944 -6030 0
944 -6031 0
6032 -2146 -2142 0
-6032 2146 0
-6032 2142 0
6033 -2122 -2149 0
-6033 2122 0
-6033 2149 0
6034 -2122 -2142 0
-6034 2122 0
-6034 2142 0
6035 -2146 -2149 -2128 0
-6035 2146 0
-6035 2149 0
-6035 2128 0
-942 2137 6032 6033 6034 6035 0
942 -2137 0
942 -6032 0
942 -6033 0
942 -6034 0
942 -6035 0
6036 -2144 -2142 0
-6036 2144 0
-6036 2142 0
6037 -2121 -2142 0
-6037 2121 0
-6037 2142 0
6038 -2121 -2149 0
-6038 2121 0
-6038 2149 0
6039 -2144 -2149 -2128 0
-6039 2144 0
-6039 2149 0
-6039 2128 0
-945 2139 6036 6037 6038 6039 0
945 -2139 0
945 -6036 0
945 -6037 0
945 -6038 0
945 -6039 0
6040 -2154 -2121 0
-6040 2154 0
-6040 2121 0
6041 -2135 -2144 0
-6041 2135 0
-6041 2144 0
6042 -2135 -2121 0
-6042 2135 0
-6042 2121 0
6043 -2154 -2144 -2128 0
-6043 2154 0
-6043 2144 0
-6043 2128 0
-943 2133 6040 6041 6042 6043 0
943 -2133 0
943 -6040 0
943 -6041 0
943 -6042 0
943 -6043 0
6044 -2154 -2135 0
-6044 2154 0
-6044 2135 0
3140 -2135 -2135 0
-3140 2135 0
-3140 2135 0
6045 -2135 -2154 0
-6045 2135 0
-6045 2154 0
6046 -2154 -2154 -2128 0
-6046 2154 0
-6046 2154 0
-6046 2128 0
-6047 2160 6044 3140 6045 6046 0
6047 -2160 0
6047 -6044 0
6047 -3140 0
6047 -6045 0
6047 -6046 0
6048 -1715 -1715 0
-6048 1715 0
-6048 1715 0
-6049 1695 6048 0
6049 -1695 0
6049 -6048 0
6050 -1715 -1723 0
-6050 1715 0
-6050 1723 0
-559 1699 6050 0
559 -1699 0
559 -6050 0
6051 -1715 -1718 0
-6051 1715 0
-6051 1718 0
-557 1706 6051 0
557 -1706 0
557 -6051 0
6052 -1713 -1718 0
-6052 1713 0
-6052 1718 0
-560 1708 6052 0
560 -1708 0
560 -6052 0
6053 -1723 -1713 0
-6053 1723 0
-6053 1713 0
-558 1702 6053 0
558 -1702 0
558 -6053 0
6054 -1723 -1723 0
-6054 1723 0
-6054 1723 0
-6055 1729 6054 0
6055 -1729 0
6055 -6054 0
6056 -4792 -6057 0
-6056 4792 0
-6056 6057 0
6058 -6057 -6057 0
-6058 6057 0
-6058 6057 0
6059 -6057 -4792 0
-6059 6057 0
-6059 4792 0
6060 -4792 -4792 -6061 0
-6060 4792 0
-6060 4792 0
-6060 6061 0
-6062 4794 6056 6058 6059 6060 0
6062 -4794 0
6062 -6056 0
6062 -6058 0
6062 -6059 0
6062 -6060 0
6063 -4792 -6064 0
-6063 4792 0
-6063 6064 0
6065 -6057 -6064 0
-6065 6057 0
-6065 6064 0
6066 -6057 -4796 0
-6066 6057 0
-6066 4796 0
6067 -4792 -4796 -6061 0
-6067 4792 0
-6067 4796 0
-6067 6061 0
-824 4797 6063 6065 6066 6067 0
824 -4797 0
824 -6063 0
824 -6065 0
824 -6066 0
824 -6067 0
6068 -4792 -6069 0
-6068 4792 0
-6068 6069 0
6070 -6057 -4799 0
-6070 6057 0
-6070 4799 0
6071 -6057 -6069 0
-6071 6057 0
-6071 6069 0
6072 -4792 -4799 -6061 0
-6072 4792 0
-6072 4799 0
-6072 6061 0
-822 4800 6068 6070 6071 6072 0
822 -4800 0
822 -6068 0
822 -6070 0
822 -6071 0
822 -6072 0
6073 -4802 -6069 0
-6073 4802 0
-6073 6069 0
6074 -6075 -6069 0
-6074 6075 0
-6074 6069 0
6076 -6075 -4799 0
-6076 6075 0
-6076 4799 0
6077 -4802 -4799 -6061 0
-6077 4802 0
-6077 4799 0
-6077 6061 0
-825 4803 6073 6074 6076 6077 0
825 -4803 0
825 -6073 0
825 -6074 0
825 -6076 0
825 -6077 0
6078 -4796 -6075 0
-6078 4796 0
-6078 6075 0
6079 -6064 -4802 0
-6079 6064 0
-6079 4802 0
6080 -6064 -6075 0
-6080 6064 0
-6080 6075 0
6081 -4796 -4802 -6061 0
-6081 4796 0
-6081 4802 0
-6081 6061 0
-823 4805 6078 6079 6080 6081 0
823 -4805 0
823 -6078 0
823 -6079 0
823 -6080 0
823 -6081 0
6082 -4796 -6064 0
-6082 4796 0
-6082 6064 0
6083 -6064 -6064 0
-6083 6064 0
-6083 6064 0
6084 -6064 -4796 0
-6084 6064 0
-6084 4796 0
6085 -4796 -4796 -6061 0
-6085 4796 0
-6085 4796 0
-6085 6061 0
-6086 4808 6082 6083 6084 6085 0
6086 -4808 0
6086 -6082 0
6086 -6083 0
6086 -6084 0
6086 -6085 0
6087 -2253 -2253 0
-6087 2253 0
-6087 2253 0
-6088 2260 6087 0
6088 -2260 0
6088 -6087 0
6089 -2253 -2265 0
-6089 2253 0
-6089 2265 0
-954 2267 6089 0
954 -2267 0
954 -6089 0
6090 -2253 -2271 0
-6090 2253 0
-6090 2271 0
-952 2274 6090 0
952 -2274 0
952 -6090 0
6091 -2276 -2271 0
-6091 2276 0
-6091 2271 0
-955 2281 6091 0
955 -2281 0
955 -6091 0
6092 -2265 -2276 0
-6092 2265 0
-6092 2276 0
-953 2286 6092 0
953 -2286 0
953 -6092 0
6093 -2265 -2265 0
-6093 2265 0
-6093 2265 0
-6094 2292 6093 0
6094 -2292 0
6094 -6093 0
6095 -1346 -1346 0
-6095 1346 0
-6095 1346 0
-6096 1353 6095 0
6096 -1353 0
6096 -6095 0
6097 -1346 -1358 0
-6097 1346 0
-6097 1358 0
-999 1360 6097 0
999 -1360 0
999 -6097 0
6098 -1346 -1364 0
-6098 1346 0
-6098 1364 0
-997 1367 6098 0
997 -1367 0
997 -6098 0
6099 -1369 -1364 0
-6099 1369 0
-6099 1364 0
-1000 1374 6099 0
1000 -1374 0
1000 -6099 0
6100 -1358 -1369 0
-6100 1358 0
-6100 1369 0
-998 1379 6100 0
998 -1379 0
998 -6100 0
6101 -1358 -1358 0
-6101 1358 0
-6101 1358 0
-6102 1385 6101 0
6102 -1385 0
6102 -6101 0
6103 -1264 -1264 0
-6103 1264 0
-6103 1264 0
-6104 1271 6103 0
6104 -1271 0
6104 -6103 0
6105 -1264 -1276 0
-6105 1264 0
-6105 1276 0
-664 1278 6105 0
664 -1278 0
664 -6105 0
6106 -1264 -1282 0
-6106 1264 0
-6106 1282 0
-662 1285 6106 0
662 -1285 0
662 -6106 0
6107 -1287 -1282 0
-6107 1287 0
-6107 1282 0
-665 1292 6107 0
665 -1292 0
665 -6107 0
6108 -1276 -1287 0
-6108 1276 0
-6108 1287 0
-663 1297 6108 0
663 -1297 0
663 -6108 0
6109 -1276 -1276 0
-6109 1276 0
-6109 1276 0
-6110 1303 6109 0
6110 -1303 0
6110 -6109 0
6111 -2886 -2886 0
-6111 2886 0
-6111 2886 0
-6112 2866 6111 0
6112 -2866 0
6112 -6111 0
6113 -2886 -2894 0
-6113 2886 0
-6113 2894 0
-454 2870 6113 0
454 -2870 0
454 -6113 0
6114 -2886 -2889 0
-6114 2886 0
-6114 2889 0
-452 2877 6114 0
452 -2877 0
452 -6114 0
6115 -2884 -2889 0
-6115 2884 0
-6115 2889 0
-455 2879 6115 0
455 -2879 0
455 -6115 0
6116 -2894 -2884 0
-6116 2894 0
-6116 2884 0
-453 2873 6116 0
453 -2873 0
453 -6116 0
6117 -2894 -2894 0
-6117 2894 0
-6117 2894 0
-6118 2900 6117 0
6118 -2900 0
6118 -6117 0
6119 -5964 -5946 0
-6119 5964 0
-6119 5946 0
5947 -5946 -5946 0
-5947 5946 0
-5947 5946 0
6120 -5946 -5964 0
-6120 5946 0
-6120 5964 0
6121 -5964 -5964 -1674 0
-6121 5964 0
-6121 5964 0
-6121 1674 0
-6122 5950 6119 5947 6120 6121 0
6122 -5950 0
6122 -6119 0
6122 -5947 0
6122 -6120 0
6122 -6121 0
6123 -5964 -1677 0
-6123 5964 0
-6123 1677 0
6124 -5946 -1677 0
-6124 5946 0
-6124 1677 0
6125 -5946 -1685 0
-6125 5946 0
-6125 1685 0
6126 -5964 -1685 -1674 0
-6126 5964 0
-6126 1685 0
-6126 1674 0
-174 5953 6123 6124 6125 6126 0
174 -5953 0
174 -6123 0
174 -6124 0
174 -6125 0
174 -6126 0
6127 -5964 -1680 0
-6127 5964 0
-6127 1680 0
6128 -5946 -1683 0
-6128 5946 0
-6128 1683 0
6129 -5946 -1680 0
-6129 5946 0
-6129 1680 0
6130 -5964 -1683 -1674 0
-6130 5964 0
-6130 1683 0
-6130 1674 0
-172 5958 6127 6128 6129 6130 0
172 -5958 0
172 -6127 0
172 -6128 0
172 -6129 0
172 -6130 0
6131 -1682 -1680 0
-6131 1682 0
-6131 1680 0
6132 -1672 -1680 0
-6132 1672 0
-6132 1680 0
6133 -1672 -1683 0
-6133 1672 0
-6133 1683 0
6134 -1682 -1683 -1674 0
-6134 1682 0
-6134 1683 0
-6134 1674 0
-175 1679 6131 6132 6133 6134 0
175 -1679 0
175 -6131 0
175 -6132 0
175 -6133 0
175 -6134 0
6135 -1685 -1672 0
-6135 1685 0
-6135 1672 0
6136 -1677 -1682 0
-6136 1677 0
-6136 1682 0
6137 -1677 -1672 0
-6137 1677 0
-6137 1672 0
6138 -1685 -1682 -1674 0
-6138 1685 0
-6138 1682 0
-6138 1674 0
-173 1676 6135 6136 6137 6138 0
173 -1676 0
173 -6135 0
173 -6136 0
173 -6137 0
173 -6138 0
6139 -1685 -1677 0
-6139 1685 0
-6139 1677 0
6140 -1677 -1677 0
-6140 1677 0
-6140 1677 0
6141 -1677 -1685 0
-6141 1677 0
-6141 1685 0
6142 -1685 -1685 -1674 0
-6142 1685 0
-6142 1685 0
-6142 1674 0
-6143 1688 6139 6140 6141 6142 0
6143 -1688 0
6143 -6139 0
6143 -6140 0
6143 -6141 0
6143 -6142 0
6144 -6145 -6145 0
-6144 6145 0
-6144 6145 0
-6146 6147 6144 0
6146 -6147 0
6146 -6144 0
6148 -6145 -6149 0
-6148 6145 0
-6148 6149 0
-739 6150 6148 0
739 -6150 0
739 -6148 0
6151 -6145 -6152 0
-6151 6145 0
-6151 6152 0
-737 6153 6151 0
737 -6153 0
737 -6151 0
6154 -6155 -6152 0
-6154 6155 0
-6154 6152 0
-740 6156 6154 0
740 -6156 0
740 -6154 0
6157 -6149 -6155 0
-6157 6149 0
-6157 6155 0
-738 6158 6157 0
738 -6158 0
738 -6157 0
6159 -6149 -6149 0
-6159 6149 0
-6159 6149 0
-6160 6161 6159 0
6160 -6161 0
6160 -6159 0
6162 -4405 -6163 0
-6162 4405 0
-6162 6163 0
6164 -6163 -6163 0
-6164 6163 0
-6164 6163 0
6165 -6163 -4405 0
-6165 6163 0
-6165 4405 0
6166 -4405 -4405 -6167 0
-6166 4405 0
-6166 4405 0
-6166 6167 0
-6168 4407 6162 6164 6165 6166 0
6168 -4407 0
6168 -6162 0
6168 -6164 0
6168 -6165 0
6168 -6166 0
6169 -4405 -6170 0
-6169 4405 0
-6169 6170 0
6171 -6163 -6170 0
-6171 6163 0
-6171 6170 0
6172 -6163 -4409 0
-6172 6163 0
-6172 4409 0
6173 -4405 -4409 -6167 0
-6173 4405 0
-6173 4409 0
-6173 6167 0
-74 4410 6169 6171 6172 6173 0
74 -4410 0
74 -6169 0
74 -6171 0
74 -6172 0
74 -6173 0
6174 -4405 -6175 0
-6174 4405 0
-6174 6175 0
6176 -6163 -4412 0
-6176 6163 0
-6176 4412 0
6177 -6163 -6175 0
-6177 6163 0
-6177 6175 0
6178 -4405 -4412 -6167 0
-6178 4405 0
-6178 4412 0
-6178 6167 0
-72 4413 6174 6176 6177 6178 0
72 -4413 0
72 -6174 0
72 -6176 0
72 -6177 0
72 -6178 0
6179 -4415 -6175 0
-6179 4415 0
-6179 6175 0
6180 -6181 -6175 0
-6180 6181 0
-6180 6175 0
6182 -6181 -4412 0
-6182 6181 0
-6182 4412 0
6183 -4415 -4412 -6167 0
-6183 4415 0
-6183 4412 0
-6183 6167 0
-75 4416 6179 6180 6182 6183 0
75 -4416 0
75 -6179 0
75 -6180 0
75 -6182 0
75 -6183 0
6184 -4409 -6181 0
-6184 4409 0
-6184 6181 0
6185 -6170 -4415 0
-6185 6170 0
-6185 4415 0
6186 -6170 -6181 0
-6186 6170 0
-6186 6181 0
6187 -4409 -4415 -6167 0
-6187 4409 0
-6187 4415 0
-6187 6167 0
-73 4418 6184 6185 6186 6187 0
73 -4418 0
73 -6184 0
73 -6185 0
73 -6186 0
73 -6187 0
6188 -4409 -6170 0
-6188 4409 0
-6188 6170 0
6189 -6170 -6170 0
-6189 6170 0
-6189 6170 0
6190 -6170 -4409 0
-6190 6170 0
-6190 4409 0
6191 -4409 -4409 -6167 0
-6191 4409 0
-6191 4409 0
-6191 6167 0
-6192 4421 6188 6189 6190 6191 0
6192 -4421 0
6192 -6188 0
6192 -6189 0
6192 -6190 0
6192 -6191 0
6193 -5964 -5964 0
-6193 5964 0
-6193 5964 0
-6194 5950 6193 0
6194 -5950 0
6194 -6193 0
6195 -5964 -1685 0
-6195 5964 0
-6195 1685 0
-514 5953 6195 0
514 -5953 0
514 -6195 0
6196 -5964 -1683 0
-6196 5964 0
-6196 1683 0
-512 5958 6196 0
512 -5958 0
512 -6196 0
6197 -1682 -1683 0
-6197 1682 0
-6197 1683 0
-515 1679 6197 0
515 -1679 0
515 -6197 0
6198 -1685 -1682 0
-6198 1685 0
-6198 1682 0
-513 1676 6198 0
513 -1676 0
513 -6198 0
6199 -1685 -1685 0
-6199 1685 0
-6199 1685 0
-6200 1688 6199 0
6200 -1688 0
6200 -6199 0
6201 -2055 -2055 0
-6201 2055 0
-6201 2055 0
-6202 2044 6201 0
6202 -2044 0
6202 -6201 0
6203 -2055 -2060 0
-6203 2055 0
-6203 2060 0
-834 2040 6203 0
834 -2040 0
834 -6203 0
6204 -2055 -2067 0
-6204 2055 0
-6204 2067 0
-832 2064 6204 0
832 -2064 0
832 -6204 0
6205 -2057 -2067 0
-6205 2057 0
-6205 2067 0
-835 2062 6205 0
835 -2062 0
835 -6205 0
6206 -2060 -2057 0
-6206 2060 0
-6206 2057 0
-833 2039 6206 0
833 -2039 0
833 -6206 0
6207 -2060 -2060 0
-6207 2060 0
-6207 2060 0
-6208 2046 6207 0
6208 -2046 0
6208 -6207 0
6209 -5165 -6210 0
-6209 5165 0
-6209 6210 0
6211 -6210 -6210 0
-6211 6210 0
-6211 6210 0
6212 -6210 -5165 0
-6212 6210 0
-6212 5165 0
6213 -5165 -5165 -6214 0
-6213 5165 0
-6213 5165 0
-6213 6214 0
-6215 5167 6209 6211 6212 6213 0
6215 -5167 0
6215 -6209 0
6215 -6211 0
6215 -6212 0
6215 -6213 0
6216 -5165 -6217 0
-6216 5165 0
-6216 6217 0
6218 -6210 -6217 0
-6218 6210 0
-6218 6217 0
6219 -6210 -5169 0
-6219 6210 0
-6219 5169 0
6220 -5165 -5169 -6214 0
-6220 5165 0
-6220 5169 0
-6220 6214 0
-269 5170 6216 6218 6219 6220 0
269 -5170 0
269 -6216 0
269 -6218 0
269 -6219 0
269 -6220 0
6221 -5165 -6222 0
-6221 5165 0
-6221 6222 0
6223 -6210 -5172 0
-6223 6210 0
-6223 5172 0
6224 -6210 -6222 0
-6224 6210 0
-6224 6222 0
6225 -5165 -5172 -6214 0
-6225 5165 0
-6225 5172 0
-6225 6214 0
-267 5173 6221 6223 6224 6225 0
267 -5173 0
267 -6221 0
267 -6223 0
267 -6224 0
267 -6225 0
6226 -5175 -6222 0
-6226 5175 0
-6226 6222 0
6227 -6228 -6222 0
-6227 6228 0
-6227 6222 0
6229 -6228 -5172 0
-6229 6228 0
-6229 5172 0
6230 -5175 -5172 -6214 0
-6230 5175 0
-6230 5172 0
-6230 6214 0
-270 5176 6226 6227 6229 6230 0
270 -5176 0
270 -6226 0
270 -6227 0
270 -6229 0
270 -6230 0
6231 -5169 -6228 0
-6231 5169 0
-6231 6228 0
6232 -6217 -5175 0
-6232 6217 0
-6232 5175 0
6233 -6217 -6228 0
-6233 6217 0
-6233 6228 0
6234 -5169 -5175 -6214 0
-6234 5169 0
-6234 5175 0
-6234 6214 0
-268 5178 6231 6232 6233 6234 0
268 -5178 0
268 -6231 0
268 -6232 0
268 -6233 0
268 -6234 0
6235 -5169 -6217 0
-6235 5169 0
-6235 6217 0
6236 -6217 -6217 0
-6236 6217 0
-6236 6217 0
6237 -6217 -5169 0
-6237 6217 0
-6237 5169 0
6238 -5169 -5169 -6214 0
-6238 5169 0
-6238 5169 0
-6238 6214 0
-6239 5181 6235 6236 6237 6238 0
6239 -5181 0
6239 -6235 0
6239 -6236 0
6239 -6237 0
6239 -6238 0
6240 -1872 -1872 0
-6240 1872 0
-6240 1872 0
-6241 1879 6240 0
6241 -1879 0
6241 -6240 0
6242 -1872 -1884 0
-6242 1872 0
-6242 1884 0
-849 1886 6242 0
849 -1886 0
849 -6242 0
6243 -1872 -1890 0
-6243 1872 0
-6243 1890 0
-847 1893 6243 0
847 -1893 0
847 -6243 0
6244 -1895 -1890 0
-6244 1895 0
-6244 1890 0
-850 1900 6244 0
850 -1900 0
850 -6244 0
6245 -1884 -1895 0
-6245 1884 0
-6245 1895 0
-848 1905 6245 0
848 -1905 0
848 -6245 0
6246 -1884 -1884 0
-6246 1884 0
-6246 1884 0
-6247 1911 6246 0
6247 -1911 0
6247 -6246 0
6248 -4160 -4160 0
-6248 4160 0
-6248 4160 0
-6249 4167 6248 0
6249 -4167 0
6249 -6248 0
6250 -4160 -4172 0
-6250 4160 0
-6250 4172 0
-799 4174 6250 0
799 -4174 0
799 -6250 0
6251 -4160 -4178 0
-6251 4160 0
-6251 4178 0
-797 4181 6251 0
797 -4181 0
797 -6251 0
6252 -4183 -4178 0
-6252 4183 0
-6252 4178 0
-800 4188 6252 0
800 -4188 0
800 -6252 0
6253 -4172 -4183 0
-6253 4172 0
-6253 4183 0
-798 4193 6253 0
798 -4193 0
798 -6253 0
6254 -4172 -4172 0
-6254 4172 0
-6254 4172 0
-6255 4199 6254 0
6255 -4199 0
6255 -6254 0
6256 -2802 -6257 0
-6256 2802 0
-6256 6257 0
6258 -6257 -6257 0
-6258 6257 0
-6258 6257 0
6259 -6257 -2802 0
-6259 6257 0
-6259 2802 0
6260 -2802 -2802 -6261 0
-6260 2802 0
-6260 2802 0
-6260 6261 0
-6262 2804 6256 6258 6259 6260 0
6262 -2804 0
6262 -6256 0
6262 -6258 0
6262 -6259 0
6262 -6260 0
6263 -2802 -6264 0
-6263 2802 0
-6263 6264 0
6265 -6257 -6264 0
-6265 6257 0
-6265 6264 0
6266 -6257 -2806 0
-6266 6257 0
-6266 2806 0
6267 -2802 -2806 -6261 0
-6267 2802 0
-6267 2806 0
-6267 6261 0
-354 2807 6263 6265 6266 6267 0
354 -2807 0
354 -6263 0
354 -6265 0
354 -6266 0
354 -6267 0
6268 -2802 -6269 0
-6268 2802 0
-6268 6269 0
6270 -6257 -2809 0
-6270 6257 0
-6270 2809 0
6271 -6257 -6269 0
-6271 6257 0
-6271 6269 0
6272 -2802 -2809 -6261 0
-6272 2802 0
-6272 2809 0
-6272 6261 0
-352 2810 6268 6270 6271 6272 0
352 -2810 0
352 -6268 0
352 -6270 0
352 -6271 0
352 -6272 0
6273 -2812 -6269 0
-6273 2812 0
-6273 6269 0
6274 -6275 -6269 0
-6274 6275 0
-6274 6269 0
6276 -6275 -2809 0
-6276 6275 0
-6276 2809 0
6277 -2812 -2809 -6261 0
-6277 2812 0
-6277 2809 0
-6277 6261 0
-355 2813 6273 6274 6276 6277 0
355 -2813 0
355 -6273 0
355 -6274 0
355 -6276 0
355 -6277 0
6278 -2806 -6275 0
-6278 2806 0
-6278 6275 0
6279 -6264 -2812 0
-6279 6264 0
-6279 2812 0
6280 -6264 -6275 0
-6280 6264 0
-6280 6275 0
6281 -2806 -2812 -6261 0
-6281 2806 0
-6281 2812 0
-6281 6261 0
-353 2815 6278 6279 6280 6281 0
353 -2815 0
353 -6278 0
353 -6279 0
353 -6280 0
353 -6281 0
6282 -2806 -6264 0
-6282 2806 0
-6282 6264 0
6283 -6264 -6264 0
-6283 6264 0
-6283 6264 0
6284 -6264 -2806 0
-6284 6264 0
-6284 2806 0
6285 -2806 -2806 -6261 0
-6285 2806 0
-6285 2806 0
-6285 6261 0
-6286 2818 6282 6283 6284 6285 0
6286 -2818 0
6286 -6282 0
6286 -6283 0
6286 -6284 0
6286 -6285 0
6287 -5639 -5639 0
-6287 5639 0
-6287 5639 0
-6288 5646 6287 0
6288 -5646 0
6288 -6287 0
6289 -5639 -5651 0
-6289 5639 0
-6289 5651 0
-714 5653 6289 0
714 -5653 0
714 -6289 0
6290 -5639 -5657 0
-6290 5639 0
-6290 5657 0
-712 5660 6290 0
712 -5660 0
712 -6290 0
6291 -5662 -5657 0
-6291 5662 0
-6291 5657 0
-715 5667 6291 0
715 -5667 0
715 -6291 0
6292 -5651 -5662 0
-6292 5651 0
-6292 5662 0
-713 5672 6292 0
713 -5672 0
713 -6292 0
6293 -5651 -5651 0
-6293 5651 0
-6293 5651 0
-6294 5678 6293 0
6294 -5678 0
6294 -6293 0
6295 -6145 -6296 0
-6295 6145 0
-6295 6296 0
6297 -6296 -6296 0
-6297 6296 0
-6297 6296 0
6298 -6296 -6145 0
-6298 6296 0
-6298 6145 0
6299 -6145 -6145 -6300 0
-6299 6145 0
-6299 6145 0
-6299 6300 0
-6301 6147 6295 6297 6298 6299 0
6301 -6147 0
6301 -6295 0
6301 -6297 0
6301 -6298 0
6301 -6299 0
6302 -6145 -6303 0
-6302 6145 0
-6302 6303 0
6304 -6296 -6303 0
-6304 6296 0
-6304 6303 0
6305 -6296 -6149 0
-6305 6296 0
-6305 6149 0
6306 -6145 -6149 -6300 0
-6306 6145 0
-6306 6149 0
-6306 6300 0
-324 6150 6302 6304 6305 6306 0
324 -6150 0
324 -6302 0
324 -6304 0
324 -6305 0
324 -6306 0
6307 -6145 -6308 0
-6307 6145 0
-6307 6308 0
6309 -6296 -6152 0
-6309 6296 0
-6309 6152 0
6310 -6296 -6308 0
-6310 6296 0
-6310 6308 0
6311 -6145 -6152 -6300 0
-6311 6145 0
-6311 6152 0
-6311 6300 0
-322 6153 6307 6309 6310 6311 0
322 -6153 0
322 -6307 0
322 -6309 0
322 -6310 0
322 -6311 0
6312 -6155 -6308 0
-6312 6155 0
-6312 6308 0
6313 -6314 -6308 0
-6313 6314 0
-6313 6308 0
6315 -6314 -6152 0
-6315 6314 0
-6315 6152 0
6316 -6155 -6152 -6300 0
-6316 6155 0
-6316 6152 0
-6316 6300 0
-325 6156 6312 6313 6315 6316 0
325 -6156 0
325 -6312 0
325 -6313 0
325 -6315 0
325 -6316 0
6317 -6149 -6314 0
-6317 6149 0
-6317 6314 0
6318 -6303 -6155 0
-6318 6303 0
-6318 6155 0
6319 -6303 -6314 0
-6319 6303 0
-6319 6314 0
6320 -6149 -6155 -6300 0
-6320 6149 0
-6320 6155 0
-6320 6300 0
-323 6158 6317 6318 6319 6320 0
323 -6158 0
323 -6317 0
323 -6318 0
323 -6319 0
323 -6320 0
6321 -6149 -6303 0
-6321 6149 0
-6321 6303 0
6322 -6303 -6303 0
-6322 6303 0
-6322 6303 0
6323 -6303 -6149 0
-6323 6303 0
-6323 6149 0
6324 -6149 -6149 -6300 0
-6324 6149 0
-6324 6149 0
-6324 6300 0
-6325 6161 6321 6322 6323 6324 0
6325 -6161 0
6325 -6321 0
6325 -6322 0
6325 -6323 0
6325 -6324 0
6326 -2368 -2368 0
-6326 2368 0
-6326 2368 0
-6327 2374 6326 0
6327 -2374 0
6327 -6326 0
6328 -2368 -2360 0
-6328 2368 0
-6328 2360 0
-179 2344 6328 0
179 -2344 0
179 -6328 0
6329 -2368 -2358 0
-6329 2368 0
-6329 2358 0
-177 2347 6329 0
177 -2347 0
177 -6329 0
6330 -2363 -2358 0
-6330 2363 0
-6330 2358 0
-180 2353 6330 0
180 -2353 0
180 -6330 0
6331 -2360 -2363 0
-6331 2360 0
-6331 2363 0
-178 2351 6331 0
178 -2351 0
178 -6331 0
6332 -2360 -2360 0
-6332 2360 0
-6332 2360 0
-6333 2340 6332 0
6333 -2340 0
6333 -6332 0
6334 -5043 -6335 0
-6334 5043 0
-6334 6335 0
6336 -6335 -6335 0
-6336 6335 0
-6336 6335 0
6337 -6335 -5043 0
-6337 6335 0
-6337 5043 0
6338 -5043 -5043 -6339 0
-6338 5043 0
-6338 5043 0
-6338 6339 0
-6340 5045 6334 6336 6337 6338 0
6340 -5045 0
6340 -6334 0
6340 -6336 0
6340 -6337 0
6340 -6338 0
6341 -5043 -6342 0
-6341 5043 0
-6341 6342 0
6343 -6335 -6342 0
-6343 6335 0
-6343 6342 0
6344 -6335 -5047 0
-6344 6335 0
-6344 5047 0
6345 -5043 -5047 -6339 0
-6345 5043 0
-6345 5047 0
-6345 6339 0
-704 5048 6341 6343 6344 6345 0
704 -5048 0
704 -6341 0
704 -6343 0
704 -6344 0
704 -6345 0
6346 -5043 -6347 0
-6346 5043 0
-6346 6347 0
6348 -6335 -5050 0
-6348 6335 0
-6348 5050 0
6349 -6335 -6347 0
-6349 6335 0
-6349 6347 0
6350 -5043 -5050 -6339 0
-6350 5043 0
-6350 5050 0
-6350 6339 0
-702 5051 6346 6348 6349 6350 0
702 -5051 0
702 -6346 0
702 -6348 0
702 -6349 0
702 -6350 0
6351 -5053 -6347 0
-6351 5053 0
-6351 6347 0
6352 -6353 -6347 0
-6352 6353 0
-6352 6347 0
6354 -6353 -5050 0
-6354 6353 0
-6354 5050 0
6355 -5053 -5050 -6339 0
-6355 5053 0
-6355 5050 0
-6355 6339 0
-705 5054 6351 6352 6354 6355 0
705 -5054 0
705 -6351 0
705 -6352 0
705 -6354 0
705 -6355 0
6356 -5047 -6353 0
-6356 5047 0
-6356 6353 0
6357 -6342 -5053 0
-6357 6342 0
-6357 5053 0
6358 -6342 -6353 0
-6358 6342 0
-6358 6353 0
6359 -5047 -5053 -6339 0
-6359 5047 0
-6359 5053 0
-6359 6339 0
-703 5056 6356 6357 6358 6359 0
703 -5056 0
703 -6356 0
703 -6357 0
703 -6358 0
703 -6359 0
6360 -5047 -6342 0
-6360 5047 0
-6360 6342 0
6361 -6342 -6342 0
-6361 6342 0
-6361 6342 0
6362 -6342 -5047 0
-6362 6342 0
-6362 5047 0
6363 -5047 -5047 -6339 0
-6363 5047 0
-6363 5047 0
-6363 6339 0
-6364 5059 6360 6361 6362 6363 0
6364 -5059 0
6364 -6360 0
6364 -6361 0
6364 -6362 0
6364 -6363 0
6365 -1715 -1691 0
-6365 1715 0
-6365 1691 0
1692 -1691 -1691 0
-1692 1691 0
-1692 1691 0
6366 -1691 -1715 0
-6366 1691 0
-6366 1715 0
6367 -1715 -1715 -1697 0
-6367 1715 0
-6367 1715 0
-6367 1697 0
-6368 1695 6365 1692 6366 6367 0
6368 -1695 0
6368 -6365 0
6368 -1692 0
6368 -6366 0
6368 -6367 0
6369 -1715 -1704 0
-6369 1715 0
-6369 1704 0
6370 -1691 -1704 0
-6370 1691 0
-6370 1704 0
6371 -1691 -1723 0
-6371 1691 0
-6371 1723 0
6372 -1715 -1723 -1697 0
-6372 1715 0
-6372 1723 0
-6372 1697 0
-204 1699 6369 6370 6371 6372 0
204 -1699 0
204 -6369 0
204 -6370 0
204 -6371 0
204 -6372 0
6373 -1715 -1711 0
-6373 1715 0
-6373 1711 0
6374 -1691 -1718 0
-6374 1691 0
-6374 1718 0
6375 -1691 -1711 0
-6375 1691 0
-6375 1711 0
6376 -1715 -1718 -1697 0
-6376 1715 0
-6376 1718 0
-6376 1697 0
-202 1706 6373 6374 6375 6376 0
202 -1706 0
202 -6373 0
202 -6374 0
202 -6375 0
202 -6376 0
6377 -1713 -1711 0
-6377 1713 0
-6377 1711 0
6378 -1690 -1711 0
-6378 1690 0
-6378 1711 0
6379 -1690 -1718 0
-6379 1690 0
-6379 1718 0
6380 -1713 -1718 -1697 0
-6380 1713 0
-6380 1718 0
-6380 1697 0
-205 1708 6377 6378 6379 6380 0
205 -1708 0
205 -6377 0
205 -6378 0
205 -6379 0
205 -6380 0
6381 -1723 -1690 0
-6381 1723 0
-6381 1690 0
6382 -1704 -1713 0
-6382 1704 0
-6382 1713 0
6383 -1704 -1690 0
-6383 1704 0
-6383 1690 0
6384 -1723 -1713 -1697 0
-6384 1723 0
-6384 1713 0
-6384 1697 0
-203 1702 6381 6382 6383 6384 0
203 -1702 0
203 -6381 0
203 -6382 0
203 -6383 0
203 -6384 0
6385 -1723 -1704 0
-6385 1723 0
-6385 1704 0
6386 -1704 -1704 0
-6386 1704 0
-6386 1704 0
6387 -1704 -1723 0
-6387 1704 0
-6387 1723 0
6388 -1723 -1723 -1697 0
-6388 1723 0
-6388 1723 0
-6388 1697 0
-6389 1729 6385 6386 6387 6388 0
6389 -1729 0
6389 -6385 0
6389 -6386 0
6389 -6387 0
6389 -6388 0
6390 -2728 -2728 0
-6390 2728 0
-6390 2728 0
-6391 2735 6390 0
6391 -2735 0
6391 -6390 0
6392 -2728 -2740 0
-6392 2728 0
-6392 2740 0
-909 2742 6392 0
909 -2742 0
909 -6392 0
6393 -2728 -2746 0
-6393 2728 0
-6393 2746 0
-907 2749 6393 0
907 -2749 0
907 -6393 0
6394 -2751 -2746 0
-6394 2751 0
-6394 2746 0
-910 2756 6394 0
910 -2756 0
910 -6394 0
6395 -2740 -2751 0
-6395 2740 0
-6395 2751 0
-908 2761 6395 0
908 -2761 0
908 -6395 0
6396 -2740 -2740 0
-6396 2740 0
-6396 2740 0
-6397 2767 6396 0
6397 -2767 0
6397 -6396 0
6398 -2753 -2729 0
-6398 2753 0
-6398 2729 0
2730 -2729 -2729 0
-2730 2729 0
-2730 2729 0
6399 -2729 -2753 0
-6399 2729 0
-6399 2753 0
6400 -2753 -2753 -2735 0
-6400 2753 0
-6400 2753 0
-6400 2735 0
-6401 2733 6398 2730 6399 6400 0
6401 -2733 0
6401 -6398 0
6401 -2730 0
6401 -6399 0
6401 -6400 0
6402 -2753 -2742 0
-6402 2753 0
-6402 2742 0
6403 -2729 -2742 0
-6403 2729 0
-6403 2742 0
6404 -2729 -2761 0
-6404 2729 0
-6404 2761 0
6405 -2753 -2761 -2735 0
-6405 2753 0
-6405 2761 0
-6405 2735 0
-629 2737 6402 6403 6404 6405 0
629 -2737 0
629 -6402 0
629 -6403 0
629 -6404 0
629 -6405 0
6406 -2753 -2749 0
-6406 2753 0
-6406 2749 0
6407 -2729 -2756 0
-6407 2729 0
-6407 2756 0
6408 -2729 -2749 0
-6408 2729 0
-6408 2749 0
6409 -2753 -2756 -2735 0
-6409 2753 0
-6409 2756 0
-6409 2735 0
-627 2744 6406 6407 6408 6409 0
627 -2744 0
627 -6406 0
627 -6407 0
627 -6408 0
627 -6409 0
6410 -2751 -2749 0
-6410 2751 0
-6410 2749 0
6411 -2728 -2749 0
-6411 2728 0
-6411 2749 0
6412 -2728 -2756 0
-6412 2728 0
-6412 2756 0
6413 -2751 -2756 -2735 0
-6413 2751 0
-6413 2756 0
-6413 2735 0
-630 2746 6410 6411 6412 6413 0
630 -2746 0
630 -6410 0
630 -6411 0
630 -6412 0
630 -6413 0
6414 -2761 -2728 0
-6414 2761 0
-6414 2728 0
6415 -2742 -2751 0
-6415 2742 0
-6415 2751 0
6416 -2742 -2728 0
-6416 2742 0
-6416 2728 0
6417 -2761 -2751 -2735 0
-6417 2761 0
-6417 2751 0
-6417 2735 0
-628 2740 6414 6415 6416 6417 0
628 -2740 0
628 -6414 0
628 -6415 0
628 -6416 0
628 -6417 0
6418 -2761 -2742 0
-6418 2761 0
-6418 2742 0
6419 -2742 -2742 0
-6419 2742 0
-6419 2742 0
6420 -2742 -2761 0
-6420 2742 0
-6420 2761 0
6421 -2761 -2761 -2735 0
-6421 2761 0
-6421 2761 0
-6421 2735 0
-6422 2767 6418 6419 6420 6421 0
6422 -2767 0
6422 -6418 0
6422 -6419 0
6422 -6420 0
6422 -6421 0
6423 -1554 -6424 0
-6423 1554 0
-6423 6424 0
6425 -6424 -6424 0
-6425 6424 0
-6425 6424 0
6426 -6424 -1554 0
-6426 6424 0
-6426 1554 0
6427 -1554 -1554 -6428 0
-6427 1554 0
-6427 1554 0
-6427 6428 0
-6429 1556 6423 6425 6426 6427 0
6429 -1556 0
6429 -6423 0
6429 -6425 0
6429 -6426 0
6429 -6427 0
6430 -1554 -6431 0
-6430 1554 0
-6430 6431 0
6432 -6424 -6431 0
-6432 6424 0
-6432 6431 0
6433 -6424 -1558 0
-6433 6424 0
-6433 1558 0
6434 -1554 -1558 -6428 0
-6434 1554 0
-6434 1558 0
-6434 6428 0
-809 1559 6430 6432 6433 6434 0
809 -1559 0
809 -6430 0
809 -6432 0
809 -6433 0
809 -6434 0
6435 -1554 -6436 0
-6435 1554 0
-6435 6436 0
6437 -6424 -1561 0
-6437 6424 0
-6437 1561 0
6438 -6424 -6436 0
-6438 6424 0
-6438 6436 0
6439 -1554 -1561 -6428 0
-6439 1554 0
-6439 1561 0
-6439 6428 0
-807 1562 6435 6437 6438 6439 0
807 -1562 0
807 -6435 0
807 -6437 0
807 -6438 0
807 -6439 0
6440 -1564 -6436 0
-6440 1564 0
-6440 6436 0
6441 -6442 -6436 0
-6441 6442 0
-6441 6436 0
6443 -6442 -1561 0
-6443 6442 0
-6443 1561 0
6444 -1564 -1561 -6428 0
-6444 1564 0
-6444 1561 0
-6444 6428 0
-810 1565 6440 6441 6443 6444 0
810 -1565 0
810 -6440 0
810 -6441 0
810 -6443 0
810 -6444 0
6445 -1558 -6442 0
-6445 1558 0
-6445 6442 0
6446 -6431 -1564 0
-6446 6431 0
-6446 1564 0
6447 -6431 -6442 0
-6447 6431 0
-6447 6442 0
6448 -1558 -1564 -6428 0
-6448 1558 0
-6448 1564 0
-6448 6428 0
-808 1567 6445 6446 6447 6448 0
808 -1567 0
808 -6445 0
808 -6446 0
808 -6447 0
808 -6448 0
6449 -1558 -6431 0
-6449 1558 0
-6449 6431 0
6450 -6431 -6431 0
-6450 6431 0
-6450 6431 0
6451 -6431 -1558 0
-6451 6431 0
-6451 1558 0
6452 -1558 -1558 -6428 0
-6452 1558 0
-6452 1558 0
-6452 6428 0
-6453 1570 6449 6450 6451 6452 0
6453 -1570 0
6453 -6449 0
6453 -6450 0
6453 -6451 0
6453 -6452 0
6454 -6455 -6455 0
-6454 6455 0
-6454 6455 0
-3104 6456 6454 0
3104 -6456 0
3104 -6454 0
6457 -6455 -6458 0
-6457 6455 0
-6457 6458 0
-3100 6459 6457 0
3100 -6459 0
3100 -6457 0
6460 -6455 -6461 0
-6460 6455 0
-6460 6461 0
-3124 6462 6460 0
3124 -6462 0
3124 -6460 0
6463 -6464 -6461 0
-6463 6464 0
-6463 6461 0
-3122 6465 6463 0
3122 -6465 0
3122 -6463 0
6466 -6455 -6467 0
-6466 6455 0
-6466 6467 0
-3108 6468 6466 0
3108 -6468 0
3108 -6466 0
6469 -6455 -6470 0
-6469 6455 0
-6469 6470 0
-3115 6471 6469 0
3115 -6471 0
3115 -6469 0
6472 -6464 -6470 0
-6472 6464 0
-6472 6470 0
-3117 6473 6472 0
3117 -6473 0
3117 -6472 0
6474 -6458 -6464 0
-6474 6458 0
-6474 6464 0
-3099 6475 6474 0
3099 -6475 0
3099 -6474 0
6476 -6458 -6458 0
-6476 6458 0
-6476 6458 0
-3106 6477 6476 0
3106 -6477 0
3106 -6476 0
6478 -6458 -6467 0
-6478 6458 0
-6478 6467 0
-3113 6479 6478 0
3113 -6479 0
3113 -6478 0
6480 -6458 -6470 0
-6480 6458 0
-6480 6470 0
-3120 6481 6480 0
3120 -6481 0
3120 -6480 0
6482 -6461 -6470 0
-6482 6461 0
-6482 6470 0
-3127 6483 6482 0
3127 -6483 0
3127 -6482 0
6484 -6467 -6464 0
-6484 6467 0
-6484 6464 0
-3111 6485 6484 0
3111 -6485 0
3111 -6484 0
6486 -6467 -6461 0
-6486 6467 0
-6486 6461 0
-3132 6487 6486 0
3132 -6487 0
3132 -6486 0
6488 -6467 -6467 0
-6488 6467 0
-6488 6467 0
-3138 6489 6488 0
3138 -6489 0
3138 -6488 0
6490 -6491 -6492 0
-6490 6491 0
-6490 6492 0
6493 -6492 -6492 0
-6493 6492 0
-6493 6492 0
6494 -6492 -6491 0
-6494 6492 0
-6494 6491 0
6495 -6491 -6491 -6496 0
-6495 6491 0
-6495 6491 0
-6495 6496 0
-6167 6497 6490 6493 6494 6495 0
6167 -6497 0
6167 -6490 0
6167 -6493 0
6167 -6494 0
6167 -6495 0
6498 -6491 -6499 0
-6498 6491 0
-6498 6499 0
6500 -6492 -6499 0
-6500 6492 0
-6500 6499 0
6501 -6492 -6502 0
-6501 6492 0
-6501 6502 0
6503 -6491 -6502 -6496 0
-6503 6491 0
-6503 6502 0
-6503 6496 0
-6163 6504 6498 6500 6501 6503 0
6163 -6504 0
6163 -6498 0
6163 -6500 0
6163 -6501 0
6163 -6503 0
6505 -6491 -6506 0
-6505 6491 0
-6505 6506 0
6507 -6492 -6508 0
-6507 6492 0
-6507 6508 0
6509 -6492 -6506 0
-6509 6492 0
-6509 6506 0
6510 -6491 -6508 -6496 0
-6510 6491 0
-6510 6508 0
-6510 6496 0
-6181 6511 6505 6507 6509 6510 0
6181 -6511 0
6181 -6505 0
6181 -6507 0
6181 -6509 0
6181 -6510 0
6512 -6513 -6506 0
-6512 6513 0
-6512 6506 0
6514 -6515 -6506 0
-6514 6515 0
-6514 6506 0
6516 -6515 -6508 0
-6516 6515 0
-6516 6508 0
6517 -6513 -6508 -6496 0
-6517 6513 0
-6517 6508 0
-6517 6496 0
-4415 6518 6512 6514 6516 6517 0
4415 -6518 0
4415 -6512 0
4415 -6514 0
4415 -6516 0
4415 -6517 0
6519 -6491 -6520 0
-6519 6491 0
-6519 6520 0
6521 -6492 -6520 0
-6521 6492 0
-6521 6520 0
6522 -6492 -6523 0
-6522 6492 0
-6522 6523 0
6524 -6491 -6523 -6496 0
-6524 6491 0
-6524 6523 0
-6524 6496 0
-6170 6525 6519 6521 6522 6524 0
6170 -6525 0
6170 -6519 0
6170 -6521 0
6170 -6522 0
6170 -6524 0
6526 -6491 -6527 0
-6526 6491 0
-6526 6527 0
6528 -6492 -6529 0
-6528 6492 0
-6528 6529 0
6530 -6492 -6527 0
-6530 6492 0
-6530 6527 0
6531 -6491 -6529 -6496 0
-6531 6491 0
-6531 6529 0
-6531 6496 0
-6175 6532 6526 6528 6530 6531 0
6175 -6532 0
6175 -6526 0
6175 -6528 0
6175 -6530 0
6175 -6531 0
6533 -6513 -6527 0
-6533 6513 0
-6533 6527 0
6534 -6515 -6527 0
-6534 6515 0
-6534 6527 0
6535 -6515 -6529 0
-6535 6515 0
-6535 6529 0
6536 -6513 -6529 -6496 0
-6536 6513 0
-6536 6529 0
-6536 6496 0
-4412 6537 6533 6534 6535 6536 0
4412 -6537 0
4412 -6533 0
4412 -6534 0
4412 -6535 0
4412 -6536 0
6538 -6502 -6515 0
-6538 6502 0
-6538 6515 0
6539 -6499 -6513 0
-6539 6499 0
-6539 6513 0
6540 -6499 -6515 0
-6540 6499 0
-6540 6515 0
6541 -6502 -6513 -6496 0
-6541 6502 0
-6541 6513 0
-6541 6496 0
-4405 6542 6538 6539 6540 6541 0
4405 -6542 0
4405 -6538 0
4405 -6539 0
4405 -6540 0
4405 -6541 0
6543 -6502 -6499 0
-6543 6502 0
-6543 6499 0
6544 -6499 -6499 0
-6544 6499 0
-6544 6499 0
6545 -6499 -6502 0
-6545 6499 0
-6545 6502 0
6546 -6502 -6502 -6496 0
-6546 6502 0
-6546 6502 0
-6546 6496 0
-4407 6547 6543 6544 6545 6546 0
4407 -6547 0
4407 -6543 0
4407 -6544 0
4407 -6545 0
4407 -6546 0
6548 -6502 -6520 0
-6548 6502 0
-6548 6520 0
6549 -6499 -6520 0
-6549 6499 0
-6549 6520 0
6550 -6499 -6523 0
-6550 6499 0
-6550 6523 0
6551 -6502 -6523 -6496 0
-6551 6502 0
-6551 6523 0
-6551 6496 0
-4410 6552 6548 6549 6550 6551 0
4410 -6552 0
4410 -6548 0
4410 -6549 0
4410 -6550 0
4410 -6551 0
6553 -6502 -6527 0
-6553 6502 0
-6553 6527 0
6554 -6499 -6529 0
-6554 6499 0
-6554 6529 0
6555 -6499 -6527 0
-6555 6499 0
-6555 6527 0
6556 -6502 -6529 -6496 0
-6556 6502 0
-6556 6529 0
-6556 6496 0
-4413 6557 6553 6554 6555 6556 0
4413 -6557 0
4413 -6553 0
4413 -6554 0
4413 -6555 0
4413 -6556 0
6558 -6508 -6527 0
-6558 6508 0
-6558 6527 0
6559 -6506 -6527 0
-6559 6506 0
-6559 6527 0
6560 -6506 -6529 0
-6560 6506 0
-6560 6529 0
6561 -6508 -6529 -6496 0
-6561 6508 0
-6561 6529 0
-6561 6496 0
-4416 6562 6558 6559 6560 6561 0
4416 -6562 0
4416 -6558 0
4416 -6559 0
4416 -6560 0
4416 -6561 0
6563 -6523 -6515 0
-6563 6523 0
-6563 6515 0
6564 -6520 -6513 0
-6564 6520 0
-6564 6513 0
6565 -6520 -6515 0
-6565 6520 0
-6565 6515 0
6566 -6523 -6513 -6496 0
-6566 6523 0
-6566 6513 0
-6566 6496 0
-4409 6567 6563 6564 6565 6566 0
4409 -6567 0
4409 -6563 0
4409 -6564 0
4409 -6565 0
4409 -6566 0
6568 -6523 -6506 0
-6568 6523 0
-6568 6506 0
6569 -6520 -6508 0
-6569 6520 0
-6569 6508 0
6570 -6520 -6506 0
-6570 6520 0
-6570 6506 0
6571 -6523 -6508 -6496 0
-6571 6523 0
-6571 6508 0
-6571 6496 0
-4418 6572 6568 6569 6570 6571 0
4418 -6572 0
4418 -6568 0
4418 -6569 0
4418 -6570 0
4418 -6571 0
6573 -6523 -6520 0
-6573 6523 0
-6573 6520 0
6574 -6520 -6520 0
-6574 6520 0
-6574 6520 0
6575 -6520 -6523 0
-6575 6520 0
-6575 6523 0
6576 -6523 -6523 -6496 0
-6576 6523 0
-6576 6523 0
-6576 6496 0
-4421 6577 6573 6574 6575 6576 0
4421 -6577 0
4421 -6573 0
4421 -6574 0
4421 -6575 0
4421 -6576 0
6578 -6462 -6459 0
-6578 6462 0
-6578 6459 0
6579 -6459 -6459 0
-6579 6459 0
-6579 6459 0
6580 -6459 -6462 0
-6580 6459 0
-6580 6462 0
6581 -6462 -6462 -6477 0
-6581 6462 0
-6581 6462 0
-6581 6477 0
-1595 6456 6578 6579 6580 6581 0
1595 -6456 0
1595 -6578 0
1595 -6579 0
1595 -6580 0
1595 -6581 0
6582 -6462 -6583 0
-6582 6462 0
-6582 6583 0
6584 -6459 -6583 0
-6584 6459 0
-6584 6583 0
6585 -6459 -6586 0
-6585 6459 0
-6585 6586 0
6587 -6462 -6586 -6477 0
-6587 6462 0
-6587 6586 0
-6587 6477 0
-1591 6588 6582 6584 6585 6587 0
1591 -6588 0
1591 -6582 0
1591 -6584 0
1591 -6585 0
1591 -6587 0
6589 -6462 -6458 0
-6589 6462 0
-6589 6458 0
6590 -6459 -6461 0
-6590 6459 0
-6590 6461 0
6591 -6459 -6458 0
-6591 6459 0
-6591 6458 0
6592 -6462 -6461 -6477 0
-6592 6462 0
-6592 6461 0
-6592 6477 0
-1615 6455 6589 6590 6591 6592 0
1615 -6455 0
1615 -6589 0
1615 -6590 0
1615 -6591 0
1615 -6592 0
6593 -6465 -6458 0
-6593 6465 0
-6593 6458 0
6594 -6475 -6458 0
-6594 6475 0
-6594 6458 0
6595 -6475 -6461 0
-6595 6475 0
-6595 6461 0
6596 -6465 -6461 -6477 0
-6596 6465 0
-6596 6461 0
-6596 6477 0
-1613 6464 6593 6594 6595 6596 0
1613 -6464 0
1613 -6593 0
1613 -6594 0
1613 -6595 0
1613 -6596 0
6597 -6462 -6479 0
-6597 6462 0
-6597 6479 0
6598 -6459 -6479 0
-6598 6459 0
-6598 6479 0
6599 -6459 -6487 0
-6599 6459 0
-6599 6487 0
6600 -6462 -6487 -6477 0
-6600 6462 0
-6600 6487 0
-6600 6477 0
-1599 6468 6597 6598 6599 6600 0
1599 -6468 0
1599 -6597 0
1599 -6598 0
1599 -6599 0
1599 -6600 0
6601 -6462 -6481 0
-6601 6462 0
-6601 6481 0
6602 -6459 -6483 0
-6602 6459 0
-6602 6483 0
6603 -6459 -6481 0
-6603 6459 0
-6603 6481 0
6604 -6462 -6483 -6477 0
-6604 6462 0
-6604 6483 0
-6604 6477 0
-1606 6471 6601 6602 6603 6604 0
1606 -6471 0
1606 -6601 0
1606 -6602 0
1606 -6603 0
1606 -6604 0
6605 -6465 -6481 0
-6605 6465 0
-6605 6481 0
6606 -6475 -6481 0
-6606 6475 0
-6606 6481 0
6607 -6475 -6483 0
-6607 6475 0
-6607 6483 0
6608 -6465 -6483 -6477 0
-6608 6465 0
-6608 6483 0
-6608 6477 0
-1608 6473 6605 6606 6607 6608 0
1608 -6473 0
1608 -6605 0
1608 -6606 0
1608 -6607 0
1608 -6608 0
6609 -6586 -6475 0
-6609 6586 0
-6609 6475 0
6610 -6583 -6465 0
-6610 6583 0
-6610 6465 0
6611 -6583 -6475 0
-6611 6583 0
-6611 6475 0
6612 -6586 -6465 -6477 0
-6612 6586 0
-6612 6465 0
-6612 6477 0
-1590 6613 6609 6610 6611 6612 0
1590 -6613 0
1590 -6609 0
1590 -6610 0
1590 -6611 0
1590 -6612 0
6614 -6586 -6583 0
-6614 6586 0
-6614 6583 0
6615 -6583 -6583 0
-6615 6583 0
-6615 6583 0
6616 -6583 -6586 0
-6616 6583 0
-6616 6586 0
6617 -6586 -6586 -6477 0
-6617 6586 0
-6617 6586 0
-6617 6477 0
-1597 6618 6614 6615 6616 6617 0
1597 -6618 0
1597 -6614 0
1597 -6615 0
1597 -6616 0
1597 -6617 0
6619 -6586 -6479 0
-6619 6586 0
-6619 6479 0
6620 -6583 -6479 0
-6620 6583 0
-6620 6479 0
6621 -6583 -6487 0
-6621 6583 0
-6621 6487 0
6622 -6586 -6487 -6477 0
-6622 6586 0
-6622 6487 0
-6622 6477 0
-1604 6623 6619 6620 6621 6622 0
1604 -6623 0
1604 -6619 0
1604 -6620 0
1604 -6621 0
1604 -6622 0
6624 -6586 -6481 0
-6624 6586 0
-6624 6481 0
6625 -6583 -6483 0
-6625 6583 0
-6625 6483 0
6626 -6583 -6481 0
-6626 6583 0
-6626 6481 0
6627 -6586 -6483 -6477 0
-6627 6586 0
-6627 6483 0
-6627 6477 0
-1611 6628 6624 6625 6626 6627 0
1611 -6628 0
1611 -6624 0
1611 -6625 0
1611 -6626 0
1611 -6627 0
6629 -6461 -6481 0
-6629 6461 0
-6629 6481 0
6630 -6458 -6481 0
-6630 6458 0
-6630 6481 0
6631 -6458 -6483 0
-6631 6458 0
-6631 6483 0
6632 -6461 -6483 -6477 0
-6632 6461 0
-6632 6483 0
-6632 6477 0
-1618 6470 6629 6630 6631 6632 0
1618 -6470 0
1618 -6629 0
1618 -6630 0
1618 -6631 0
1618 -6632 0
6633 -6487 -6475 0
-6633 6487 0
-6633 6475 0
6634 -6479 -6465 0
-6634 6479 0
-6634 6465 0
6635 -6479 -6475 0
-6635 6479 0
-6635 6475 0
6636 -6487 -6465 -6477 0
-6636 6487 0
-6636 6465 0
-6636 6477 0
-1602 6485 6633 6634 6635 6636 0
1602 -6485 0
1602 -6633 0
1602 -6634 0
1602 -6635 0
1602 -6636 0
6637 -6487 -6458 0
-6637 6487 0
-6637 6458 0
6638 -6479 -6461 0
-6638 6479 0
-6638 6461 0
6639 -6479 -6458 0
-6639 6479 0
-6639 6458 0
6640 -6487 -6461 -6477 0
-6640 6487 0
-6640 6461 0
-6640 6477 0
-1623 6467 6637 6638 6639 6640 0
1623 -6467 0
1623 -6637 0
1623 -6638 0
1623 -6639 0
1623 -6640 0
6641 -6487 -6479 0
-6641 6487 0
-6641 6479 0
6642 -6479 -6479 0
-6642 6479 0
-6642 6479 0
6643 -6479 -6487 0
-6643 6479 0
-6643 6487 0
6644 -6487 -6487 -6477 0
-6644 6487 0
-6644 6487 0
-6644 6477 0
-1629 6489 6641 6642 6643 6644 0
1629 -6489 0
1629 -6641 0
1629 -6642 0
1629 -6643 0
1629 -6644 0
6645 -6646 -6647 0
-6645 6646 0
-6645 6647 0
6648 -6647 -6647 0
-6648 6647 0
-6648 6647 0
6649 -6647 -6646 0
-6649 6647 0
-6649 6646 0
6650 -6646 -6646 -6651 0
-6650 6646 0
-6650 6646 0
-6650 6651 0
-5911 6652 6645 6648 6649 6650 0
5911 -6652 0
5911 -6645 0
5911 -6648 0
5911 -6649 0
5911 -6650 0
6653 -6646 -6654 0
-6653 6646 0
-6653 6654 0
6655 -6647 -6654 0
-6655 6647 0
-6655 6654 0
6656 -6647 -6657 0
-6656 6647 0
-6656 6657 0
6658 -6646 -6657 -6651 0
-6658 6646 0
-6658 6657 0
-6658 6651 0
-5907 6659 6653 6655 6656 6658 0
5907 -6659 0
5907 -6653 0
5907 -6655 0
5907 -6656 0
5907 -6658 0
6660 -6646 -6661 0
-6660 6646 0
-6660 6661 0
6662 -6647 -6663 0
-6662 6647 0
-6662 6663 0
6664 -6647 -6661 0
-6664 6647 0
-6664 6661 0
6665 -6646 -6663 -6651 0
-6665 6646 0
-6665 6663 0
-6665 6651 0
-5925 6666 6660 6662 6664 6665 0
5925 -6666 0
5925 -6660 0
5925 -6662 0
5925 -6664 0
5925 -6665 0
6667 -6668 -6661 0
-6667 6668 0
-6667 6661 0
6669 -6670 -6661 0
-6669 6670 0
-6669 6661 0
6671 -6670 -6663 0
-6671 6670 0
-6671 6663 0
6672 -6668 -6663 -6651 0
-6672 6668 0
-6672 6663 0
-6672 6651 0
-1546 6673 6667 6669 6671 6672 0
1546 -6673 0
1546 -6667 0
1546 -6669 0
1546 -6671 0
1546 -6672 0
6674 -6646 -6675 0
-6674 6646 0
-6674 6675 0
6676 -6647 -6675 0
-6676 6647 0
-6676 6675 0
6677 -6647 -6678 0
-6677 6647 0
-6677 6678 0
6679 -6646 -6678 -6651 0
-6679 6646 0
-6679 6678 0
-6679 6651 0
-5914 6680 6674 6676 6677 6679 0
5914 -6680 0
5914 -6674 0
5914 -6676 0
5914 -6677 0
5914 -6679 0
6681 -6646 -6682 0
-6681 6646 0
-6681 6682 0
6683 -6647 -6684 0
-6683 6647 0
-6683 6684 0
6685 -6647 -6682 0
-6685 6647 0
-6685 6682 0
6686 -6646 -6684 -6651 0
-6686 6646 0
-6686 6684 0
-6686 6651 0
-5919 6687 6681 6683 6685 6686 0
5919 -6687 0
5919 -6681 0
5919 -6683 0
5919 -6685 0
5919 -6686 0
6688 -6668 -6682 0
-6688 6668 0
-6688 6682 0
6689 -6670 -6682 0
-6689 6670 0
-6689 6682 0
6690 -6670 -6684 0
-6690 6670 0
-6690 6684 0
6691 -6668 -6684 -6651 0
-6691 6668 0
-6691 6684 0
-6691 6651 0
-1543 6692 6688 6689 6690 6691 0
1543 -6692 0
1543 -6688 0
1543 -6689 0
1543 -6690 0
1543 -6691 0
6693 -6657 -6670 0
-6693 6657 0
-6693 6670 0
6694 -6654 -6668 0
-6694 6654 0
-6694 6668 0
6695 -6654 -6670 0
-6695 6654 0
-6695 6670 0
6696 -6657 -6668 -6651 0
-6696 6657 0
-6696 6668 0
-6696 6651 0
-1536 6697 6693 6694 6695 6696 0
1536 -6697 0
1536 -6693 0
1536 -6694 0
1536 -6695 0
1536 -6696 0
6698 -6657 -6654 0
-6698 6657 0
-6698 6654 0
6699 -6654 -6654 0
-6699 6654 0
-6699 6654 0
6700 -6654 -6657 0
-6700 6654 0
-6700 6657 0
6701 -6657 -6657 -6651 0
-6701 6657 0
-6701 6657 0
-6701 6651 0
-1538 6702 6698 6699 6700 6701 0
1538 -6702 0
1538 -6698 0
1538 -6699 0
1538 -6700 0
1538 -6701 0
6703 -6657 -6675 0
-6703 6657 0
-6703 6675 0
6704 -6654 -6675 0
-6704 6654 0
-6704 6675 0
6705 -6654 -6678 0
-6705 6654 0
-6705 6678 0
6706 -6657 -6678 -6651 0
-6706 6657 0
-6706 6678 0
-6706 6651 0
-1541 6707 6703 6704 6705 6706 0
1541 -6707 0
1541 -6703 0
1541 -6704 0
1541 -6705 0
1541 -6706 0
6708 -6657 -6682 0
-6708 6657 0
-6708 6682 0
6709 -6654 -6684 0
-6709 6654 0
-6709 6684 0
6710 -6654 -6682 0
-6710 6654 0
-6710 6682 0
6711 -6657 -6684 -6651 0
-6711 6657 0
-6711 6684 0
-6711 6651 0
-1544 6712 6708 6709 6710 6711 0
1544 -6712 0
1544 -6708 0
1544 -6709 0
1544 -6710 0
1544 -6711 0
6713 -6663 -6682 0
-6713 6663 0
-6713 6682 0
6714 -6661 -6682 0
-6714 6661 0
-6714 6682 0
6715 -6661 -6684 0
-6715 6661 0
-6715 6684 0
6716 -6663 -6684 -6651 0
-6716 6663 0
-6716 6684 0
-6716 6651 0
-1547 6717 6713 6714 6715 6716 0
1547 -6717 0
1547 -6713 0
1547 -6714 0
1547 -6715 0
1547 -6716 0
6718 -6678 -6670 0
-6718 6678 0
-6718 6670 0
6719 -6675 -6668 0
-6719 6675 0
-6719 6668 0
6720 -6675 -6670 0
-6720 6675 0
-6720 6670 0
6721 -6678 -6668 -6651 0
-6721 6678 0
-6721 6668 0
-6721 6651 0
-1540 6722 6718 6719 6720 6721 0
1540 -6722 0
1540 -6718 0
1540 -6719 0
1540 -6720 0
1540 -6721 0
6723 -6678 -6661 0
-6723 6678 0
-6723 6661 0
6724 -6675 -6663 0
-6724 6675 0
-6724 6663 0
6725 -6675 -6661 0
-6725 6675 0
-6725 6661 0
6726 -6678 -6663 -6651 0
-6726 6678 0
-6726 6663 0
-6726 6651 0
-1549 6727 6723 6724 6725 6726 0
1549 -6727 0
1549 -6723 0
1549 -6724 0
1549 -6725 0
1549 -6726 0
6728 -6678 -6675 0
-6728 6678 0
-6728 6675 0
6729 -6675 -6675 0
-6729 6675 0
-6729 6675 0
6730 -6675 -6678 0
-6730 6675 0
-6730 6678 0
6731 -6678 -6678 -6651 0
-6731 6678 0
-6731 6678 0
-6731 6651 0
-1552 6732 6728 6729 6730 6731 0
1552 -6732 0
1552 -6728 0
1552 -6729 0
1552 -6730 0
1552 -6731 0
6733 -6734 -6735 0
-6733 6734 0
-6733 6735 0
6736 -6735 -6735 0
-6736 6735 0
-6736 6735 0
6737 -6735 -6734 0
-6737 6735 0
-6737 6734 0
6738 -6734 -6734 -6739 0
-6738 6734 0
-6738 6734 0
-6738 6739 0
-3276 6740 6733 6736 6737 6738 0
3276 -6740 0
3276 -6733 0
3276 -6736 0
3276 -6737 0
3276 -6738 0
6741 -6734 -6742 0
-6741 6734 0
-6741 6742 0
6743 -6735 -6742 0
-6743 6735 0
-6743 6742 0
6744 -6735 -6745 0
-6744 6735 0
-6744 6745 0
6746 -6734 -6745 -6739 0
-6746 6734 0
-6746 6745 0
-6746 6739 0
-3272 6747 6741 6743 6744 6746 0
3272 -6747 0
3272 -6741 0
3272 -6743 0
3272 -6744 0
3272 -6746 0
6748 -6734 -6749 0
-6748 6734 0
-6748 6749 0
6750 -6735 -6751 0
-6750 6735 0
-6750 6751 0
6752 -6735 -6749 0
-6752 6735 0
-6752 6749 0
6753 -6734 -6751 -6739 0
-6753 6734 0
-6753 6751 0
-6753 6739 0
-3296 6754 6748 6750 6752 6753 0
3296 -6754 0
3296 -6748 0
3296 -6750 0
3296 -6752 0
3296 -6753 0
6755 -6756 -6749 0
-6755 6756 0
-6755 6749 0
6757 -6758 -6749 0
-6757 6758 0
-6757 6749 0
6759 -6758 -6751 0
-6759 6758 0
-6759 6751 0
6760 -6756 -6751 -6739 0
-6760 6756 0
-6760 6751 0
-6760 6739 0
-3294 6761 6755 6757 6759 6760 0
3294 -6761 0
3294 -6755 0
3294 -6757 0
3294 -6759 0
3294 -6760 0
6762 -6734 -6763 0
-6762 6734 0
-6762 6763 0
6764 -6735 -6763 0
-6764 6735 0
-6764 6763 0
6765 -6735 -6766 0
-6765 6735 0
-6765 6766 0
6767 -6734 -6766 -6739 0
-6767 6734 0
-6767 6766 0
-6767 6739 0
-3280 6768 6762 6764 6765 6767 0
3280 -6768 0
3280 -6762 0
3280 -6764 0
3280 -6765 0
3280 -6767 0
6769 -6734 -6770 0
-6769 6734 0
-6769 6770 0
6771 -6735 -6772 0
-6771 6735 0
-6771 6772 0
6773 -6735 -6770 0
-6773 6735 0
-6773 6770 0
6774 -6734 -6772 -6739 0
-6774 6734 0
-6774 6772 0
-6774 6739 0
-3287 6775 6769 6771 6773 6774 0
3287 -6775 0
3287 -6769 0
3287 -6771 0
3287 -6773 0
3287 -6774 0
6776 -6756 -6770 0
-6776 6756 0
-6776 6770 0
6777 -6758 -6770 0
-6777 6758 0
-6777 6770 0
6778 -6758 -6772 0
-6778 6758 0
-6778 6772 0
6779 -6756 -6772 -6739 0
-6779 6756 0
-6779 6772 0
-6779 6739 0
-3289 6780 6776 6777 6778 6779 0
3289 -6780 0
3289 -6776 0
3289 -6777 0
3289 -6778 0
3289 -6779 0
6781 -6745 -6758 0
-6781 6745 0
-6781 6758 0
6782 -6742 -6756 0
-6782 6742 0
-6782 6756 0
6783 -6742 -6758 0
-6783 6742 0
-6783 6758 0
6784 -6745 -6756 -6739 0
-6784 6745 0
-6784 6756 0
-6784 6739 0
-3271 6785 6781 6782 6783 6784 0
3271 -6785 0
3271 -6781 0
3271 -6782 0
3271 -6783 0
3271 -6784 0
6786 -6745 -6742 0
-6786 6745 0
-6786 6742 0
6787 -6742 -6742 0
-6787 6742 0
-6787 6742 0
6788 -6742 -6745 0
-6788 6742 0
-6788 6745 0
6789 -6745 -6745 -6739 0
-6789 6745 0
-6789 6745 0
-6789 6739 0
-3278 6790 6786 6787 6788 6789 0
3278 -6790 0
3278 -6786 0
3278 -6787 0
3278 -6788 0
3278 -6789 0
6791 -6745 -6763 0
-6791 6745 0
-6791 6763 0
6792 -6742 -6763 0
-6792 6742 0
-6792 6763 0
6793 -6742 -6766 0
-6793 6742 0
-6793 6766 0
6794 -6745 -6766 -6739 0
-6794 6745 0
-6794 6766 0
-6794 6739 0
-3285 6795 6791 6792 6793 6794 0
3285 -6795 0
3285 -6791 0
3285 -6792 0
3285 -6793 0
3285 -6794 0
6796 -6745 -6770 0
-6796 6745 0
-6796 6770 0
6797 -6742 -6772 0
-6797 6742 0
-6797 6772 0
6798 -6742 -6770 0
-6798 6742 0
-6798 6770 0
6799 -6745 -6772 -6739 0
-6799 6745 0
-6799 6772 0
-6799 6739 0
-3292 6800 6796 6797 6798 6799 0
3292 -6800 0
3292 -6796 0
3292 -6797 0
3292 -6798 0
3292 -6799 0
6801 -6751 -6770 0
-6801 6751 0
-6801 6770 0
6802 -6749 -6770 0
-6802 6749 0
-6802 6770 0
6803 -6749 -6772 0
-6803 6749 0
-6803 6772 0
6804 -6751 -6772 -6739 0
-6804 6751 0
-6804 6772 0
-6804 6739 0
-3299 6805 6801 6802 6803 6804 0
3299 -6805 0
3299 -6801 0
3299 -6802 0
3299 -6803 0
3299 -6804 0
6806 -6766 -6758 0
-6806 6766 0
-6806 6758 0
6807 -6763 -6756 0
-6807 6763 0
-6807 6756 0
6808 -6763 -6758 0
-6808 6763 0
-6808 6758 0
6809 -6766 -6756 -6739 0
-6809 6766 0
-6809 6756 0
-6809 6739 0
-3283 6810 6806 6807 6808 6809 0
3283 -6810 0
3283 -6806 0
3283 -6807 0
3283 -6808 0
3283 -6809 0
6811 -6766 -6749 0
-6811 6766 0
-6811 6749 0
6812 -6763 -6751 0
-6812 6763 0
-6812 6751 0
6813 -6763 -6749 0
-6813 6763 0
-6813 6749 0
6814 -6766 -6751 -6739 0
-6814 6766 0
-6814 6751 0
-6814 6739 0
-3304 6815 6811 6812 6813 6814 0
3304 -6815 0
3304 -6811 0
3304 -6812 0
3304 -6813 0
3304 -6814 0
6816 -6766 -6763 0
-6816 6766 0
-6816 6763 0
6817 -6763 -6763 0
-6817 6763 0
-6817 6763 0
6818 -6763 -6766 0
-6818 6763 0
-6818 6766 0
6819 -6766 -6766 -6739 0
-6819 6766 0
-6819 6766 0
-6819 6739 0
-3310 6820 6816 6817 6818 6819 0
3310 -6820 0
3310 -6816 0
3310 -6817 0
3310 -6818 0
3310 -6819 0
6821 -6822 -6822 0
-6821 6822 0
-6821 6822 0
-2217 6823 6821 0
2217 -6823 0
2217 -6821 0
6824 -6822 -6825 0
-6824 6822 0
-6824 6825 0
-2213 6826 6824 0
2213 -6826 0
2213 -6824 0
6827 -6822 -6828 0
-6827 6822 0
-6827 6828 0
-2237 6829 6827 0
2237 -6829 0
2237 -6827 0
6830 -6831 -6828 0
-6830 6831 0
-6830 6828 0
-2235 6832 6830 0
2235 -6832 0
2235 -6830 0
6833 -6822 -6834 0
-6833 6822 0
-6833 6834 0
-2221 6835 6833 0
2221 -6835 0
2221 -6833 0
6836 -6822 -6837 0
-6836 6822 0
-6836 6837 0
-2228 6838 6836 0
2228 -6838 0
2228 -6836 0
6839 -6831 -6837 0
-6839 6831 0
-6839 6837 0
-2230 6840 6839 0
2230 -6840 0
2230 -6839 0
6841 -6825 -6831 0
-6841 6825 0
-6841 6831 0
-2212 6842 6841 0
2212 -6842 0
2212 -6841 0
6843 -6825 -6825 0
-6843 6825 0
-6843 6825 0
-2219 6844 6843 0
2219 -6844 0
2219 -6843 0
6845 -6825 -6834 0
-6845 6825 0
-6845 6834 0
-2226 6846 6845 0
2226 -6846 0
2226 -6845 0
6847 -6825 -6837 0
-6847 6825 0
-6847 6837 0
-2233 6848 6847 0
2233 -6848 0
2233 -6847 0
6849 -6828 -6837 0
-6849 6828 0
-6849 6837 0
-2240 6850 6849 0
2240 -6850 0
2240 -6849 0
6851 -6834 -6831 0
-6851 6834 0
-6851 6831 0
-2224 6852 6851 0
2224 -6852 0
2224 -6851 0
6853 -6834 -6828 0
-6853 6834 0
-6853 6828 0
-2245 6854 6853 0
2245 -6854 0
2245 -6853 0
6855 -6834 -6834 0
-6855 6834 0
-6855 6834 0
-2251 6856 6855 0
2251 -6856 0
2251 -6855 0
6857 -6462 -6462 0
-6857 6462 0
-6857 6462 0
-2628 6456 6857 0
2628 -6456 0
2628 -6857 0
6858 -6462 -6586 0
-6858 6462 0
-6858 6586 0
-2623 6588 6858 0
2623 -6588 0
2623 -6858 0
6859 -6462 -6461 0
-6859 6462 0
-6859 6461 0
-2622 6455 6859 0
2622 -6455 0
2622 -6859 0
6860 -6465 -6461 0
-6860 6465 0
-6860 6461 0
-2542 6464 6860 0
2542 -6464 0
2542 -6860 0
6861 -6462 -6487 0
-6861 6462 0
-6861 6487 0
-2633 6468 6861 0
2633 -6468 0
2633 -6861 0
6862 -6462 -6483 0
-6862 6462 0
-6862 6483 0
-2638 6471 6862 0
2638 -6471 0
2638 -6862 0
6863 -6465 -6483 0
-6863 6465 0
-6863 6483 0
-2539 6473 6863 0
2539 -6473 0
2539 -6863 0
6864 -6586 -6465 0
-6864 6586 0
-6864 6465 0
-2532 6613 6864 0
2532 -6613 0
2532 -6864 0
6865 -6586 -6586 0
-6865 6586 0
-6865 6586 0
-2534 6618 6865 0
2534 -6618 0
2534 -6865 0
6866 -6586 -6487 0
-6866 6586 0
-6866 6487 0
-2537 6623 6866 0
2537 -6623 0
2537 -6866 0
6867 -6586 -6483 0
-6867 6586 0
-6867 6483 0
-2540 6628 6867 0
2540 -6628 0
2540 -6867 0
6868 -6461 -6483 0
-6868 6461 0
-6868 6483 0
-2543 6470 6868 0
2543 -6470 0
2543 -6868 0
6869 -6487 -6465 0
-6869 6487 0
-6869 6465 0
-2536 6485 6869 0
2536 -6485 0
2536 -6869 0
6870 -6487 -6461 0
-6870 6487 0
-6870 6461 0
-2545 6467 6870 0
2545 -6467 0
2545 -6870 0
6871 -6487 -6487 0
-6871 6487 0
-6871 6487 0
-2548 6489 6871 0
2548 -6489 0
2548 -6871 0
6872 -6822 -6873 0
-6872 6822 0
-6872 6873 0
6874 -6873 -6873 0
-6874 6873 0
-6874 6873 0
6875 -6873 -6822 0
-6875 6873 0
-6875 6822 0
6876 -6822 -6822 -6877 0
-6876 6822 0
-6876 6822 0
-6876 6877 0
-6214 6823 6872 6874 6875 6876 0
6214 -6823 0
6214 -6872 0
6214 -6874 0
6214 -6875 0
6214 -6876 0
6878 -6822 -6879 0
-6878 6822 0
-6878 6879 0
6880 -6873 -6879 0
-6880 6873 0
-6880 6879 0
6881 -6873 -6825 0
-6881 6873 0
-6881 6825 0
6882 -6822 -6825 -6877 0
-6882 6822 0
-6882 6825 0
-6882 6877 0
-6210 6826 6878 6880 6881 6882 0
6210 -6826 0
6210 -6878 0
6210 -6880 0
6210 -6881 0
6210 -6882 0
6883 -6822 -6884 0
-6883 6822 0
-6883 6884 0
6885 -6873 -6828 0
-6885 6873 0
-6885 6828 0
6886 -6873 -6884 0
-6886 6873 0
-6886 6884 0
6887 -6822 -6828 -6877 0
-6887 6822 0
-6887 6828 0
-6887 6877 0
-6228 6829 6883 6885 6886 6887 0
6228 -6829 0
6228 -6883 0
6228 -6885 0
6228 -6886 0
6228 -6887 0
6888 -6831 -6884 0
-6888 6831 0
-6888 6884 0
6889 -6890 -6884 0
-6889 6890 0
-6889 6884 0
6891 -6890 -6828 0
-6891 6890 0
-6891 6828 0
6892 -6831 -6828 -6877 0
-6892 6831 0
-6892 6828 0
-6892 6877 0
-5175 6832 6888 6889 6891 6892 0
5175 -6832 0
5175 -6888 0
5175 -6889 0
5175 -6891 0
5175 -6892 0
6893 -6822 -6894 0
-6893 6822 0
-6893 6894 0
6895 -6873 -6894 0
-6895 6873 0
-6895 6894 0
6896 -6873 -6834 0
-6896 6873 0
-6896 6834 0
6897 -6822 -6834 -6877 0
-6897 6822 0
-6897 6834 0
-6897 6877 0
-6217 6835 6893 6895 6896 6897 0
6217 -6835 0
6217 -6893 0
6217 -6895 0
6217 -6896 0
6217 -6897 0
6898 -6822 -6899 0
-6898 6822 0
-6898 6899 0
6900 -6873 -6837 0
-6900 6873 0
-6900 6837 0
6901 -6873 -6899 0
-6901 6873 0
-6901 6899 0
6902 -6822 -6837 -6877 0
-6902 6822 0
-6902 6837 0
-6902 6877 0
-6222 6838 6898 6900 6901 6902 0
6222 -6838 0
6222 -6898 0
6222 -6900 0
6222 -6901 0
6222 -6902 0
6903 -6831 -6899 0
-6903 6831 0
-6903 6899 0
6904 -6890 -6899 0
-6904 6890 0
-6904 6899 0
6905 -6890 -6837 0
-6905 6890 0
-6905 6837 0
6906 -6831 -6837 -6877 0
-6906 6831 0
-6906 6837 0
-6906 6877 0
-5172 6840 6903 6904 6905 6906 0
5172 -6840 0
5172 -6903 0
5172 -6904 0
5172 -6905 0
5172 -6906 0
6907 -6825 -6890 0
-6907 6825 0
-6907 6890 0
6908 -6879 -6831 0
-6908 6879 0
-6908 6831 0
6909 -6879 -6890 0
-6909 6879 0
-6909 6890 0
6910 -6825 -6831 -6877 0
-6910 6825 0
-6910 6831 0
-6910 6877 0
-5165 6842 6907 6908 6909 6910 0
5165 -6842 0
5165 -6907 0
5165 -6908 0
5165 -6909 0
5165 -6910 0
6911 -6825 -6879 0
-6911 6825 0
-6911 6879 0
6912 -6879 -6879 0
-6912 6879 0
-6912 6879 0
6913 -6879 -6825 0
-6913 6879 0
-6913 6825 0
6914 -6825 -6825 -6877 0
-6914 6825 0
-6914 6825 0
-6914 6877 0
-5167 6844 6911 6912 6913 6914 0
5167 -6844 0
5167 -6911 0
5167 -6912 0
5167 -6913 0
5167 -6914 0
6915 -6825 -6894 0
-6915 6825 0
-6915 6894 0
6916 -6879 -6894 0
-6916 6879 0
-6916 6894 0
6917 -6879 -6834 0
-6917 6879 0
-6917 6834 0
6918 -6825 -6834 -6877 0
-6918 6825 0
-6918 6834 0
-6918 6877 0
-5170 6846 6915 6916 6917 6918 0
5170 -6846 0
5170 -6915 0
5170 -6916 0
5170 -6917 0
5170 -6918 0
6919 -6825 -6899 0
-6919 6825 0
-6919 6899 0
6920 -6879 -6837 0
-6920 6879 0
-6920 6837 0
6921 -6879 -6899 0
-6921 6879 0
-6921 6899 0
6922 -6825 -6837 -6877 0
-6922 6825 0
-6922 6837 0
-6922 6877 0
-5173 6848 6919 6920 6921 6922 0
5173 -6848 0
5173 -6919 0
5173 -6920 0
5173 -6921 0
5173 -6922 0
6923 -6828 -6899 0
-6923 6828 0
-6923 6899 0
6924 -6884 -6899 0
-6924 6884 0
-6924 6899 0
6925 -6884 -6837 0
-6925 6884 0
-6925 6837 0
6926 -6828 -6837 -6877 0
-6926 6828 0
-6926 6837 0
-6926 6877 0
-5176 6850 6923 6924 6925 6926 0
5176 -6850 0
5176 -6923 0
5176 -6924 0
5176 -6925 0
5176 -6926 0
6927 -6834 -6890 0
-6927 6834 0
-6927 6890 0
6928 -6894 -6831 0
-6928 6894 0
-6928 6831 0
6929 -6894 -6890 0
-6929 6894 0
-6929 6890 0
6930 -6834 -6831 -6877 0
-6930 6834 0
-6930 6831 0
-6930 6877 0
-5169 6852 6927 6928 6929 6930 0
5169 -6852 0
5169 -6927 0
5169 -6928 0
5169 -6929 0
5169 -6930 0
6931 -6834 -6884 0
-6931 6834 0
-6931 6884 0
6932 -6894 -6828 0
-6932 6894 0
-6932 6828 0
6933 -6894 -6884 0
-6933 6894 0
-6933 6884 0
6934 -6834 -6828 -6877 0
-6934 6834 0
-6934 6828 0
-6934 6877 0
-5178 6854 6931 6932 6933 6934 0
5178 -6854 0
5178 -6931 0
5178 -6932 0
5178 -6933 0
5178 -6934 0
6935 -6834 -6894 0
-6935 6834 0
-6935 6894 0
6936 -6894 -6894 0
-6936 6894 0
-6936 6894 0
6937 -6894 -6834 0
-6937 6894 0
-6937 6834 0
6938 -6834 -6834 -6877 0
-6938 6834 0
-6938 6834 0
-6938 6877 0
-5181 6856 6935 6936 6937 6938 0
5181 -6856 0
5181 -6935 0
5181 -6936 0
5181 -6937 0
5181 -6938 0
6939 -6940 -6940 0
-6939 6940 0
-6939 6940 0
-1777 6941 6939 0
1777 -6941 0
1777 -6939 0
6942 -6940 -6943 0
-6942 6940 0
-6942 6943 0
-1773 6944 6942 0
1773 -6944 0
1773 -6942 0
6945 -6940 -6946 0
-6945 6940 0
-6945 6946 0
-1797 6947 6945 0
1797 -6947 0
1797 -6945 0
6948 -6949 -6946 0
-6948 6949 0
-6948 6946 0
-1795 6950 6948 0
1795 -6950 0
1795 -6948 0
6951 -6940 -6952 0
-6951 6940 0
-6951 6952 0
-1781 6953 6951 0
1781 -6953 0
1781 -6951 0
6954 -6940 -6955 0
-6954 6940 0
-6954 6955 0
-1788 6956 6954 0
1788 -6956 0
1788 -6954 0
6957 -6949 -6955 0
-6957 6949 0
-6957 6955 0
-1790 6958 6957 0
1790 -6958 0
1790 -6957 0
6959 -6943 -6949 0
-6959 6943 0
-6959 6949 0
-1772 6960 6959 0
1772 -6960 0
1772 -6959 0
6961 -6943 -6943 0
-6961 6943 0
-6961 6943 0
-1779 6962 6961 0
1779 -6962 0
1779 -6961 0
6963 -6943 -6952 0
-6963 6943 0
-6963 6952 0
-1786 6964 6963 0
1786 -6964 0
1786 -6963 0
6965 -6943 -6955 0
-6965 6943 0
-6965 6955 0
-1793 6966 6965 0
1793 -6966 0
1793 -6965 0
6967 -6946 -6955 0
-6967 6946 0
-6967 6955 0
-1800 6968 6967 0
1800 -6968 0
1800 -6967 0
6969 -6952 -6949 0
-6969 6952 0
-6969 6949 0
-1784 6970 6969 0
1784 -6970 0
1784 -6969 0
6971 -6952 -6946 0
-6971 6952 0
-6971 6946 0
-1805 6972 6971 0
1805 -6972 0
1805 -6971 0
6973 -6952 -6952 0
-6973 6952 0
-6973 6952 0
-1811 6974 6973 0
1811 -6974 0
1811 -6973 0
6975 -6976 -6976 0
-6975 6976 0
-6975 6976 0
-2383 6977 6975 0
2383 -6977 0
2383 -6975 0
6978 -6976 -6979 0
-6978 6976 0
-6978 6979 0
-2377 6980 6978 0
2377 -6980 0
2377 -6978 0
6981 -6976 -6982 0
-6981 6976 0
-6981 6982 0
-2376 6983 6981 0
2376 -6983 0
2376 -6981 0
6984 -6985 -6982 0
-6984 6985 0
-6984 6982 0
-2399 6986 6984 0
2399 -6986 0
2399 -6984 0
6987 -6976 -6988 0
-6987 6976 0
-6987 6988 0
-2390 6989 6987 0
2390 -6989 0
2390 -6987 0
6990 -6976 -6991 0
-6990 6976 0
-6990 6991 0
-2397 6992 6990 0
2397 -6992 0
2397 -6990 0
6993 -6985 -6991 0
-6993 6985 0
-6993 6991 0
-2404 6994 6993 0
2404 -6994 0
2404 -6993 0
6995 -6979 -6985 0
-6995 6979 0
-6995 6985 0
-2401 6996 6995 0
2401 -6996 0
2401 -6995 0
6997 -6979 -6979 0
-6997 6979 0
-6997 6979 0
-2381 6998 6997 0
2381 -6998 0
2381 -6997 0
6999 -6979 -6988 0
-6999 6979 0
-6999 6988 0
-2385 7000 6999 0
2385 -7000 0
2385 -6999 0
7001 -6979 -6991 0
-7001 6979 0
-7001 6991 0
-2392 7002 7001 0
2392 -7002 0
2392 -7001 0
7003 -6982 -6991 0
-7003 6982 0
-7003 6991 0
-2394 7004 7003 0
2394 -7004 0
2394 -7003 0
7005 -6988 -6985 0
-7005 6988 0
-7005 6985 0
-2409 7006 7005 0
2409 -7006 0
2409 -7005 0
7007 -6988 -6982 0
-7007 6988 0
-7007 6982 0
-2388 7008 7007 0
2388 -7008 0
2388 -7007 0
7009 -6988 -6988 0
-7009 6988 0
-7009 6988 0
-2415 7010 7009 0
2415 -7010 0
2415 -7009 0
7011 -7012 -7012 0
-7011 7012 0
-7011 7012 0
-3226 7013 7011 0
3226 -7013 0
3226 -7011 0
7014 -7012 -7015 0
-7014 7012 0
-7014 7015 0
-3222 7016 7014 0
3222 -7016 0
3222 -7014 0
7017 -7012 -7018 0
-7017 7012 0
-7017 7018 0
-3240 7019 7017 0
3240 -7019 0
3240 -7017 0
7020 -7021 -7018 0
-7020 7021 0
-7020 7018 0
-3042 7022 7020 0
3042 -7022 0
3042 -7020 0
7023 -7012 -7024 0
-7023 7012 0
-7023 7024 0
-3229 7025 7023 0
3229 -7025 0
3229 -7023 0
7026 -7012 -7027 0
-7026 7012 0
-7026 7027 0
-3234 7028 7026 0
3234 -7028 0
3234 -7026 0
7029 -7021 -7027 0
-7029 7021 0
-7029 7027 0
-3039 7030 7029 0
3039 -7030 0
3039 -7029 0
7031 -7015 -7021 0
-7031 7015 0
-7031 7021 0
-3032 7032 7031 0
3032 -7032 0
3032 -7031 0
7033 -7015 -7015 0
-7033 7015 0
-7033 7015 0
-3034 7034 7033 0
3034 -7034 0
3034 -7033 0
7035 -7015 -7024 0
-7035 7015 0
-7035 7024 0
-3037 7036 7035 0
3037 -7036 0
3037 -7035 0
7037 -7015 -7027 0
-7037 7015 0
-7037 7027 0
-3040 7038 7037 0
3040 -7038 0
3040 -7037 0
7039 -7018 -7027 0
-7039 7018 0
-7039 7027 0
-3043 7040 7039 0
3043 -7040 0
3043 -7039 0
7041 -7024 -7021 0
-7041 7024 0
-7041 7021 0
-3036 7042 7041 0
3036 -7042 0
3036 -7041 0
7043 -7024 -7018 0
-7043 7024 0
-7043 7018 0
-3045 7044 7043 0
3045 -7044 0
3045 -7043 0
7045 -7024 -7024 0
-7045 7024 0
-7045 7024 0
-3048 7046 7045 0
3048 -7046 0
3048 -7045 0
7047 -7048 -7048 0
-7047 7048 0
-7047 7048 0
-2419 7049 7047 0
2419 -7049 0
2419 -7047 0
7050 -7048 -7051 0
-7050 7048 0
-7050 7051 0
-3908 7052 7050 0
3908 -7052 0
3908 -7050 0
7053 -7048 -7054 0
-7053 7048 0
-7053 7054 0
-2417 7055 7053 0
2417 -7055 0
2417 -7053 0
7056 -7057 -7054 0
-7056 7057 0
-7056 7054 0
-2427 7058 7056 0
2427 -7058 0
2427 -7056 0
7059 -7048 -7060 0
-7059 7048 0
-7059 7060 0
-2422 7061 7059 0
2422 -7061 0
2422 -7059 0
7062 -7048 -7063 0
-7062 7048 0
-7062 7063 0
-2425 7064 7062 0
2425 -7064 0
2425 -7062 0
7065 -7057 -7063 0
-7065 7057 0
-7065 7063 0
-2428 7066 7065 0
2428 -7066 0
2428 -7065 0
7067 -7051 -7057 0
-7067 7051 0
-7067 7057 0
-3926 7068 7067 0
3926 -7068 0
3926 -7067 0
7069 -7051 -7051 0
-7069 7051 0
-7069 7051 0
-3912 7070 7069 0
3912 -7070 0
3912 -7069 0
7071 -7051 -7060 0
-7071 7051 0
-7071 7060 0
-3915 7072 7071 0
3915 -7072 0
3915 -7071 0
7073 -7051 -7063 0
-7073 7051 0
-7073 7063 0
-3920 7074 7073 0
3920 -7074 0
3920 -7073 0
7075 -7054 -7063 0
-7075 7054 0
-7075 7063 0
-2424 7076 7075 0
2424 -7076 0
2424 -7075 0
7077 -7060 -7057 0
-7077 7060 0
-7077 7057 0
-2430 7078 7077 0
2430 -7078 0
2430 -7077 0
7079 -7060 -7054 0
-7079 7060 0
-7079 7054 0
-2421 7080 7079 0
2421 -7080 0
2421 -7079 0
7081 -7060 -7060 0
-7081 7060 0
-7081 7060 0
-2433 7082 7081 0
2433 -7082 0
2433 -7081 0
7083 -7084 -7084 0
-7083 7084 0
-7083 7084 0
-2696 7085 7083 0
2696 -7085 0
2696 -7083 0
7086 -7084 -7087 0
-7086 7084 0
-7086 7087 0
-4505 7088 7086 0
4505 -7088 0
4505 -7086 0
7089 -7084 -7090 0
-7089 7084 0
-7089 7090 0
-2694 7091 7089 0
2694 -7091 0
2694 -7089 0
7092 -7093 -7090 0
-7092 7093 0
-7092 7090 0
-2704 7094 7092 0
2704 -7094 0
2704 -7092 0
7095 -7084 -7096 0
-7095 7084 0
-7095 7096 0
-2699 7097 7095 0
2699 -7097 0
2699 -7095 0
7098 -7084 -7099 0
-7098 7084 0
-7098 7099 0
-2702 7100 7098 0
2702 -7100 0
2702 -7098 0
7101 -7093 -7099 0
-7101 7093 0
-7101 7099 0
-2705 7102 7101 0
2705 -7102 0
2705 -7101 0
7103 -7087 -7093 0
-7103 7087 0
-7103 7093 0
-4523 7104 7103 0
4523 -7104 0
4523 -7103 0
7105 -7087 -7087 0
-7105 7087 0
-7105 7087 0
-4509 7106 7105 0
4509 -7106 0
4509 -7105 0
7107 -7087 -7096 0
-7107 7087 0
-7107 7096 0
-4512 7108 7107 0
4512 -7108 0
4512 -7107 0
7109 -7087 -7099 0
-7109 7087 0
-7109 7099 0
-4517 7110 7109 0
4517 -7110 0
4517 -7109 0
7111 -7090 -7099 0
-7111 7090 0
-7111 7099 0
-2701 7112 7111 0
2701 -7112 0
2701 -7111 0
7113 -7096 -7093 0
-7113 7096 0
-7113 7093 0
-2707 7114 7113 0
2707 -7114 0
2707 -7113 0
7115 -7096 -7090 0
-7115 7096 0
-7115 7090 0
-2698 7116 7115 0
2698 -7116 0
2698 -7115 0
7117 -7096 -7096 0
-7117 7096 0
-7117 7096 0
-2710 7118 7117 0
2710 -7118 0
2710 -7117 0
7119 -6666 -6666 0
-7119 6666 0
-7119 6666 0
-1697 6652 7119 0
1697 -6652 0
1697 -7119 0
7120 -6666 -6661 0
-7120 6666 0
-7120 6661 0
-1691 6647 7120 0
1691 -6647 0
1691 -7120 0
7121 -6666 -6663 0
-7121 6666 0
-7121 6663 0
-1690 6646 7121 0
1690 -6646 0
1690 -7121 0
7122 -6673 -6663 0
-7122 6673 0
-7122 6663 0
-1713 6668 7122 0
1713 -6668 0
1713 -7122 0
7123 -6666 -6727 0
-7123 6666 0
-7123 6727 0
-1704 6680 7123 0
1704 -6680 0
1704 -7123 0
7124 -6666 -6717 0
-7124 6666 0
-7124 6717 0
-1711 6687 7124 0
1711 -6687 0
1711 -7124 0
7125 -6673 -6717 0
-7125 6673 0
-7125 6717 0
-1718 6692 7125 0
1718 -6692 0
1718 -7125 0
7126 -6661 -6673 0
-7126 6661 0
-7126 6673 0
-1715 6670 7126 0
1715 -6670 0
1715 -7126 0
7127 -6661 -6661 0
-7127 6661 0
-7127 6661 0
-1695 6651 7127 0
1695 -6651 0
1695 -7127 0
7128 -6661 -6727 0
-7128 6661 0
-7128 6727 0
-1699 6675 7128 0
1699 -6675 0
1699 -7128 0
7129 -6661 -6717 0
-7129 6661 0
-7129 6717 0
-1706 6682 7129 0
1706 -6682 0
1706 -7129 0
7130 -6663 -6717 0
-7130 6663 0
-7130 6717 0
-1708 6684 7130 0
1708 -6684 0
1708 -7130 0
7131 -6727 -6673 0
-7131 6727 0
-7131 6673 0
-1723 6722 7131 0
1723 -6722 0
1723 -7131 0
7132 -6727 -6663 0
-7132 6727 0
-7132 6663 0
-1702 6678 7132 0
1702 -6678 0
1702 -7132 0
7133 -6727 -6727 0
-7133 6727 0
-7133 6727 0
-1729 6732 7133 0
1729 -6732 0
1729 -7133 0
7134 -7135 -7135 0
-7134 7135 0
-7134 7135 0
-2909 7136 7134 0
2909 -7136 0
2909 -7134 0
7137 -7135 -7138 0
-7137 7135 0
-7137 7138 0
-2903 7139 7137 0
2903 -7139 0
2903 -7137 0
7140 -7135 -7141 0
-7140 7135 0
-7140 7141 0
-2902 7142 7140 0
2902 -7142 0
2902 -7140 0
7143 -7144 -7141 0
-7143 7144 0
-7143 7141 0
-2925 7145 7143 0
2925 -7145 0
2925 -7143 0
7146 -7135 -7147 0
-7146 7135 0
-7146 7147 0
-2916 7148 7146 0
2916 -7148 0
2916 -7146 0
7149 -7135 -7150 0
-7149 7135 0
-7149 7150 0
-2923 7151 7149 0
2923 -7151 0
2923 -7149 0
7152 -7144 -7150 0
-7152 7144 0
-7152 7150 0
-2930 7153 7152 0
2930 -7153 0
2930 -7152 0
7154 -7138 -7144 0
-7154 7138 0
-7154 7144 0
-2927 7155 7154 0
2927 -7155 0
2927 -7154 0
7156 -7138 -7138 0
-7156 7138 0
-7156 7138 0
-2907 7157 7156 0
2907 -7157 0
2907 -7156 0
7158 -7138 -7147 0
-7158 7138 0
-7158 7147 0
-2911 7159 7158 0
2911 -7159 0
2911 -7158 0
7160 -7138 -7150 0
-7160 7138 0
-7160 7150 0
-2918 7161 7160 0
2918 -7161 0
2918 -7160 0
7162 -7141 -7150 0
-7162 7141 0
-7162 7150 0
-2920 7163 7162 0
2920 -7163 0
2920 -7162 0
7164 -7147 -7144 0
-7164 7147 0
-7164 7144 0
-2935 7165 7164 0
2935 -7165 0
2935 -7164 0
7166 -7147 -7141 0
-7166 7147 0
-7166 7141 0
-2914 7167 7166 0
2914 -7167 0
2914 -7166 0
7168 -7147 -7147 0
-7168 7147 0
-7168 7147 0
-2941 7169 7168 0
2941 -7169 0
2941 -7168 0
7170 -6666 -6659 0
-7170 6666 0
-7170 6659 0
7171 -6659 -6659 0
-7171 6659 0
-7171 6659 0
7172 -6659 -6666 0
-7172 6659 0
-7172 6666 0
7173 -6666 -6666 -6702 0
-7173 6666 0
-7173 6666 0
-7173 6702 0
-3697 6652 7170 7171 7172 7173 0
3697 -6652 0
3697 -7170 0
3697 -7171 0
3697 -7172 0
3697 -7173 0
7174 -6666 -6654 0
-7174 6666 0
-7174 6654 0
7175 -6659 -6654 0
-7175 6659 0
-7175 6654 0
7176 -6659 -6661 0
-7176 6659 0
-7176 6661 0
7177 -6666 -6661 -6702 0
-7177 6666 0
-7177 6661 0
-7177 6702 0
-4006 6647 7174 7175 7176 7177 0
4006 -6647 0
4006 -7174 0
4006 -7175 0
4006 -7176 0
4006 -7177 0
7178 -6666 -6657 0
-7178 6666 0
-7178 6657 0
7179 -6659 -6663 0
-7179 6659 0
-7179 6663 0
7180 -6659 -6657 0
-7180 6659 0
-7180 6657 0
7181 -6666 -6663 -6702 0
-7181 6666 0
-7181 6663 0
-7181 6702 0
-3695 6646 7178 7179 7180 7181 0
3695 -6646 0
3695 -7178 0
3695 -7179 0
3695 -7180 0
3695 -7181 0
7182 -6673 -6657 0
-7182 6673 0
-7182 6657 0
7183 -6697 -6657 0
-7183 6697 0
-7183 6657 0
7184 -6697 -6663 0
-7184 6697 0
-7184 6663 0
7185 -6673 -6663 -6702 0
-7185 6673 0
-7185 6663 0
-7185 6702 0
-3705 6668 7182 7183 7184 7185 0
3705 -6668 0
3705 -7182 0
3705 -7183 0
3705 -7184 0
3705 -7185 0
7186 -6666 -6707 0
-7186 6666 0
-7186 6707 0
7187 -6659 -6707 0
-7187 6659 0
-7187 6707 0
7188 -6659 -6727 0
-7188 6659 0
-7188 6727 0
7189 -6666 -6727 -6702 0
-7189 6666 0
-7189 6727 0
-7189 6702 0
-3700 6680 7186 7187 7188 7189 0
3700 -6680 0
3700 -7186 0
3700 -7187 0
3700 -7188 0
3700 -7189 0
7190 -6666 -6712 0
-7190 6666 0
-7190 6712 0
7191 -6659 -6717 0
-7191 6659 0
-7191 6717 0
7192 -6659 -6712 0
-7192 6659 0
-7192 6712 0
7193 -6666 -6717 -6702 0
-7193 6666 0
-7193 6717 0
-7193 6702 0
-3703 6687 7190 7191 7192 7193 0
3703 -6687 0
3703 -7190 0
3703 -7191 0
3703 -7192 0
3703 -7193 0
7194 -6673 -6712 0
-7194 6673 0
-7194 6712 0
7195 -6697 -6712 0
-7195 6697 0
-7195 6712 0
7196 -6697 -6717 0
-7196 6697 0
-7196 6717 0
7197 -6673 -6717 -6702 0
-7197 6673 0
-7197 6717 0
-7197 6702 0
-3706 6692 7194 7195 7196 7197 0
3706 -6692 0
3706 -7194 0
3706 -7195 0
3706 -7196 0
3706 -7197 0
7198 -6661 -6697 0
-7198 6661 0
-7198 6697 0
7199 -6654 -6673 0
-7199 6654 0
-7199 6673 0
7200 -6654 -6697 0
-7200 6654 0
-7200 6697 0
7201 -6661 -6673 -6702 0
-7201 6661 0
-7201 6673 0
-7201 6702 0
-4005 6670 7198 7199 7200 7201 0
4005 -6670 0
4005 -7198 0
4005 -7199 0
4005 -7200 0
4005 -7201 0
7202 -6661 -6654 0
-7202 6661 0
-7202 6654 0
6699 -6654 -6654 0
-6699 6654 0
-6699 6654 0
7203 -6654 -6661 0
-7203 6654 0
-7203 6661 0
7204 -6661 -6661 -6702 0
-7204 6661 0
-7204 6661 0
-7204 6702 0
-4011 6651 7202 6699 7203 7204 0
4011 -6651 0
4011 -7202 0
4011 -6699 0
4011 -7203 0
4011 -7204 0
7205 -6661 -6707 0
-7205 6661 0
-7205 6707 0
7206 -6654 -6707 0
-7206 6654 0
-7206 6707 0
7207 -6654 -6727 0
-7207 6654 0
-7207 6727 0
7208 -6661 -6727 -6702 0
-7208 6661 0
-7208 6727 0
-7208 6702 0
-4016 6675 7205 7206 7207 7208 0
4016 -6675 0
4016 -7205 0
4016 -7206 0
4016 -7207 0
4016 -7208 0
7209 -6661 -6712 0
-7209 6661 0
-7209 6712 0
7210 -6654 -6717 0
-7210 6654 0
-7210 6717 0
7211 -6654 -6712 0
-7211 6654 0
-7211 6712 0
7212 -6661 -6717 -6702 0
-7212 6661 0
-7212 6717 0
-7212 6702 0
-4021 6682 7209 7210 7211 7212 0
4021 -6682 0
4021 -7209 0
4021 -7210 0
4021 -7211 0
4021 -7212 0
7213 -6663 -6712 0
-7213 6663 0
-7213 6712 0
7214 -6657 -6712 0
-7214 6657 0
-7214 6712 0
7215 -6657 -6717 0
-7215 6657 0
-7215 6717 0
7216 -6663 -6717 -6702 0
-7216 6663 0
-7216 6717 0
-7216 6702 0
-3702 6684 7213 7214 7215 7216 0
3702 -6684 0
3702 -7213 0
3702 -7214 0
3702 -7215 0
3702 -7216 0
7217 -6727 -6697 0
-7217 6727 0
-7217 6697 0
7218 -6707 -6673 0
-7218 6707 0
-7218 6673 0
7219 -6707 -6697 0
-7219 6707 0
-7219 6697 0
7220 -6727 -6673 -6702 0
-7220 6727 0
-7220 6673 0
-7220 6702 0
-3708 6722 7217 7218 7219 7220 0
3708 -6722 0
3708 -7217 0
3708 -7218 0
3708 -7219 0
3708 -7220 0
7221 -6727 -6657 0
-7221 6727 0
-7221 6657 0
7222 -6707 -6663 0
-7222 6707 0
-7222 6663 0
7223 -6707 -6657 0
-7223 6707 0
-7223 6657 0
7224 -6727 -6663 -6702 0
-7224 6727 0
-7224 6663 0
-7224 6702 0
-3699 6678 7221 7222 7223 7224 0
3699 -6678 0
3699 -7221 0
3699 -7222 0
3699 -7223 0
3699 -7224 0
7225 -6727 -6707 0
-7225 6727 0
-7225 6707 0
7226 -6707 -6707 0
-7226 6707 0
-7226 6707 0
7227 -6707 -6727 0
-7227 6707 0
-7227 6727 0
7228 -6727 -6727 -6702 0
-7228 6727 0
-7228 6727 0
-7228 6702 0
-3711 6732 7225 7226 7227 7228 0
3711 -6732 0
3711 -7225 0
3711 -7226 0
3711 -7227 0
3711 -7228 0
7229 -7230 -7230 0
-7229 7230 0
-7229 7230 0
-1228 7231 7229 0
1228 -7231 0
1228 -7229 0
7232 -7230 -7233 0
-7232 7230 0
-7232 7233 0
-1224 7234 7232 0
1224 -7234 0
1224 -7232 0
7235 -7230 -7236 0
-7235 7230 0
-7235 7236 0
-1248 7237 7235 0
1248 -7237 0
1248 -7235 0
7238 -7239 -7236 0
-7238 7239 0
-7238 7236 0
-1246 7240 7238 0
1246 -7240 0
1246 -7238 0
7241 -7230 -7242 0
-7241 7230 0
-7241 7242 0
-1232 7243 7241 0
1232 -7243 0
1232 -7241 0
7244 -7230 -7245 0
-7244 7230 0
-7244 7245 0
-1239 7246 7244 0
1239 -7246 0
1239 -7244 0
7247 -7239 -7245 0
-7247 7239 0
-7247 7245 0
-1241 7248 7247 0
1241 -7248 0
1241 -7247 0
7249 -7233 -7239 0
-7249 7233 0
-7249 7239 0
-1223 7250 7249 0
1223 -7250 0
1223 -7249 0
7251 -7233 -7233 0
-7251 7233 0
-7251 7233 0
-1230 7252 7251 0
1230 -7252 0
1230 -7251 0
7253 -7233 -7242 0
-7253 7233 0
-7253 7242 0
-1237 7254 7253 0
1237 -7254 0
1237 -7253 0
7255 -7233 -7245 0
-7255 7233 0
-7255 7245 0
-1244 7256 7255 0
1244 -7256 0
1244 -7255 0
7257 -7236 -7245 0
-7257 7236 0
-7257 7245 0
-1251 7258 7257 0
1251 -7258 0
1251 -7257 0
7259 -7242 -7239 0
-7259 7242 0
-7259 7239 0
-1235 7260 7259 0
1235 -7260 0
1235 -7259 0
7261 -7242 -7236 0
-7261 7242 0
-7261 7236 0
-1256 7262 7261 0
1256 -7262 0
1256 -7261 0
7263 -7242 -7242 0
-7263 7242 0
-7263 7242 0
-1262 7264 7263 0
1262 -7264 0
1262 -7263 0
7265 -7266 -7266 0
-7265 7266 0
-7265 7266 0
-2735 7267 7265 0
2735 -7267 0
2735 -7265 0
7268 -7266 -7269 0
-7268 7266 0
-7268 7269 0
-2729 7270 7268 0
2729 -7270 0
2729 -7268 0
7271 -7266 -7272 0
-7271 7266 0
-7271 7272 0
-2728 7273 7271 0
2728 -7273 0
2728 -7271 0
7274 -7275 -7272 0
-7274 7275 0
-7274 7272 0
-2751 7276 7274 0
2751 -7276 0
2751 -7274 0
7277 -7266 -7278 0
-7277 7266 0
-7277 7278 0
-2742 7279 7277 0
2742 -7279 0
2742 -7277 0
7280 -7266 -7281 0
-7280 7266 0
-7280 7281 0
-2749 7282 7280 0
2749 -7282 0
2749 -7280 0
7283 -7275 -7281 0
-7283 7275 0
-7283 7281 0
-2756 7284 7283 0
2756 -7284 0
2756 -7283 0
7285 -7269 -7275 0
-7285 7269 0
-7285 7275 0
-2753 7286 7285 0
2753 -7286 0
2753 -7285 0
7287 -7269 -7269 0
-7287 7269 0
-7287 7269 0
-2733 7288 7287 0
2733 -7288 0
2733 -7287 0
7289 -7269 -7278 0
-7289 7269 0
-7289 7278 0
-2737 7290 7289 0
2737 -7290 0
2737 -7289 0
7291 -7269 -7281 0
-7291 7269 0
-7291 7281 0
-2744 7292 7291 0
2744 -7292 0
2744 -7291 0
7293 -7272 -7281 0
-7293 7272 0
-7293 7281 0
-2746 7294 7293 0
2746 -7294 0
2746 -7293 0
7295 -7278 -7275 0
-7295 7278 0
-7295 7275 0
-2761 7296 7295 0
2761 -7296 0
2761 -7295 0
7297 -7278 -7272 0
-7297 7278 0
-7297 7272 0
-2740 7298 7297 0
2740 -7298 0
2740 -7297 0
7299 -7278 -7278 0
-7299 7278 0
-7299 7278 0
-2767 7300 7299 0
2767 -7300 0
2767 -7299 0
7301 -7302 -7302 0
-7301 7302 0
-7301 7302 0
-4478 7303 7301 0
4478 -7303 0
4478 -7301 0
7304 -7302 -7305 0
-7304 7302 0
-7304 7305 0
-4474 7306 7304 0
4474 -7306 0
4474 -7304 0
7307 -7302 -7308 0
-7307 7302 0
-7307 7308 0
-4492 7309 7307 0
4492 -7309 0
4492 -7307 0
7310 -7311 -7308 0
-7310 7311 0
-7310 7308 0
-2971 7312 7310 0
2971 -7312 0
2971 -7310 0
7313 -7302 -7314 0
-7313 7302 0
-7313 7314 0
-4481 7315 7313 0
4481 -7315 0
4481 -7313 0
7316 -7302 -7317 0
-7316 7302 0
-7316 7317 0
-4486 7318 7316 0
4486 -7318 0
4486 -7316 0
7319 -7311 -7317 0
-7319 7311 0
-7319 7317 0
-2968 7320 7319 0
2968 -7320 0
2968 -7319 0
7321 -7305 -7311 0
-7321 7305 0
-7321 7311 0
-2961 7322 7321 0
2961 -7322 0
2961 -7321 0
7323 -7305 -7305 0
-7323 7305 0
-7323 7305 0
-2963 7324 7323 0
2963 -7324 0
2963 -7323 0
7325 -7305 -7314 0
-7325 7305 0
-7325 7314 0
-2966 7326 7325 0
2966 -7326 0
2966 -7325 0
7327 -7305 -7317 0
-7327 7305 0
-7327 7317 0
-2969 7328 7327 0
2969 -7328 0
2969 -7327 0
7329 -7308 -7317 0
-7329 7308 0
-7329 7317 0
-2972 7330 7329 0
2972 -7330 0
2972 -7329 0
7331 -7314 -7311 0
-7331 7314 0
-7331 7311 0
-2965 7332 7331 0
2965 -7332 0
2965 -7331 0
7333 -7314 -7308 0
-7333 7314 0
-7333 7308 0
-2974 7334 7333 0
2974 -7334 0
2974 -7333 0
7335 -7314 -7314 0
-7335 7314 0
-7335 7314 0
-2977 7336 7335 0
2977 -7336 0
2977 -7335 0
7337 -7100 -7100 0
-7337 7100 0
-7337 7100 0
-2128 7085 7337 0
2128 -7085 0
2128 -7337 0
7338 -7100 -7110 0
-7338 7100 0
-7338 7110 0
-2122 7088 7338 0
2122 -7088 0
2122 -7338 0
7339 -7100 -7112 0
-7339 7100 0
-7339 7112 0
-2121 7091 7339 0
2121 -7091 0
2121 -7339 0
7340 -7102 -7112 0
-7340 7102 0
-7340 7112 0
-2144 7094 7340 0
2144 -7094 0
2144 -7340 0
7341 -7100 -7342 0
-7341 7100 0
-7341 7342 0
-2135 7343 7341 0
2135 -7343 0
2135 -7341 0
7344 -7100 -7099 0
-7344 7100 0
-7344 7099 0
-2142 7084 7344 0
2142 -7084 0
2142 -7344 0
7345 -7102 -7099 0
-7345 7102 0
-7345 7099 0
-2149 7093 7345 0
2149 -7093 0
2149 -7345 0
7346 -7110 -7102 0
-7346 7110 0
-7346 7102 0
-2146 7104 7346 0
2146 -7104 0
2146 -7346 0
7347 -7110 -7110 0
-7347 7110 0
-7347 7110 0
-2126 7106 7347 0
2126 -7106 0
2126 -7347 0
7348 -7110 -7342 0
-7348 7110 0
-7348 7342 0
-2130 7349 7348 0
2130 -7349 0
2130 -7348 0
7350 -7110 -7099 0
-7350 7110 0
-7350 7099 0
-2137 7087 7350 0
2137 -7087 0
2137 -7350 0
7351 -7112 -7099 0
-7351 7112 0
-7351 7099 0
-2139 7090 7351 0
2139 -7090 0
2139 -7351 0
7352 -7342 -7102 0
-7352 7342 0
-7352 7102 0
-2154 7353 7352 0
2154 -7353 0
2154 -7352 0
7354 -7342 -7112 0
-7354 7342 0
-7354 7112 0
-2133 7355 7354 0
2133 -7355 0
2133 -7354 0
7356 -7342 -7342 0
-7356 7342 0
-7356 7342 0
-2160 7357 7356 0
2160 -7357 0
2160 -7356 0
7358 -6829 -6826 0
-7358 6829 0
-7358 6826 0
7359 -6826 -6826 0
-7359 6826 0
-7359 6826 0
7360 -6826 -6829 0
-7360 6826 0
-7360 6829 0
7361 -6829 -6829 -6844 0
-7361 6829 0
-7361 6829 0
-7361 6844 0
-2557 6823 7358 7359 7360 7361 0
2557 -6823 0
2557 -7358 0
2557 -7359 0
2557 -7360 0
2557 -7361 0
7362 -6829 -6879 0
-7362 6829 0
-7362 6879 0
7363 -6826 -6879 0
-7363 6826 0
-7363 6879 0
7364 -6826 -6884 0
-7364 6826 0
-7364 6884 0
7365 -6829 -6884 -6844 0
-7365 6829 0
-7365 6884 0
-7365 6844 0
-2551 6873 7362 7363 7364 7365 0
2551 -6873 0
2551 -7362 0
2551 -7363 0
2551 -7364 0
2551 -7365 0
7366 -6829 -6825 0
-7366 6829 0
-7366 6825 0
7367 -6826 -6828 0
-7367 6826 0
-7367 6828 0
7368 -6826 -6825 0
-7368 6826 0
-7368 6825 0
7369 -6829 -6828 -6844 0
-7369 6829 0
-7369 6828 0
-7369 6844 0
-2550 6822 7366 7367 7368 7369 0
2550 -6822 0
2550 -7366 0
2550 -7367 0
2550 -7368 0
2550 -7369 0
7370 -6832 -6825 0
-7370 6832 0
-7370 6825 0
7371 -6842 -6825 0
-7371 6842 0
-7371 6825 0
7372 -6842 -6828 0
-7372 6842 0
-7372 6828 0
7373 -6832 -6828 -6844 0
-7373 6832 0
-7373 6828 0
-7373 6844 0
-2573 6831 7370 7371 7372 7373 0
2573 -6831 0
2573 -7370 0
2573 -7371 0
2573 -7372 0
2573 -7373 0
7374 -6829 -6846 0
-7374 6829 0
-7374 6846 0
7375 -6826 -6846 0
-7375 6826 0
-7375 6846 0
7376 -6826 -6854 0
-7376 6826 0
-7376 6854 0
7377 -6829 -6854 -6844 0
-7377 6829 0
-7377 6854 0
-7377 6844 0
-2564 6835 7374 7375 7376 7377 0
2564 -6835 0
2564 -7374 0
2564 -7375 0
2564 -7376 0
2564 -7377 0
7378 -6829 -6848 0
-7378 6829 0
-7378 6848 0
7379 -6826 -6850 0
-7379 6826 0
-7379 6850 0
7380 -6826 -6848 0
-7380 6826 0
-7380 6848 0
7381 -6829 -6850 -6844 0
-7381 6829 0
-7381 6850 0
-7381 6844 0
-2571 6838 7378 7379 7380 7381 0
2571 -6838 0
2571 -7378 0
2571 -7379 0
2571 -7380 0
2571 -7381 0
7382 -6832 -6848 0
-7382 6832 0
-7382 6848 0
7383 -6842 -6848 0
-7383 6842 0
-7383 6848 0
7384 -6842 -6850 0
-7384 6842 0
-7384 6850 0
7385 -6832 -6850 -6844 0
-7385 6832 0
-7385 6850 0
-7385 6844 0
-2578 6840 7382 7383 7384 7385 0
2578 -6840 0
2578 -7382 0
2578 -7383 0
2578 -7384 0
2578 -7385 0
7386 -6884 -6842 0
-7386 6884 0
-7386 6842 0
7387 -6879 -6832 0
-7387 6879 0
-7387 6832 0
7388 -6879 -6842 0
-7388 6879 0
-7388 6842 0
7389 -6884 -6832 -6844 0
-7389 6884 0
-7389 6832 0
-7389 6844 0
-2575 6890 7386 7387 7388 7389 0
2575 -6890 0
2575 -7386 0
2575 -7387 0
2575 -7388 0
2575 -7389 0
7390 -6884 -6879 0
-7390 6884 0
-7390 6879 0
6912 -6879 -6879 0
-6912 6879 0
-6912 6879 0
7391 -6879 -6884 0
-7391 6879 0
-7391 6884 0
7392 -6884 -6884 -6844 0
-7392 6884 0
-7392 6884 0
-7392 6844 0
-2555 6877 7390 6912 7391 7392 0
2555 -6877 0
2555 -7390 0
2555 -6912 0
2555 -7391 0
2555 -7392 0
7393 -6884 -6846 0
-7393 6884 0
-7393 6846 0
7394 -6879 -6846 0
-7394 6879 0
-7394 6846 0
7395 -6879 -6854 0
-7395 6879 0
-7395 6854 0
7396 -6884 -6854 -6844 0
-7396 6884 0
-7396 6854 0
-7396 6844 0
-2559 6894 7393 7394 7395 7396 0
2559 -6894 0
2559 -7393 0
2559 -7394 0
2559 -7395 0
2559 -7396 0
7397 -6884 -6848 0
-7397 6884 0
-7397 6848 0
7398 -6879 -6850 0
-7398 6879 0
-7398 6850 0
7399 -6879 -6848 0
-7399 6879 0
-7399 6848 0
7400 -6884 -6850 -6844 0
-7400 6884 0
-7400 6850 0
-7400 6844 0
-2566 6899 7397 7398 7399 7400 0
2566 -6899 0
2566 -7397 0
2566 -7398 0
2566 -7399 0
2566 -7400 0
7401 -6828 -6848 0
-7401 6828 0
-7401 6848 0
7402 -6825 -6848 0
-7402 6825 0
-7402 6848 0
7403 -6825 -6850 0
-7403 6825 0
-7403 6850 0
7404 -6828 -6850 -6844 0
-7404 6828 0
-7404 6850 0
-7404 6844 0
-2568 6837 7401 7402 7403 7404 0
2568 -6837 0
2568 -7401 0
2568 -7402 0
2568 -7403 0
2568 -7404 0
7405 -6854 -6842 0
-7405 6854 0
-7405 6842 0
7406 -6846 -6832 0
-7406 6846 0
-7406 6832 0
7407 -6846 -6842 0
-7407 6846 0
-7407 6842 0
7408 -6854 -6832 -6844 0
-7408 6854 0
-7408 6832 0
-7408 6844 0
-2583 6852 7405 7406 7407 7408 0
2583 -6852 0
2583 -7405 0
2583 -7406 0
2583 -7407 0
2583 -7408 0
7409 -6854 -6825 0
-7409 6854 0
-7409 6825 0
7410 -6846 -6828 0
-7410 6846 0
-7410 6828 0
7411 -6846 -6825 0
-7411 6846 0
-7411 6825 0
7412 -6854 -6828 -6844 0
-7412 6854 0
-7412 6828 0
-7412 6844 0
-2562 6834 7409 7410 7411 7412 0
2562 -6834 0
2562 -7409 0
2562 -7410 0
2562 -7411 0
2562 -7412 0
7413 -6854 -6846 0
-7413 6854 0
-7413 6846 0
7414 -6846 -6846 0
-7414 6846 0
-7414 6846 0
7415 -6846 -6854 0
-7415 6846 0
-7415 6854 0
7416 -6854 -6854 -6844 0
-7416 6854 0
-7416 6854 0
-7416 6844 0
-2589 6856 7413 7414 7415 7416 0
2589 -6856 0
2589 -7413 0
2589 -7414 0
2589 -7415 0
2589 -7416 0
7417 -6455 -6588 0
-7417 6455 0
-7417 6588 0
7418 -6588 -6588 0
-7418 6588 0
-7418 6588 0
7419 -6588 -6455 0
-7419 6588 0
-7419 6455 0
7420 -6455 -6455 -6618 0
-7420 6455 0
-7420 6455 0
-7420 6618 0
-4344 6456 7417 7418 7419 7420 0
4344 -6456 0
4344 -7417 0
4344 -7418 0
4344 -7419 0
4344 -7420 0
7421 -6455 -6583 0
-7421 6455 0
-7421 6583 0
7422 -6588 -6583 0
-7422 6588 0
-7422 6583 0
7423 -6588 -6458 0
-7423 6588 0
-7423 6458 0
7424 -6455 -6458 -6618 0
-7424 6455 0
-7424 6458 0
-7424 6618 0
-4340 6459 7421 7422 7423 7424 0
4340 -6459 0
4340 -7421 0
4340 -7422 0
4340 -7423 0
4340 -7424 0
7425 -6455 -6586 0
-7425 6455 0
-7425 6586 0
7426 -6588 -6461 0
-7426 6588 0
-7426 6461 0
7427 -6588 -6586 0
-7427 6588 0
-7427 6586 0
7428 -6455 -6461 -6618 0
-7428 6455 0
-7428 6461 0
-7428 6618 0
-4364 6462 7425 7426 7427 7428 0
4364 -6462 0
4364 -7425 0
4364 -7426 0
4364 -7427 0
4364 -7428 0
7429 -6464 -6586 0
-7429 6464 0
-7429 6586 0
7430 -6613 -6586 0
-7430 6613 0
-7430 6586 0
7431 -6613 -6461 0
-7431 6613 0
-7431 6461 0
7432 -6464 -6461 -6618 0
-7432 6464 0
-7432 6461 0
-7432 6618 0
-4362 6465 7429 7430 7431 7432 0
4362 -6465 0
4362 -7429 0
4362 -7430 0
4362 -7431 0
4362 -7432 0
7433 -6455 -6623 0
-7433 6455 0
-7433 6623 0
7434 -6588 -6623 0
-7434 6588 0
-7434 6623 0
7435 -6588 -6467 0
-7435 6588 0
-7435 6467 0
7436 -6455 -6467 -6618 0
-7436 6455 0
-7436 6467 0
-7436 6618 0
-4348 6468 7433 7434 7435 7436 0
4348 -6468 0
4348 -7433 0
4348 -7434 0
4348 -7435 0
4348 -7436 0
7437 -6455 -6628 0
-7437 6455 0
-7437 6628 0
7438 -6588 -6470 0
-7438 6588 0
-7438 6470 0
7439 -6588 -6628 0
-7439 6588 0
-7439 6628 0
7440 -6455 -6470 -6618 0
-7440 6455 0
-7440 6470 0
-7440 6618 0
-4355 6471 7437 7438 7439 7440 0
4355 -6471 0
4355 -7437 0
4355 -7438 0
4355 -7439 0
4355 -7440 0
7441 -6464 -6628 0
-7441 6464 0
-7441 6628 0
7442 -6613 -6628 0
-7442 6613 0
-7442 6628 0
7443 -6613 -6470 0
-7443 6613 0
-7443 6470 0
7444 -6464 -6470 -6618 0
-7444 6464 0
-7444 6470 0
-7444 6618 0
-4357 6473 7441 7442 7443 7444 0
4357 -6473 0
4357 -7441 0
4357 -7442 0
4357 -7443 0
4357 -7444 0
7445 -6458 -6613 0
-7445 6458 0
-7445 6613 0
7446 -6583 -6464 0
-7446 6583 0
-7446 6464 0
7447 -6583 -6613 0
-7447 6583 0
-7447 6613 0
7448 -6458 -6464 -6618 0
-7448 6458 0
-7448 6464 0
-7448 6618 0
-4339 6475 7445 7446 7447 7448 0
4339 -6475 0
4339 -7445 0
4339 -7446 0
4339 -7447 0
4339 -7448 0
7449 -6458 -6583 0
-7449 6458 0
-7449 6583 0
6615 -6583 -6583 0
-6615 6583 0
-6615 6583 0
7450 -6583 -6458 0
-7450 6583 0
-7450 6458 0
7451 -6458 -6458 -6618 0
-7451 6458 0
-7451 6458 0
-7451 6618 0
-4346 6477 7449 6615 7450 7451 0
4346 -6477 0
4346 -7449 0
4346 -6615 0
4346 -7450 0
4346 -7451 0
7452 -6458 -6623 0
-7452 6458 0
-7452 6623 0
7453 -6583 -6623 0
-7453 6583 0
-7453 6623 0
7454 -6583 -6467 0
-7454 6583 0
-7454 6467 0
7455 -6458 -6467 -6618 0
-7455 6458 0
-7455 6467 0
-7455 6618 0
-4353 6479 7452 7453 7454 7455 0
4353 -6479 0
4353 -7452 0
4353 -7453 0
4353 -7454 0
4353 -7455 0
7456 -6458 -6628 0
-7456 6458 0
-7456 6628 0
7457 -6583 -6470 0
-7457 6583 0
-7457 6470 0
7458 -6583 -6628 0
-7458 6583 0
-7458 6628 0
7459 -6458 -6470 -6618 0
-7459 6458 0
-7459 6470 0
-7459 6618 0
-4360 6481 7456 7457 7458 7459 0
4360 -6481 0
4360 -7456 0
4360 -7457 0
4360 -7458 0
4360 -7459 0
7460 -6461 -6628 0
-7460 6461 0
-7460 6628 0
7461 -6586 -6628 0
-7461 6586 0
-7461 6628 0
7462 -6586 -6470 0
-7462 6586 0
-7462 6470 0
7463 -6461 -6470 -6618 0
-7463 6461 0
-7463 6470 0
-7463 6618 0
-4367 6483 7460 7461 7462 7463 0
4367 -6483 0
4367 -7460 0
4367 -7461 0
4367 -7462 0
4367 -7463 0
7464 -6467 -6613 0
-7464 6467 0
-7464 6613 0
7465 -6623 -6464 0
-7465 6623 0
-7465 6464 0
7466 -6623 -6613 0
-7466 6623 0
-7466 6613 0
7467 -6467 -6464 -6618 0
-7467 6467 0
-7467 6464 0
-7467 6618 0
-4351 6485 7464 7465 7466 7467 0
4351 -6485 0
4351 -7464 0
4351 -7465 0
4351 -7466 0
4351 -7467 0
7468 -6467 -6586 0
-7468 6467 0
-7468 6586 0
7469 -6623 -6461 0
-7469 6623 0
-7469 6461 0
7470 -6623 -6586 0
-7470 6623 0
-7470 6586 0
7471 -6467 -6461 -6618 0
-7471 6467 0
-7471 6461 0
-7471 6618 0
-4372 6487 7468 7469 7470 7471 0
4372 -6487 0
4372 -7468 0
4372 -7469 0
4372 -7470 0
4372 -7471 0
7472 -6467 -6623 0
-7472 6467 0
-7472 6623 0
7473 -6623 -6623 0
-7473 6623 0
-7473 6623 0
7474 -6623 -6467 0
-7474 6623 0
-7474 6467 0
7475 -6467 -6467 -6618 0
-7475 6467 0
-7475 6467 0
-7475 6618 0
-4378 6489 7472 7473 7474 7475 0
4378 -6489 0
4378 -7472 0
4378 -7473 0
4378 -7474 0
4378 -7475 0
7476 -7477 -7478 0
-7476 7477 0
-7476 7478 0
7479 -7478 -7478 0
-7479 7478 0
-7479 7478 0
7480 -7478 -7477 0
-7480 7478 0
-7480 7477 0
7481 -7477 -7477 -7482 0
-7481 7477 0
-7481 7477 0
-7481 7482 0
-3509 7483 7476 7479 7480 7481 0
3509 -7483 0
3509 -7476 0
3509 -7479 0
3509 -7480 0
3509 -7481 0
7484 -7477 -7485 0
-7484 7477 0
-7484 7485 0
7486 -7478 -7485 0
-7486 7478 0
-7486 7485 0
7487 -7478 -7488 0
-7487 7478 0
-7487 7488 0
7489 -7477 -7488 -7482 0
-7489 7477 0
-7489 7488 0
-7489 7482 0
-3505 7490 7484 7486 7487 7489 0
3505 -7490 0
3505 -7484 0
3505 -7486 0
3505 -7487 0
3505 -7489 0
7491 -7477 -7492 0
-7491 7477 0
-7491 7492 0
7493 -7478 -7494 0
-7493 7478 0
-7493 7494 0
7495 -7478 -7492 0
-7495 7478 0
-7495 7492 0
7496 -7477 -7494 -7482 0
-7496 7477 0
-7496 7494 0
-7496 7482 0
-3529 7497 7491 7493 7495 7496 0
3529 -7497 0
3529 -7491 0
3529 -7493 0
3529 -7495 0
3529 -7496 0
7498 -7499 -7492 0
-7498 7499 0
-7498 7492 0
7500 -7501 -7492 0
-7500 7501 0
-7500 7492 0
7502 -7501 -7494 0
-7502 7501 0
-7502 7494 0
7503 -7499 -7494 -7482 0
-7503 7499 0
-7503 7494 0
-7503 7482 0
-3527 7504 7498 7500 7502 7503 0
3527 -7504 0
3527 -7498 0
3527 -7500 0
3527 -7502 0
3527 -7503 0
7505 -7477 -7506 0
-7505 7477 0
-7505 7506 0
7507 -7478 -7506 0
-7507 7478 0
-7507 7506 0
7508 -7478 -7509 0
-7508 7478 0
-7508 7509 0
7510 -7477 -7509 -7482 0
-7510 7477 0
-7510 7509 0
-7510 7482 0
-3513 7511 7505 7507 7508 7510 0
3513 -7511 0
3513 -7505 0
3513 -7507 0
3513 -7508 0
3513 -7510 0
7512 -7477 -7513 0
-7512 7477 0
-7512 7513 0
7514 -7478 -7515 0
-7514 7478 0
-7514 7515 0
7516 -7478 -7513 0
-7516 7478 0
-7516 7513 0
7517 -7477 -7515 -7482 0
-7517 7477 0
-7517 7515 0
-7517 7482 0
-3520 7518 7512 7514 7516 7517 0
3520 -7518 0
3520 -7512 0
3520 -7514 0
3520 -7516 0
3520 -7517 0
7519 -7499 -7513 0
-7519 7499 0
-7519 7513 0
7520 -7501 -7513 0
-7520 7501 0
-7520 7513 0
7521 -7501 -7515 0
-7521 7501 0
-7521 7515 0
7522 -7499 -7515 -7482 0
-7522 7499 0
-7522 7515 0
-7522 7482 0
-3522 7523 7519 7520 7521 7522 0
3522 -7523 0
3522 -7519 0
3522 -7520 0
3522 -7521 0
3522 -7522 0
7524 -7488 -7501 0
-7524 7488 0
-7524 7501 0
7525 -7485 -7499 0
-7525 7485 0
-7525 7499 0
7526 -7485 -7501 0
-7526 7485 0
-7526 7501 0
7527 -7488 -7499 -7482 0
-7527 7488 0
-7527 7499 0
-7527 7482 0
-3504 7528 7524 7525 7526 7527 0
3504 -7528 0
3504 -7524 0
3504 -7525 0
3504 -7526 0
3504 -7527 0
7529 -7488 -7485 0
-7529 7488 0
-7529 7485 0
7530 -7485 -7485 0
-7530 7485 0
-7530 7485 0
7531 -7485 -7488 0
-7531 7485 0
-7531 7488 0
7532 -7488 -7488 -7482 0
-7532 7488 0
-7532 7488 0
-7532 7482 0
-3511 7533 7529 7530 7531 7532 0
3511 -7533 0
3511 -7529 0
3511 -7530 0
3511 -7531 0
3511 -7532 0
7534 -7488 -7506 0
-7534 7488 0
-7534 7506 0
7535 -7485 -7506 0
-7535 7485 0
-7535 7506 0
7536 -7485 -7509 0
-7536 7485 0
-7536 7509 0
7537 -7488 -7509 -7482 0
-7537 7488 0
-7537 7509 0
-7537 7482 0
-3518 7538 7534 7535 7536 7537 0
3518 -7538 0
3518 -7534 0
3518 -7535 0
3518 -7536 0
3518 -7537 0
7539 -7488 -7513 0
-7539 7488 0
-7539 7513 0
7540 -7485 -7515 0
-7540 7485 0
-7540 7515 0
7541 -7485 -7513 0
-7541 7485 0
-7541 7513 0
7542 -7488 -7515 -7482 0
-7542 7488 0
-7542 7515 0
-7542 7482 0
-3525 7543 7539 7540 7541 7542 0
3525 -7543 0
3525 -7539 0
3525 -7540 0
3525 -7541 0
3525 -7542 0
7544 -7494 -7513 0
-7544 7494 0
-7544 7513 0
7545 -7492 -7513 0
-7545 7492 0
-7545 7513 0
7546 -7492 -7515 0
-7546 7492 0
-7546 7515 0
7547 -7494 -7515 -7482 0
-7547 7494 0
-7547 7515 0
-7547 7482 0
-3532 7548 7544 7545 7546 7547 0
3532 -7548 0
3532 -7544 0
3532 -7545 0
3532 -7546 0
3532 -7547 0
7549 -7509 -7501 0
-7549 7509 0
-7549 7501 0
7550 -7506 -7499 0
-7550 7506 0
-7550 7499 0
7551 -7506 -7501 0
-7551 7506 0
-7551 7501 0
7552 -7509 -7499 -7482 0
-7552 7509 0
-7552 7499 0
-7552 7482 0
-3516 7553 7549 7550 7551 7552 0
3516 -7553 0
3516 -7549 0
3516 -7550 0
3516 -7551 0
3516 -7552 0
7554 -7509 -7492 0
-7554 7509 0
-7554 7492 0
7555 -7506 -7494 0
-7555 7506 0
-7555 7494 0
7556 -7506 -7492 0
-7556 7506 0
-7556 7492 0
7557 -7509 -7494 -7482 0
-7557 7509 0
-7557 7494 0
-7557 7482 0
-3537 7558 7554 7555 7556 7557 0
3537 -7558 0
3537 -7554 0
3537 -7555 0
3537 -7556 0
3537 -7557 0
7559 -7509 -7506 0
-7559 7509 0
-7559 7506 0
7560 -7506 -7506 0
-7560 7506 0
-7560 7506 0
7561 -7506 -7509 0
-7561 7506 0
-7561 7509 0
7562 -7509 -7509 -7482 0
-7562 7509 0
-7562 7509 0
-7562 7482 0
-3543 7563 7559 7560 7561 7562 0
3543 -7563 0
3543 -7559 0
3543 -7560 0
3543 -7561 0
3543 -7562 0
7564 -7565 -7565 0
-7564 7565 0
-7564 7565 0
-3400 7566 7564 0
3400 -7566 0
3400 -7564 0
7567 -7565 -7568 0
-7567 7565 0
-7567 7568 0
-3396 7569 7567 0
3396 -7569 0
3396 -7567 0
7570 -7565 -7571 0
-7570 7565 0
-7570 7571 0
-3420 7572 7570 0
3420 -7572 0
3420 -7570 0
7573 -7574 -7571 0
-7573 7574 0
-7573 7571 0
-3418 7575 7573 0
3418 -7575 0
3418 -7573 0
7576 -7565 -7577 0
-7576 7565 0
-7576 7577 0
-3404 7578 7576 0
3404 -7578 0
3404 -7576 0
7579 -7565 -7580 0
-7579 7565 0
-7579 7580 0
-3411 7581 7579 0
3411 -7581 0
3411 -7579 0
7582 -7574 -7580 0
-7582 7574 0
-7582 7580 0
-3413 7583 7582 0
3413 -7583 0
3413 -7582 0
7584 -7568 -7574 0
-7584 7568 0
-7584 7574 0
-3395 7585 7584 0
3395 -7585 0
3395 -7584 0
7586 -7568 -7568 0
-7586 7568 0
-7586 7568 0
-3402 7587 7586 0
3402 -7587 0
3402 -7586 0
7588 -7568 -7577 0
-7588 7568 0
-7588 7577 0
-3409 7589 7588 0
3409 -7589 0
3409 -7588 0
7590 -7568 -7580 0
-7590 7568 0
-7590 7580 0
-3416 7591 7590 0
3416 -7591 0
3416 -7590 0
7592 -7571 -7580 0
-7592 7571 0
-7592 7580 0
-3423 7593 7592 0
3423 -7593 0
3423 -7592 0
7594 -7577 -7574 0
-7594 7577 0
-7594 7574 0
-3407 7595 7594 0
3407 -7595 0
3407 -7594 0
7596 -7577 -7571 0
-7596 7577 0
-7596 7571 0
-3428 7597 7596 0
3428 -7597 0
3428 -7596 0
7598 -7577 -7577 0
-7598 7577 0
-7598 7577 0
-3434 7599 7598 0
3434 -7599 0
3434 -7598 0
7600 -7601 -7602 0
-7600 7601 0
-7600 7602 0
7603 -7602 -7602 0
-7603 7602 0
-7603 7602 0
7604 -7602 -7601 0
-7604 7602 0
-7604 7601 0
7605 -7601 -7601 -7606 0
-7605 7601 0
-7605 7601 0
-7605 7606 0
-2484 7607 7600 7603 7604 7605 0
2484 -7607 0
2484 -7600 0
2484 -7603 0
2484 -7604 0
2484 -7605 0
7608 -7601 -7609 0
-7608 7601 0
-7608 7609 0
7610 -7602 -7609 0
-7610 7602 0
-7610 7609 0
7611 -7602 -7612 0
-7611 7602 0
-7611 7612 0
7613 -7601 -7612 -7606 0
-7613 7601 0
-7613 7612 0
-7613 7606 0
-2480 7614 7608 7610 7611 7613 0
2480 -7614 0
2480 -7608 0
2480 -7610 0
2480 -7611 0
2480 -7613 0
7615 -7601 -7616 0
-7615 7601 0
-7615 7616 0
7617 -7602 -7618 0
-7617 7602 0
-7617 7618 0
7619 -7602 -7616 0
-7619 7602 0
-7619 7616 0
7620 -7601 -7618 -7606 0
-7620 7601 0
-7620 7618 0
-7620 7606 0
-2504 7621 7615 7617 7619 7620 0
2504 -7621 0
2504 -7615 0
2504 -7617 0
2504 -7619 0
2504 -7620 0
7622 -7623 -7616 0
-7622 7623 0
-7622 7616 0
7624 -7625 -7616 0
-7624 7625 0
-7624 7616 0
7626 -7625 -7618 0
-7626 7625 0
-7626 7618 0
7627 -7623 -7618 -7606 0
-7627 7623 0
-7627 7618 0
-7627 7606 0
-2502 7628 7622 7624 7626 7627 0
2502 -7628 0
2502 -7622 0
2502 -7624 0
2502 -7626 0
2502 -7627 0
7629 -7601 -7630 0
-7629 7601 0
-7629 7630 0
7631 -7602 -7630 0
-7631 7602 0
-7631 7630 0
7632 -7602 -7633 0
-7632 7602 0
-7632 7633 0
7634 -7601 -7633 -7606 0
-7634 7601 0
-7634 7633 0
-7634 7606 0
-2488 7635 7629 7631 7632 7634 0
2488 -7635 0
2488 -7629 0
2488 -7631 0
2488 -7632 0
2488 -7634 0
7636 -7601 -7637 0
-7636 7601 0
-7636 7637 0
7638 -7602 -7639 0
-7638 7602 0
-7638 7639 0
7640 -7602 -7637 0
-7640 7602 0
-7640 7637 0
7641 -7601 -7639 -7606 0
-7641 7601 0
-7641 7639 0
-7641 7606 0
-2495 7642 7636 7638 7640 7641 0
2495 -7642 0
2495 -7636 0
2495 -7638 0
2495 -7640 0
2495 -7641 0
7643 -7623 -7637 0
-7643 7623 0
-7643 7637 0
7644 -7625 -7637 0
-7644 7625 0
-7644 7637 0
7645 -7625 -7639 0
-7645 7625 0
-7645 7639 0
7646 -7623 -7639 -7606 0
-7646 7623 0
-7646 7639 0
-7646 7606 0
-2497 7647 7643 7644 7645 7646 0
2497 -7647 0
2497 -7643 0
2497 -7644 0
2497 -7645 0
2497 -7646 0
7648 -7612 -7625 0
-7648 7612 0
-7648 7625 0
7649 -7609 -7623 0
-7649 7609 0
-7649 7623 0
7650 -7609 -7625 0
-7650 7609 0
-7650 7625 0
7651 -7612 -7623 -7606 0
-7651 7612 0
-7651 7623 0
-7651 7606 0
-2479 7652 7648 7649 7650 7651 0
2479 -7652 0
2479 -7648 0
2479 -7649 0
2479 -7650 0
2479 -7651 0
7653 -7612 -7609 0
-7653 7612 0
-7653 7609 0
7654 -7609 -7609 0
-7654 7609 0
-7654 7609 0
7655 -7609 -7612 0
-7655 7609 0
-7655 7612 0
7656 -7612 -7612 -7606 0
-7656 7612 0
-7656 7612 0
-7656 7606 0
-2486 7657 7653 7654 7655 7656 0
2486 -7657 0
2486 -7653 0
2486 -7654 0
2486 -7655 0
2486 -7656 0
7658 -7612 -7630 0
-7658 7612 0
-7658 7630 0
7659 -7609 -7630 0
-7659 7609 0
-7659 7630 0
7660 -7609 -7633 0
-7660 7609 0
-7660 7633 0
7661 -7612 -7633 -7606 0
-7661 7612 0
-7661 7633 0
-7661 7606 0
-2493 7662 7658 7659 7660 7661 0
2493 -7662 0
2493 -7658 0
2493 -7659 0
2493 -7660 0
2493 -7661 0
7663 -7612 -7637 0
-7663 7612 0
-7663 7637 0
7664 -7609 -7639 0
-7664 7609 0
-7664 7639 0
7665 -7609 -7637 0
-7665 7609 0
-7665 7637 0
7666 -7612 -7639 -7606 0
-7666 7612 0
-7666 7639 0
-7666 7606 0
-2500 7667 7663 7664 7665 7666 0
2500 -7667 0
2500 -7663 0
2500 -7664 0
2500 -7665 0
2500 -7666 0
7668 -7618 -7637 0
-7668 7618 0
-7668 7637 0
7669 -7616 -7637 0
-7669 7616 0
-7669 7637 0
7670 -7616 -7639 0
-7670 7616 0
-7670 7639 0
7671 -7618 -7639 -7606 0
-7671 7618 0
-7671 7639 0
-7671 7606 0
-2507 7672 7668 7669 7670 7671 0
2507 -7672 0
2507 -7668 0
2507 -7669 0
2507 -7670 0
2507 -7671 0
7673 -7633 -7625 0
-7673 7633 0
-7673 7625 0
7674 -7630 -7623 0
-7674 7630 0
-7674 7623 0
7675 -7630 -7625 0
-7675 7630 0
-7675 7625 0
7676 -7633 -7623 -7606 0
-7676 7633 0
-7676 7623 0
-7676 7606 0
-2491 7677 7673 7674 7675 7676 0
2491 -7677 0
2491 -7673 0
2491 -7674 0
2491 -7675 0
2491 -7676 0
7678 -7633 -7616 0
-7678 7633 0
-7678 7616 0
7679 -7630 -7618 0
-7679 7630 0
-7679 7618 0
7680 -7630 -7616 0
-7680 7630 0
-7680 7616 0
7681 -7633 -7618 -7606 0
-7681 7633 0
-7681 7618 0
-7681 7606 0
-2512 7682 7678 7679 7680 7681 0
2512 -7682 0
2512 -7678 0
2512 -7679 0
2512 -7680 0
2512 -7681 0
7683 -7633 -7630 0
-7683 7633 0
-7683 7630 0
7684 -7630 -7630 0
-7684 7630 0
-7684 7630 0
7685 -7630 -7633 0
-7685 7630 0
-7685 7633 0
7686 -7633 -7633 -7606 0
-7686 7633 0
-7686 7633 0
-7686 7606 0
-2518 7687 7683 7684 7685 7686 0
2518 -7687 0
2518 -7683 0
2518 -7684 0
2518 -7685 0
2518 -7686 0
7688 -6983 -6980 0
-7688 6983 0
-7688 6980 0
7689 -6980 -6980 0
-7689 6980 0
-7689 6980 0
7690 -6980 -6983 0
-7690 6980 0
-7690 6983 0
7691 -6983 -6983 -6998 0
-7691 6983 0
-7691 6983 0
-7691 6998 0
-3944 6977 7688 7689 7690 7691 0
3944 -6977 0
3944 -7688 0
3944 -7689 0
3944 -7690 0
3944 -7691 0
7692 -6983 -7693 0
-7692 6983 0
-7692 7693 0
7694 -6980 -7693 0
-7694 6980 0
-7694 7693 0
7695 -6980 -7696 0
-7695 6980 0
-7695 7696 0
7697 -6983 -7696 -6998 0
-7697 6983 0
-7697 7696 0
-7697 6998 0
-3940 7698 7692 7694 7695 7697 0
3940 -7698 0
3940 -7692 0
3940 -7694 0
3940 -7695 0
3940 -7697 0
7699 -6983 -6979 0
-7699 6983 0
-7699 6979 0
7700 -6980 -6982 0
-7700 6980 0
-7700 6982 0
7701 -6980 -6979 0
-7701 6980 0
-7701 6979 0
7702 -6983 -6982 -6998 0
-7702 6983 0
-7702 6982 0
-7702 6998 0
-3964 6976 7699 7700 7701 7702 0
3964 -6976 0
3964 -7699 0
3964 -7700 0
3964 -7701 0
3964 -7702 0
7703 -6986 -6979 0
-7703 6986 0
-7703 6979 0
7704 -6996 -6979 0
-7704 6996 0
-7704 6979 0
7705 -6996 -6982 0
-7705 6996 0
-7705 6982 0
7706 -6986 -6982 -6998 0
-7706 6986 0
-7706 6982 0
-7706 6998 0
-3962 6985 7703 7704 7705 7706 0
3962 -6985 0
3962 -7703 0
3962 -7704 0
3962 -7705 0
3962 -7706 0
7707 -6983 -7000 0
-7707 6983 0
-7707 7000 0
7708 -6980 -7000 0
-7708 6980 0
-7708 7000 0
7709 -6980 -7008 0
-7709 6980 0
-7709 7008 0
7710 -6983 -7008 -6998 0
-7710 6983 0
-7710 7008 0
-7710 6998 0
-3948 6989 7707 7708 7709 7710 0
3948 -6989 0
3948 -7707 0
3948 -7708 0
3948 -7709 0
3948 -7710 0
7711 -6983 -7002 0
-7711 6983 0
-7711 7002 0
7712 -6980 -7004 0
-7712 6980 0
-7712 7004 0
7713 -6980 -7002 0
-7713 6980 0
-7713 7002 0
7714 -6983 -7004 -6998 0
-7714 6983 0
-7714 7004 0
-7714 6998 0
-3955 6992 7711 7712 7713 7714 0
3955 -6992 0
3955 -7711 0
3955 -7712 0
3955 -7713 0
3955 -7714 0
7715 -6986 -7002 0
-7715 6986 0
-7715 7002 0
7716 -6996 -7002 0
-7716 6996 0
-7716 7002 0
7717 -6996 -7004 0
-7717 6996 0
-7717 7004 0
7718 -6986 -7004 -6998 0
-7718 6986 0
-7718 7004 0
-7718 6998 0
-3957 6994 7715 7716 7717 7718 0
3957 -6994 0
3957 -7715 0
3957 -7716 0
3957 -7717 0
3957 -7718 0
7719 -7696 -6996 0
-7719 7696 0
-7719 6996 0
7720 -7693 -6986 0
-7720 7693 0
-7720 6986 0
7721 -7693 -6996 0
-7721 7693 0
-7721 6996 0
7722 -7696 -6986 -6998 0
-7722 7696 0
-7722 6986 0
-7722 6998 0
-3939 7723 7719 7720 7721 7722 0
3939 -7723 0
3939 -7719 0
3939 -7720 0
3939 -7721 0
3939 -7722 0
7724 -7696 -7693 0
-7724 7696 0
-7724 7693 0
7725 -7693 -7693 0
-7725 7693 0
-7725 7693 0
7726 -7693 -7696 0
-7726 7693 0
-7726 7696 0
7727 -7696 -7696 -6998 0
-7727 7696 0
-7727 7696 0
-7727 6998 0
-3946 7728 7724 7725 7726 7727 0
3946 -7728 0
3946 -7724 0
3946 -7725 0
3946 -7726 0
3946 -7727 0
7729 -7696 -7000 0
-7729 7696 0
-7729 7000 0
7730 -7693 -7000 0
-7730 7693 0
-7730 7000 0
7731 -7693 -7008 0
-7731 7693 0
-7731 7008 0
7732 -7696 -7008 -6998 0
-7732 7696 0
-7732 7008 0
-7732 6998 0
-3953 7733 7729 7730 7731 7732 0
3953 -7733 0
3953 -7729 0
3953 -7730 0
3953 -7731 0
3953 -7732 0
7734 -7696 -7002 0
-7734 7696 0
-7734 7002 0
7735 -7693 -7004 0
-7735 7693 0
-7735 7004 0
7736 -7693 -7002 0
-7736 7693 0
-7736 7002 0
7737 -7696 -7004 -6998 0
-7737 7696 0
-7737 7004 0
-7737 6998 0
-3960 7738 7734 7735 7736 7737 0
3960 -7738 0
3960 -7734 0
3960 -7735 0
3960 -7736 0
3960 -7737 0
7739 -6982 -7002 0
-7739 6982 0
-7739 7002 0
7740 -6979 -7002 0
-7740 6979 0
-7740 7002 0
7741 -6979 -7004 0
-7741 6979 0
-7741 7004 0
7742 -6982 -7004 -6998 0
-7742 6982 0
-7742 7004 0
-7742 6998 0
-3967 6991 7739 7740 7741 7742 0
3967 -6991 0
3967 -7739 0
3967 -7740 0
3967 -7741 0
3967 -7742 0
7743 -7008 -6996 0
-7743 7008 0
-7743 6996 0
7744 -7000 -6986 0
-7744 7000 0
-7744 6986 0
7745 -7000 -6996 0
-7745 7000 0
-7745 6996 0
7746 -7008 -6986 -6998 0
-7746 7008 0
-7746 6986 0
-7746 6998 0
-3951 7006 7743 7744 7745 7746 0
3951 -7006 0
3951 -7743 0
3951 -7744 0
3951 -7745 0
3951 -7746 0
7747 -7008 -6979 0
-7747 7008 0
-7747 6979 0
7748 -7000 -6982 0
-7748 7000 0
-7748 6982 0
7749 -7000 -6979 0
-7749 7000 0
-7749 6979 0
7750 -7008 -6982 -6998 0
-7750 7008 0
-7750 6982 0
-7750 6998 0
-3972 6988 7747 7748 7749 7750 0
3972 -6988 0
3972 -7747 0
3972 -7748 0
3972 -7749 0
3972 -7750 0
7751 -7008 -7000 0
-7751 7008 0
-7751 7000 0
7752 -7000 -7000 0
-7752 7000 0
-7752 7000 0
7753 -7000 -7008 0
-7753 7000 0
-7753 7008 0
7754 -7008 -7008 -6998 0
-7754 7008 0
-7754 7008 0
-7754 6998 0
-3978 7010 7751 7752 7753 7754 0
3978 -7010 0
3978 -7751 0
3978 -7752 0
3978 -7753 0
3978 -7754 0
7755 -7756 -7756 0
-7755 7756 0
-7755 7756 0
-2044 7757 7755 0
2044 -7757 0
2044 -7755 0
7758 -7756 -7759 0
-7758 7756 0
-7758 7759 0
-2040 7760 7758 0
2040 -7760 0
2040 -7758 0
7761 -7756 -7762 0
-7761 7756 0
-7761 7762 0
-2064 7763 7761 0
2064 -7763 0
2064 -7761 0
7764 -7765 -7762 0
-7764 7765 0
-7764 7762 0
-2062 7766 7764 0
2062 -7766 0
2062 -7764 0
7767 -7756 -7768 0
-7767 7756 0
-7767 7768 0
-2048 7769 7767 0
2048 -7769 0
2048 -7767 0
7770 -7756 -7771 0
-7770 7756 0
-7770 7771 0
-2055 7772 7770 0
2055 -7772 0
2055 -7770 0
7773 -7765 -7771 0
-7773 7765 0
-7773 7771 0
-2057 7774 7773 0
2057 -7774 0
2057 -7773 0
7775 -7759 -7765 0
-7775 7759 0
-7775 7765 0
-2039 7776 7775 0
2039 -7776 0
2039 -7775 0
7777 -7759 -7759 0
-7777 7759 0
-7777 7759 0
-2046 7778 7777 0
2046 -7778 0
2046 -7777 0
7779 -7759 -7768 0
-7779 7759 0
-7779 7768 0
-2053 7780 7779 0
2053 -7780 0
2053 -7779 0
7781 -7759 -7771 0
-7781 7759 0
-7781 7771 0
-2060 7782 7781 0
2060 -7782 0
2060 -7781 0
7783 -7762 -7771 0
-7783 7762 0
-7783 7771 0
-2067 7784 7783 0
2067 -7784 0
2067 -7783 0
7785 -7768 -7765 0
-7785 7768 0
-7785 7765 0
-2051 7786 7785 0
2051 -7786 0
2051 -7785 0
7787 -7768 -7762 0
-7787 7768 0
-7787 7762 0
-2072 7788 7787 0
2072 -7788 0
2072 -7787 0
7789 -7768 -7768 0
-7789 7768 0
-7789 7768 0
-2078 7790 7789 0
2078 -7790 0
2078 -7789 0
7791 -7792 -7792 0
-7791 7792 0
-7791 7792 0
-1736 7793 7791 0
1736 -7793 0
1736 -7791 0
7794 -7792 -7795 0
-7794 7792 0
-7794 7795 0
-1732 7796 7794 0
1732 -7796 0
1732 -7794 0
7797 -7792 -7798 0
-7797 7792 0
-7797 7798 0
-1756 7799 7797 0
1756 -7799 0
1756 -7797 0
7800 -7801 -7798 0
-7800 7801 0
-7800 7798 0
-1754 7802 7800 0
1754 -7802 0
1754 -7800 0
7803 -7792 -7804 0
-7803 7792 0
-7803 7804 0
-1740 7805 7803 0
1740 -7805 0
1740 -7803 0
7806 -7792 -7807 0
-7806 7792 0
-7806 7807 0
-1747 7808 7806 0
1747 -7808 0
1747 -7806 0
7809 -7801 -7807 0
-7809 7801 0
-7809 7807 0
-1749 7810 7809 0
1749 -7810 0
1749 -7809 0
7811 -7795 -7801 0
-7811 7795 0
-7811 7801 0
-1731 7812 7811 0
1731 -7812 0
1731 -7811 0
7813 -7795 -7795 0
-7813 7795 0
-7813 7795 0
-1738 7814 7813 0
1738 -7814 0
1738 -7813 0
7815 -7795 -7804 0
-7815 7795 0
-7815 7804 0
-1745 7816 7815 0
1745 -7816 0
1745 -7815 0
7817 -7795 -7807 0
-7817 7795 0
-7817 7807 0
-1752 7818 7817 0
1752 -7818 0
1752 -7817 0
7819 -7798 -7807 0
-7819 7798 0
-7819 7807 0
-1759 7820 7819 0
1759 -7820 0
1759 -7819 0
7821 -7804 -7801 0
-7821 7804 0
-7821 7801 0
-1743 7822 7821 0
1743 -7822 0
1743 -7821 0
7823 -7804 -7798 0
-7823 7804 0
-7823 7798 0
-1764 7824 7823 0
1764 -7824 0
1764 -7823 0
7825 -7804 -7804 0
-7825 7804 0
-7825 7804 0
-1770 7826 7825 0
1770 -7826 0
1770 -7825 0
7827 -7828 -7829 0
-7827 7828 0
-7827 7829 0
7830 -7829 -7829 0
-7830 7829 0
-7830 7829 0
7831 -7829 -7828 0
-7831 7829 0
-7831 7828 0
7832 -7828 -7828 -7833 0
-7832 7828 0
-7832 7828 0
-7832 7833 0
-1351 7834 7827 7830 7831 7832 0
1351 -7834 0
1351 -7827 0
1351 -7830 0
1351 -7831 0
1351 -7832 0
7835 -7828 -7836 0
-7835 7828 0
-7835 7836 0
7837 -7829 -7836 0
-7837 7829 0
-7837 7836 0
7838 -7829 -7839 0
-7838 7829 0
-7838 7839 0
7840 -7828 -7839 -7833 0
-7840 7828 0
-7840 7839 0
-7840 7833 0
-1347 7841 7835 7837 7838 7840 0
1347 -7841 0
1347 -7835 0
1347 -7837 0
1347 -7838 0
1347 -7840 0
7842 -7828 -7843 0
-7842 7828 0
-7842 7843 0
7844 -7829 -7845 0
-7844 7829 0
-7844 7845 0
7846 -7829 -7843 0
-7846 7829 0
-7846 7843 0
7847 -7828 -7845 -7833 0
-7847 7828 0
-7847 7845 0
-7847 7833 0
-1371 7848 7842 7844 7846 7847 0
1371 -7848 0
1371 -7842 0
1371 -7844 0
1371 -7846 0
1371 -7847 0
7849 -7850 -7843 0
-7849 7850 0
-7849 7843 0
7851 -7852 -7843 0
-7851 7852 0
-7851 7843 0
7853 -7852 -7845 0
-7853 7852 0
-7853 7845 0
7854 -7850 -7845 -7833 0
-7854 7850 0
-7854 7845 0
-7854 7833 0
-1369 7855 7849 7851 7853 7854 0
1369 -7855 0
1369 -7849 0
1369 -7851 0
1369 -7853 0
1369 -7854 0
7856 -7828 -7857 0
-7856 7828 0
-7856 7857 0
7858 -7829 -7857 0
-7858 7829 0
-7858 7857 0
7859 -7829 -7860 0
-7859 7829 0
-7859 7860 0
7861 -7828 -7860 -7833 0
-7861 7828 0
-7861 7860 0
-7861 7833 0
-1355 7862 7856 7858 7859 7861 0
1355 -7862 0
1355 -7856 0
1355 -7858 0
1355 -7859 0
1355 -7861 0
7863 -7828 -7864 0
-7863 7828 0
-7863 7864 0
7865 -7829 -7866 0
-7865 7829 0
-7865 7866 0
7867 -7829 -7864 0
-7867 7829 0
-7867 7864 0
7868 -7828 -7866 -7833 0
-7868 7828 0
-7868 7866 0
-7868 7833 0
-1362 7869 7863 7865 7867 7868 0
1362 -7869 0
1362 -7863 0
1362 -7865 0
1362 -7867 0
1362 -7868 0
7870 -7850 -7864 0
-7870 7850 0
-7870 7864 0
7871 -7852 -7864 0
-7871 7852 0
-7871 7864 0
7872 -7852 -7866 0
-7872 7852 0
-7872 7866 0
7873 -7850 -7866 -7833 0
-7873 7850 0
-7873 7866 0
-7873 7833 0
-1364 7874 7870 7871 7872 7873 0
1364 -7874 0
1364 -7870 0
1364 -7871 0
1364 -7872 0
1364 -7873 0
7875 -7839 -7852 0
-7875 7839 0
-7875 7852 0
7876 -7836 -7850 0
-7876 7836 0
-7876 7850 0
7877 -7836 -7852 0
-7877 7836 0
-7877 7852 0
7878 -7839 -7850 -7833 0
-7878 7839 0
-7878 7850 0
-7878 7833 0
-1346 7879 7875 7876 7877 7878 0
1346 -7879 0
1346 -7875 0
1346 -7876 0
1346 -7877 0
1346 -7878 0
7880 -7839 -7836 0
-7880 7839 0
-7880 7836 0
7881 -7836 -7836 0
-7881 7836 0
-7881 7836 0
7882 -7836 -7839 0
-7882 7836 0
-7882 7839 0
7883 -7839 -7839 -7833 0
-7883 7839 0
-7883 7839 0
-7883 7833 0
-1353 7884 7880 7881 7882 7883 0
1353 -7884 0
1353 -7880 0
1353 -7881 0
1353 -7882 0
1353 -7883 0
7885 -7839 -7857 0
-7885 7839 0
-7885 7857 0
7886 -7836 -7857 0
-7886 7836 0
-7886 7857 0
7887 -7836 -7860 0
-7887 7836 0
-7887 7860 0
7888 -7839 -7860 -7833 0
-7888 7839 0
-7888 7860 0
-7888 7833 0
-1360 7889 7885 7886 7887 7888 0
1360 -7889 0
1360 -7885 0
1360 -7886 0
1360 -7887 0
1360 -7888 0
7890 -7839 -7864 0
-7890 7839 0
-7890 7864 0
7891 -7836 -7866 0
-7891 7836 0
-7891 7866 0
7892 -7836 -7864 0
-7892 7836 0
-7892 7864 0
7893 -7839 -7866 -7833 0
-7893 7839 0
-7893 7866 0
-7893 7833 0
-1367 7894 7890 7891 7892 7893 0
1367 -7894 0
1367 -7890 0
1367 -7891 0
1367 -7892 0
1367 -7893 0
7895 -7845 -7864 0
-7895 7845 0
-7895 7864 0
7896 -7843 -7864 0
-7896 7843 0
-7896 7864 0
7897 -7843 -7866 0
-7897 7843 0
-7897 7866 0
7898 -7845 -7866 -7833 0
-7898 7845 0
-7898 7866 0
-7898 7833 0
-1374 7899 7895 7896 7897 7898 0
1374 -7899 0
1374 -7895 0
1374 -7896 0
1374 -7897 0
1374 -7898 0
7900 -7860 -7852 0
-7900 7860 0
-7900 7852 0
7901 -7857 -7850 0
-7901 7857 0
-7901 7850 0
7902 -7857 -7852 0
-7902 7857 0
-7902 7852 0
7903 -7860 -7850 -7833 0
-7903 7860 0
-7903 7850 0
-7903 7833 0
-1358 7904 7900 7901 7902 7903 0
1358 -7904 0
1358 -7900 0
1358 -7901 0
1358 -7902 0
1358 -7903 0
7905 -7860 -7843 0
-7905 7860 0
-7905 7843 0
7906 -7857 -7845 0
-7906 7857 0
-7906 7845 0
7907 -7857 -7843 0
-7907 7857 0
-7907 7843 0
7908 -7860 -7845 -7833 0
-7908 7860 0
-7908 7845 0
-7908 7833 0
-1379 7909 7905 7906 7907 7908 0
1379 -7909 0
1379 -7905 0
1379 -7906 0
1379 -7907 0
1379 -7908 0
7910 -7860 -7857 0
-7910 7860 0
-7910 7857 0
7911 -7857 -7857 0
-7911 7857 0
-7911 7857 0
7912 -7857 -7860 0
-7912 7857 0
-7912 7860 0
7913 -7860 -7860 -7833 0
-7913 7860 0
-7913 7860 0
-7913 7833 0
-1385 7914 7910 7911 7912 7913 0
1385 -7914 0
1385 -7910 0
1385 -7911 0
1385 -7912 0
1385 -7913 0
7915 -7273 -7270 0
-7915 7273 0
-7915 7270 0
7916 -7270 -7270 0
-7916 7270 0
-7916 7270 0
7917 -7270 -7273 0
-7917 7270 0
-7917 7273 0
7918 -7273 -7273 -7288 0
-7918 7273 0
-7918 7273 0
-7918 7288 0
-5644 7267 7915 7916 7917 7918 0
5644 -7267 0
5644 -7915 0
5644 -7916 0
5644 -7917 0
5644 -7918 0
7919 -7273 -7920 0
-7919 7273 0
-7919 7920 0
7921 -7270 -7920 0
-7921 7270 0
-7921 7920 0
7922 -7270 -7923 0
-7922 7270 0
-7922 7923 0
7924 -7273 -7923 -7288 0
-7924 7273 0
-7924 7923 0
-7924 7288 0
-5640 7925 7919 7921 7922 7924 0
5640 -7925 0
5640 -7919 0
5640 -7921 0
5640 -7922 0
5640 -7924 0
7926 -7273 -7269 0
-7926 7273 0
-7926 7269 0
7927 -7270 -7272 0
-7927 7270 0
-7927 7272 0
7928 -7270 -7269 0
-7928 7270 0
-7928 7269 0
7929 -7273 -7272 -7288 0
-7929 7273 0
-7929 7272 0
-7929 7288 0
-5664 7266 7926 7927 7928 7929 0
5664 -7266 0
5664 -7926 0
5664 -7927 0
5664 -7928 0
5664 -7929 0
7930 -7276 -7269 0
-7930 7276 0
-7930 7269 0
7931 -7286 -7269 0
-7931 7286 0
-7931 7269 0
7932 -7286 -7272 0
-7932 7286 0
-7932 7272 0
7933 -7276 -7272 -7288 0
-7933 7276 0
-7933 7272 0
-7933 7288 0
-5662 7275 7930 7931 7932 7933 0
5662 -7275 0
5662 -7930 0
5662 -7931 0
5662 -7932 0
5662 -7933 0
7934 -7273 -7290 0
-7934 7273 0
-7934 7290 0
7935 -7270 -7290 0
-7935 7270 0
-7935 7290 0
7936 -7270 -7298 0
-7936 7270 0
-7936 7298 0
7937 -7273 -7298 -7288 0
-7937 7273 0
-7937 7298 0
-7937 7288 0
-5648 7279 7934 7935 7936 7937 0
5648 -7279 0
5648 -7934 0
5648 -7935 0
5648 -7936 0
5648 -7937 0
7938 -7273 -7292 0
-7938 7273 0
-7938 7292 0
7939 -7270 -7294 0
-7939 7270 0
-7939 7294 0
7940 -7270 -7292 0
-7940 7270 0
-7940 7292 0
7941 -7273 -7294 -7288 0
-7941 7273 0
-7941 7294 0
-7941 7288 0
-5655 7282 7938 7939 7940 7941 0
5655 -7282 0
5655 -7938 0
5655 -7939 0
5655 -7940 0
5655 -7941 0
7942 -7276 -7292 0
-7942 7276 0
-7942 7292 0
7943 -7286 -7292 0
-7943 7286 0
-7943 7292 0
7944 -7286 -7294 0
-7944 7286 0
-7944 7294 0
7945 -7276 -7294 -7288 0
-7945 7276 0
-7945 7294 0
-7945 7288 0
-5657 7284 7942 7943 7944 7945 0
5657 -7284 0
5657 -7942 0
5657 -7943 0
5657 -7944 0
5657 -7945 0
7946 -7923 -7286 0
-7946 7923 0
-7946 7286 0
7947 -7920 -7276 0
-7947 7920 0
-7947 7276 0
7948 -7920 -7286 0
-7948 7920 0
-7948 7286 0
7949 -7923 -7276 -7288 0
-7949 7923 0
-7949 7276 0
-7949 7288 0
-5639 7950 7946 7947 7948 7949 0
5639 -7950 0
5639 -7946 0
5639 -7947 0
5639 -7948 0
5639 -7949 0
7951 -7923 -7920 0
-7951 7923 0
-7951 7920 0
7952 -7920 -7920 0
-7952 7920 0
-7952 7920 0
7953 -7920 -7923 0
-7953 7920 0
-7953 7923 0
7954 -7923 -7923 -7288 0
-7954 7923 0
-7954 7923 0
-7954 7288 0
-5646 7955 7951 7952 7953 7954 0
5646 -7955 0
5646 -7951 0
5646 -7952 0
5646 -7953 0
5646 -7954 0
7956 -7923 -7290 0
-7956 7923 0
-7956 7290 0
7957 -7920 -7290 0
-7957 7920 0
-7957 7290 0
7958 -7920 -7298 0
-7958 7920 0
-7958 7298 0
7959 -7923 -7298 -7288 0
-7959 7923 0
-7959 7298 0
-7959 7288 0
-5653 7960 7956 7957 7958 7959 0
5653 -7960 0
5653 -7956 0
5653 -7957 0
5653 -7958 0
5653 -7959 0
7961 -7923 -7292 0
-7961 7923 0
-7961 7292 0
7962 -7920 -7294 0
-7962 7920 0
-7962 7294 0
7963 -7920 -7292 0
-7963 7920 0
-7963 7292 0
7964 -7923 -7294 -7288 0
-7964 7923 0
-7964 7294 0
-7964 7288 0
-5660 7965 7961 7962 7963 7964 0
5660 -7965 0
5660 -7961 0
5660 -7962 0
5660 -7963 0
5660 -7964 0
7966 -7272 -7292 0
-7966 7272 0
-7966 7292 0
7967 -7269 -7292 0
-7967 7269 0
-7967 7292 0
7968 -7269 -7294 0
-7968 7269 0
-7968 7294 0
7969 -7272 -7294 -7288 0
-7969 7272 0
-7969 7294 0
-7969 7288 0
-5667 7281 7966 7967 7968 7969 0
5667 -7281 0
5667 -7966 0
5667 -7967 0
5667 -7968 0
5667 -7969 0
7970 -7298 -7286 0
-7970 7298 0
-7970 7286 0
7971 -7290 -7276 0
-7971 7290 0
-7971 7276 0
7972 -7290 -7286 0
-7972 7290 0
-7972 7286 0
7973 -7298 -7276 -7288 0
-7973 7298 0
-7973 7276 0
-7973 7288 0
-5651 7296 7970 7971 7972 7973 0
5651 -7296 0
5651 -7970 0
5651 -7971 0
5651 -7972 0
5651 -7973 0
7974 -7298 -7269 0
-7974 7298 0
-7974 7269 0
7975 -7290 -7272 0
-7975 7290 0
-7975 7272 0
7976 -7290 -7269 0
-7976 7290 0
-7976 7269 0
7977 -7298 -7272 -7288 0
-7977 7298 0
-7977 7272 0
-7977 7288 0
-5672 7278 7974 7975 7976 7977 0
5672 -7278 0
5672 -7974 0
5672 -7975 0
5672 -7976 0
5672 -7977 0
7978 -7298 -7290 0
-7978 7298 0
-7978 7290 0
7979 -7290 -7290 0
-7979 7290 0
-7979 7290 0
7980 -7290 -7298 0
-7980 7290 0
-7980 7298 0
7981 -7298 -7298 -7288 0
-7981 7298 0
-7981 7298 0
-7981 7288 0
-5678 7300 7978 7979 7980 7981 0
5678 -7300 0
5678 -7978 0
5678 -7979 0
5678 -7980 0
5678 -7981 0
7982 -7983 -7984 0
-7982 7983 0
-7982 7984 0
7985 -7984 -7984 0
-7985 7984 0
-7985 7984 0
7986 -7984 -7983 0
-7986 7984 0
-7986 7983 0
7987 -7983 -7983 -7988 0
-7987 7983 0
-7987 7983 0
-7987 7988 0
-3590 7989 7982 7985 7986 7987 0
3590 -7989 0
3590 -7982 0
3590 -7985 0
3590 -7986 0
3590 -7987 0
7990 -7983 -7991 0
-7990 7983 0
-7990 7991 0
7992 -7984 -7991 0
-7992 7984 0
-7992 7991 0
7993 -7984 -7994 0
-7993 7984 0
-7993 7994 0
7995 -7983 -7994 -7988 0
-7995 7983 0
-7995 7994 0
-7995 7988 0
-3586 7996 7990 7992 7993 7995 0
3586 -7996 0
3586 -7990 0
3586 -7992 0
3586 -7993 0
3586 -7995 0
7997 -7983 -7998 0
-7997 7983 0
-7997 7998 0
7999 -7984 -8000 0
-7999 7984 0
-7999 8000 0
8001 -7984 -7998 0
-8001 7984 0
-8001 7998 0
8002 -7983 -8000 -7988 0
-8002 7983 0
-8002 8000 0
-8002 7988 0
-3604 8003 7997 7999 8001 8002 0
3604 -8003 0
3604 -7997 0
3604 -7999 0
3604 -8001 0
3604 -8002 0
8004 -8005 -7998 0
-8004 8005 0
-8004 7998 0
8006 -8007 -7998 0
-8006 8007 0
-8006 7998 0
8008 -8007 -8000 0
-8008 8007 0
-8008 8000 0
8009 -8005 -8000 -7988 0
-8009 8005 0
-8009 8000 0
-8009 7988 0
-1582 8010 8004 8006 8008 8009 0
1582 -8010 0
1582 -8004 0
1582 -8006 0
1582 -8008 0
1582 -8009 0
8011 -7983 -8012 0
-8011 7983 0
-8011 8012 0
8013 -7984 -8012 0
-8013 7984 0
-8013 8012 0
8014 -7984 -8015 0
-8014 7984 0
-8014 8015 0
8016 -7983 -8015 -7988 0
-8016 7983 0
-8016 8015 0
-8016 7988 0
-3593 8017 8011 8013 8014 8016 0
3593 -8017 0
3593 -8011 0
3593 -8013 0
3593 -8014 0
3593 -8016 0
8018 -7983 -8019 0
-8018 7983 0
-8018 8019 0
8020 -7984 -8021 0
-8020 7984 0
-8020 8021 0
8022 -7984 -8019 0
-8022 7984 0
-8022 8019 0
8023 -7983 -8021 -7988 0
-8023 7983 0
-8023 8021 0
-8023 7988 0
-3598 8024 8018 8020 8022 8023 0
3598 -8024 0
3598 -8018 0
3598 -8020 0
3598 -8022 0
3598 -8023 0
8025 -8005 -8019 0
-8025 8005 0
-8025 8019 0
8026 -8007 -8019 0
-8026 8007 0
-8026 8019 0
8027 -8007 -8021 0
-8027 8007 0
-8027 8021 0
8028 -8005 -8021 -7988 0
-8028 8005 0
-8028 8021 0
-8028 7988 0
-1579 8029 8025 8026 8027 8028 0
1579 -8029 0
1579 -8025 0
1579 -8026 0
1579 -8027 0
1579 -8028 0
8030 -7994 -8007 0
-8030 7994 0
-8030 8007 0
8031 -7991 -8005 0
-8031 7991 0
-8031 8005 0
8032 -7991 -8007 0
-8032 7991 0
-8032 8007 0
8033 -7994 -8005 -7988 0
-8033 7994 0
-8033 8005 0
-8033 7988 0
-1572 8034 8030 8031 8032 8033 0
1572 -8034 0
1572 -8030 0
1572 -8031 0
1572 -8032 0
1572 -8033 0
8035 -7994 -7991 0
-8035 7994 0
-8035 7991 0
8036 -7991 -7991 0
-8036 7991 0
-8036 7991 0
8037 -7991 -7994 0
-8037 7991 0
-8037 7994 0
8038 -7994 -7994 -7988 0
-8038 7994 0
-8038 7994 0
-8038 7988 0
-1574 8039 8035 8036 8037 8038 0
1574 -8039 0
1574 -8035 0
1574 -8036 0
1574 -8037 0
1574 -8038 0
8040 -7994 -8012 0
-8040 7994 0
-8040 8012 0
8041 -7991 -8012 0
-8041 7991 0
-8041 8012 0
8042 -7991 -8015 0
-8042 7991 0
-8042 8015 0
8043 -7994 -8015 -7988 0
-8043 7994 0
-8043 8015 0
-8043 7988 0
-1577 8044 8040 8041 8042 8043 0
1577 -8044 0
1577 -8040 0
1577 -8041 0
1577 -8042 0
1577 -8043 0
8045 -7994 -8019 0
-8045 7994 0
-8045 8019 0
8046 -7991 -8021 0
-8046 7991 0
-8046 8021 0
8047 -7991 -8019 0
-8047 7991 0
-8047 8019 0
8048 -7994 -8021 -7988 0
-8048 7994 0
-8048 8021 0
-8048 7988 0
-1580 8049 8045 8046 8047 8048 0
1580 -8049 0
1580 -8045 0
1580 -8046 0
1580 -8047 0
1580 -8048 0
8050 -8000 -8019 0
-8050 8000 0
-8050 8019 0
8051 -7998 -8019 0
-8051 7998 0
-8051 8019 0
8052 -7998 -8021 0
-8052 7998 0
-8052 8021 0
8053 -8000 -8021 -7988 0
-8053 8000 0
-8053 8021 0
-8053 7988 0
-1583 8054 8050 8051 8052 8053 0
1583 -8054 0
1583 -8050 0
1583 -8051 0
1583 -8052 0
1583 -8053 0
8055 -8015 -8007 0
-8055 8015 0
-8055 8007 0
8056 -8012 -8005 0
-8056 8012 0
-8056 8005 0
8057 -8012 -8007 0
-8057 8012 0
-8057 8007 0
8058 -8015 -8005 -7988 0
-8058 8015 0
-8058 8005 0
-8058 7988 0
-1576 8059 8055 8056 8057 8058 0
1576 -8059 0
1576 -8055 0
1576 -8056 0
1576 -8057 0
1576 -8058 0
8060 -8015 -7998 0
-8060 8015 0
-8060 7998 0
8061 -8012 -8000 0
-8061 8012 0
-8061 8000 0
8062 -8012 -7998 0
-8062 8012 0
-8062 7998 0
8063 -8015 -8000 -7988 0
-8063 8015 0
-8063 8000 0
-8063 7988 0
-1585 8064 8060 8061 8062 8063 0
1585 -8064 0
1585 -8060 0
1585 -8061 0
1585 -8062 0
1585 -8063 0
8065 -8015 -8012 0
-8065 8015 0
-8065 8012 0
8066 -8012 -8012 0
-8066 8012 0
-8066 8012 0
8067 -8012 -8015 0
-8067 8012 0
-8067 8015 0
8068 -8015 -8015 -7988 0
-8068 8015 0
-8068 8015 0
-8068 7988 0
-1588 8069 8065 8066 8067 8068 0
1588 -8069 0
1588 -8065 0
1588 -8066 0
1588 -8067 0
1588 -8068 0
8070 -7565 -8071 0
-8070 7565 0
-8070 8071 0
8072 -8071 -8071 0
-8072 8071 0
-8072 8071 0
8073 -8071 -7565 0
-8073 8071 0
-8073 7565 0
8074 -7565 -7565 -8075 0
-8074 7565 0
-8074 7565 0
-8074 8075 0
-6261 7566 8070 8072 8073 8074 0
6261 -7566 0
6261 -8070 0
6261 -8072 0
6261 -8073 0
6261 -8074 0
8076 -7565 -8077 0
-8076 7565 0
-8076 8077 0
8078 -8071 -8077 0
-8078 8071 0
-8078 8077 0
8079 -8071 -7568 0
-8079 8071 0
-8079 7568 0
8080 -7565 -7568 -8075 0
-8080 7565 0
-8080 7568 0
-8080 8075 0
-6257 7569 8076 8078 8079 8080 0
6257 -7569 0
6257 -8076 0
6257 -8078 0
6257 -8079 0
6257 -8080 0
8081 -7565 -8082 0
-8081 7565 0
-8081 8082 0
8083 -8071 -7571 0
-8083 8071 0
-8083 7571 0
8084 -8071 -8082 0
-8084 8071 0
-8084 8082 0
8085 -7565 -7571 -8075 0
-8085 7565 0
-8085 7571 0
-8085 8075 0
-6275 7572 8081 8083 8084 8085 0
6275 -7572 0
6275 -8081 0
6275 -8083 0
6275 -8084 0
6275 -8085 0
8086 -7574 -8082 0
-8086 7574 0
-8086 8082 0
8087 -8088 -8082 0
-8087 8088 0
-8087 8082 0
8089 -8088 -7571 0
-8089 8088 0
-8089 7571 0
8090 -7574 -7571 -8075 0
-8090 7574 0
-8090 7571 0
-8090 8075 0
-2812 7575 8086 8087 8089 8090 0
2812 -7575 0
2812 -8086 0
2812 -8087 0
2812 -8089 0
2812 -8090 0
8091 -7565 -8092 0
-8091 7565 0
-8091 8092 0
8093 -8071 -8092 0
-8093 8071 0
-8093 8092 0
8094 -8071 -7577 0
-8094 8071 0
-8094 7577 0
8095 -7565 -7577 -8075 0
-8095 7565 0
-8095 7577 0
-8095 8075 0
-6264 7578 8091 8093 8094 8095 0
6264 -7578 0
6264 -8091 0
6264 -8093 0
6264 -8094 0
6264 -8095 0
8096 -7565 -8097 0
-8096 7565 0
-8096 8097 0
8098 -8071 -7580 0
-8098 8071 0
-8098 7580 0
8099 -8071 -8097 0
-8099 8071 0
-8099 8097 0
8100 -7565 -7580 -8075 0
-8100 7565 0
-8100 7580 0
-8100 8075 0
-6269 7581 8096 8098 8099 8100 0
6269 -7581 0
6269 -8096 0
6269 -8098 0
6269 -8099 0
6269 -8100 0
8101 -7574 -8097 0
-8101 7574 0
-8101 8097 0
8102 -8088 -8097 0
-8102 8088 0
-8102 8097 0
8103 -8088 -7580 0
-8103 8088 0
-8103 7580 0
8104 -7574 -7580 -8075 0
-8104 7574 0
-8104 7580 0
-8104 8075 0
-2809 7583 8101 8102 8103 8104 0
2809 -7583 0
2809 -8101 0
2809 -8102 0
2809 -8103 0
2809 -8104 0
8105 -7568 -8088 0
-8105 7568 0
-8105 8088 0
8106 -8077 -7574 0
-8106 8077 0
-8106 7574 0
8107 -8077 -8088 0
-8107 8077 0
-8107 8088 0
8108 -7568 -7574 -8075 0
-8108 7568 0
-8108 7574 0
-8108 8075 0
-2802 7585 8105 8106 8107 8108 0
2802 -7585 0
2802 -8105 0
2802 -8106 0
2802 -8107 0
2802 -8108 0
8109 -7568 -8077 0
-8109 7568 0
-8109 8077 0
8110 -8077 -8077 0
-8110 8077 0
-8110 8077 0
8111 -8077 -7568 0
-8111 8077 0
-8111 7568 0
8112 -7568 -7568 -8075 0
-8112 7568 0
-8112 7568 0
-8112 8075 0
-2804 7587 8109 8110 8111 8112 0
2804 -7587 0
2804 -8109 0
2804 -8110 0
2804 -8111 0
2804 -8112 0
8113 -7568 -8092 0
-8113 7568 0
-8113 8092 0
8114 -8077 -8092 0
-8114 8077 0
-8114 8092 0
8115 -8077 -7577 0
-8115 8077 0
-8115 7577 0
8116 -7568 -7577 -8075 0
-8116 7568 0
-8116 7577 0
-8116 8075 0
-2807 7589 8113 8114 8115 8116 0
2807 -7589 0
2807 -8113 0
2807 -8114 0
2807 -8115 0
2807 -8116 0
8117 -7568 -8097 0
-8117 7568 0
-8117 8097 0
8118 -8077 -7580 0
-8118 8077 0
-8118 7580 0
8119 -8077 -8097 0
-8119 8077 0
-8119 8097 0
8120 -7568 -7580 -8075 0
-8120 7568 0
-8120 7580 0
-8120 8075 0
-2810 7591 8117 8118 8119 8120 0
2810 -7591 0
2810 -8117 0
2810 -8118 0
2810 -8119 0
2810 -8120 0
8121 -7571 -8097 0
-8121 7571 0
-8121 8097 0
8122 -8082 -8097 0
-8122 8082 0
-8122 8097 0
8123 -8082 -7580 0
-8123 8082 0
-8123 7580 0
8124 -7571 -7580 -8075 0
-8124 7571 0
-8124 7580 0
-8124 8075 0
-2813 7593 8121 8122 8123 8124 0
2813 -7593 0
2813 -8121 0
2813 -8122 0
2813 -8123 0
2813 -8124 0
8125 -7577 -8088 0
-8125 7577 0
-8125 8088 0
8126 -8092 -7574 0
-8126 8092 0
-8126 7574 0
8127 -8092 -8088 0
-8127 8092 0
-8127 8088 0
8128 -7577 -7574 -8075 0
-8128 7577 0
-8128 7574 0
-8128 8075 0
-2806 7595 8125 8126 8127 8128 0
2806 -7595 0
2806 -8125 0
2806 -8126 0
2806 -8127 0
2806 -8128 0
8129 -7577 -8082 0
-8129 7577 0
-8129 8082 0
8130 -8092 -7571 0
-8130 8092 0
-8130 7571 0
8131 -8092 -8082 0
-8131 8092 0
-8131 8082 0
8132 -7577 -7571 -8075 0
-8132 7577 0
-8132 7571 0
-8132 8075 0
-2815 7597 8129 8130 8131 8132 0
2815 -7597 0
2815 -8129 0
2815 -8130 0
2815 -8131 0
2815 -8132 0
8133 -7577 -8092 0
-8133 7577 0
-8133 8092 0
8134 -8092 -8092 0
-8134 8092 0
-8134 8092 0
8135 -8092 -7577 0
-8135 8092 0
-8135 7577 0
8136 -7577 -7577 -8075 0
-8136 7577 0
-8136 7577 0
-8136 8075 0
-2818 7599 8133 8134 8135 8136 0
2818 -7599 0
2818 -8133 0
2818 -8134 0
2818 -8135 0
2818 -8136 0
8137 -6687 -6687 0
-8137 6687 0
-8137 6687 0
-2087 6652 8137 0
2087 -6652 0
2087 -8137 0
8138 -6687 -6682 0
-8138 6687 0
-8138 6682 0
-2094 6647 8138 0
2094 -6647 0
2094 -8138 0
8139 -6687 -6684 0
-8139 6687 0
-8139 6684 0
-2101 6646 8139 0
2101 -6646 0
2101 -8139 0
8140 -6692 -6684 0
-8140 6692 0
-8140 6684 0
-2108 6668 8140 0
2108 -6668 0
2108 -8140 0
8141 -6687 -6712 0
-8141 6687 0
-8141 6712 0
-2081 6659 8141 0
2081 -6659 0
2081 -8141 0
8142 -6687 -6717 0
-8142 6687 0
-8142 6717 0
-2080 6666 8142 0
2080 -6666 0
2080 -8142 0
8143 -6692 -6717 0
-8143 6692 0
-8143 6717 0
-2103 6673 8143 0
2103 -6673 0
2103 -8143 0
8144 -6682 -6692 0
-8144 6682 0
-8144 6692 0
-2113 6670 8144 0
2113 -6670 0
2113 -8144 0
8145 -6682 -6682 0
-8145 6682 0
-8145 6682 0
-2119 6651 8145 0
2119 -6651 0
2119 -8145 0
8146 -6682 -6712 0
-8146 6682 0
-8146 6712 0
-2089 6654 8146 0
2089 -6654 0
2089 -8146 0
8147 -6682 -6717 0
-8147 6682 0
-8147 6717 0
-2092 6661 8147 0
2092 -6661 0
2092 -8147 0
8148 -6684 -6717 0
-8148 6684 0
-8148 6717 0
-2098 6663 8148 0
2098 -6663 0
2098 -8148 0
8149 -6712 -6692 0
-8149 6712 0
-8149 6692 0
-2105 6697 8149 0
2105 -6697 0
2105 -8149 0
8150 -6712 -6684 0
-8150 6712 0
-8150 6684 0
-2096 6657 8150 0
2096 -6657 0
2096 -8150 0
8151 -6712 -6712 0
-8151 6712 0
-8151 6712 0
-2085 6702 8151 0
2085 -6702 0
2085 -8151 0
8152 -7237 -7234 0
-8152 7237 0
-8152 7234 0
8153 -7234 -7234 0
-8153 7234 0
-8153 7234 0
8154 -7234 -7237 0
-8154 7234 0
-8154 7237 0
8155 -7237 -7237 -7252 0
-8155 7237 0
-8155 7237 0
-8155 7252 0
-6339 7231 8152 8153 8154 8155 0
6339 -7231 0
6339 -8152 0
6339 -8153 0
6339 -8154 0
6339 -8155 0
8156 -7237 -8157 0
-8156 7237 0
-8156 8157 0
8158 -7234 -8157 0
-8158 7234 0
-8158 8157 0
8159 -7234 -8160 0
-8159 7234 0
-8159 8160 0
8161 -7237 -8160 -7252 0
-8161 7237 0
-8161 8160 0
-8161 7252 0
-6335 8162 8156 8158 8159 8161 0
6335 -8162 0
6335 -8156 0
6335 -8158 0
6335 -8159 0
6335 -8161 0
8163 -7237 -7233 0
-8163 7237 0
-8163 7233 0
8164 -7234 -7236 0
-8164 7234 0
-8164 7236 0
8165 -7234 -7233 0
-8165 7234 0
-8165 7233 0
8166 -7237 -7236 -7252 0
-8166 7237 0
-8166 7236 0
-8166 7252 0
-6353 7230 8163 8164 8165 8166 0
6353 -7230 0
6353 -8163 0
6353 -8164 0
6353 -8165 0
6353 -8166 0
8167 -7240 -7233 0
-8167 7240 0
-8167 7233 0
8168 -7250 -7233 0
-8168 7250 0
-8168 7233 0
8169 -7250 -7236 0
-8169 7250 0
-8169 7236 0
8170 -7240 -7236 -7252 0
-8170 7240 0
-8170 7236 0
-8170 7252 0
-5053 7239 8167 8168 8169 8170 0
5053 -7239 0
5053 -8167 0
5053 -8168 0
5053 -8169 0
5053 -8170 0
8171 -7237 -7254 0
-8171 7237 0
-8171 7254 0
8172 -7234 -7254 0
-8172 7234 0
-8172 7254 0
8173 -7234 -7262 0
-8173 7234 0
-8173 7262 0
8174 -7237 -7262 -7252 0
-8174 7237 0
-8174 7262 0
-8174 7252 0
-6342 7243 8171 8172 8173 8174 0
6342 -7243 0
6342 -8171 0
6342 -8172 0
6342 -8173 0
6342 -8174 0
8175 -7237 -7256 0
-8175 7237 0
-8175 7256 0
8176 -7234 -7258 0
-8176 7234 0
-8176 7258 0
8177 -7234 -7256 0
-8177 7234 0
-8177 7256 0
8178 -7237 -7258 -7252 0
-8178 7237 0
-8178 7258 0
-8178 7252 0
-6347 7246 8175 8176 8177 8178 0
6347 -7246 0
6347 -8175 0
6347 -8176 0
6347 -8177 0
6347 -8178 0
8179 -7240 -7256 0
-8179 7240 0
-8179 7256 0
8180 -7250 -7256 0
-8180 7250 0
-8180 7256 0
8181 -7250 -7258 0
-8181 7250 0
-8181 7258 0
8182 -7240 -7258 -7252 0
-8182 7240 0
-8182 7258 0
-8182 7252 0
-5050 7248 8179 8180 8181 8182 0
5050 -7248 0
5050 -8179 0
5050 -8180 0
5050 -8181 0
5050 -8182 0
8183 -8160 -7250 0
-8183 8160 0
-8183 7250 0
8184 -8157 -7240 0
-8184 8157 0
-8184 7240 0
8185 -8157 -7250 0
-8185 8157 0
-8185 7250 0
8186 -8160 -7240 -7252 0
-8186 8160 0
-8186 7240 0
-8186 7252 0
-5043 8187 8183 8184 8185 8186 0
5043 -8187 0
5043 -8183 0
5043 -8184 0
5043 -8185 0
5043 -8186 0
8188 -8160 -8157 0
-8188 8160 0
-8188 8157 0
8189 -8157 -8157 0
-8189 8157 0
-8189 8157 0
8190 -8157 -8160 0
-8190 8157 0
-8190 8160 0
8191 -8160 -8160 -7252 0
-8191 8160 0
-8191 8160 0
-8191 7252 0
-5045 8192 8188 8189 8190 8191 0
5045 -8192 0
5045 -8188 0
5045 -8189 0
5045 -8190 0
5045 -8191 0
8193 -8160 -7254 0
-8193 8160 0
-8193 7254 0
8194 -8157 -7254 0
-8194 8157 0
-8194 7254 0
8195 -8157 -7262 0
-8195 8157 0
-8195 7262 0
8196 -8160 -7262 -7252 0
-8196 8160 0
-8196 7262 0
-8196 7252 0
-5048 8197 8193 8194 8195 8196 0
5048 -8197 0
5048 -8193 0
5048 -8194 0
5048 -8195 0
5048 -8196 0
8198 -8160 -7256 0
-8198 8160 0
-8198 7256 0
8199 -8157 -7258 0
-8199 8157 0
-8199 7258 0
8200 -8157 -7256 0
-8200 8157 0
-8200 7256 0
8201 -8160 -7258 -7252 0
-8201 8160 0
-8201 7258 0
-8201 7252 0
-5051 8202 8198 8199 8200 8201 0
5051 -8202 0
5051 -8198 0
5051 -8199 0
5051 -8200 0
5051 -8201 0
8203 -7236 -7256 0
-8203 7236 0
-8203 7256 0
8204 -7233 -7256 0
-8204 7233 0
-8204 7256 0
8205 -7233 -7258 0
-8205 7233 0
-8205 7258 0
8206 -7236 -7258 -7252 0
-8206 7236 0
-8206 7258 0
-8206 7252 0
-5054 7245 8203 8204 8205 8206 0
5054 -7245 0
5054 -8203 0
5054 -8204 0
5054 -8205 0
5054 -8206 0
8207 -7262 -7250 0
-8207 7262 0
-8207 7250 0
8208 -7254 -7240 0
-8208 7254 0
-8208 7240 0
8209 -7254 -7250 0
-8209 7254 0
-8209 7250 0
8210 -7262 -7240 -7252 0
-8210 7262 0
-8210 7240 0
-8210 7252 0
-5047 7260 8207 8208 8209 8210 0
5047 -7260 0
5047 -8207 0
5047 -8208 0
5047 -8209 0
5047 -8210 0
8211 -7262 -7233 0
-8211 7262 0
-8211 7233 0
8212 -7254 -7236 0
-8212 7254 0
-8212 7236 0
8213 -7254 -7233 0
-8213 7254 0
-8213 7233 0
8214 -7262 -7236 -7252 0
-8214 7262 0
-8214 7236 0
-8214 7252 0
-5056 7242 8211 8212 8213 8214 0
5056 -7242 0
5056 -8211 0
5056 -8212 0
5056 -8213 0
5056 -8214 0
8215 -7262 -7254 0
-8215 7262 0
-8215 7254 0
8216 -7254 -7254 0
-8216 7254 0
-8216 7254 0
8217 -7254 -7262 0
-8217 7254 0
-8217 7262 0
8218 -7262 -7262 -7252 0
-8218 7262 0
-8218 7262 0
-8218 7252 0
-5059 7264 8215 8216 8217 8218 0
5059 -7264 0
5059 -8215 0
5059 -8216 0
5059 -8217 0
5059 -8218 0
8219 -7100 -7097 0
-8219 7100 0
-8219 7097 0
8220 -7097 -7097 0
-8220 7097 0
-8220 7097 0
8221 -7097 -7100 0
-8221 7097 0
-8221 7100 0
8222 -7100 -7100 -7118 0
-8222 7100 0
-8222 7100 0
-8222 7118 0
-2299 7085 8219 8220 8221 8222 0
2299 -7085 0
2299 -8219 0
2299 -8220 0
2299 -8221 0
2299 -8222 0
8223 -7100 -7108 0
-8223 7100 0
-8223 7108 0
8224 -7097 -7108 0
-8224 7097 0
-8224 7108 0
8225 -7097 -7110 0
-8225 7097 0
-8225 7110 0
8226 -7100 -7110 -7118 0
-8226 7100 0
-8226 7110 0
-8226 7118 0
-2295 7088 8223 8224 8225 8226 0
2295 -7088 0
2295 -8223 0
2295 -8224 0
2295 -8225 0
2295 -8226 0
8227 -7100 -7116 0
-8227 7100 0
-8227 7116 0
8228 -7097 -7112 0
-8228 7097 0
-8228 7112 0
8229 -7097 -7116 0
-8229 7097 0
-8229 7116 0
8230 -7100 -7112 -7118 0
-8230 7100 0
-8230 7112 0
-8230 7118 0
-2319 7091 8227 8228 8229 8230 0
2319 -7091 0
2319 -8227 0
2319 -8228 0
2319 -8229 0
2319 -8230 0
8231 -7102 -7116 0
-8231 7102 0
-8231 7116 0
8232 -7114 -7116 0
-8232 7114 0
-8232 7116 0
8233 -7114 -7112 0
-8233 7114 0
-8233 7112 0
8234 -7102 -7112 -7118 0
-8234 7102 0
-8234 7112 0
-8234 7118 0
-2317 7094 8231 8232 8233 8234 0
2317 -7094 0
2317 -8231 0
2317 -8232 0
2317 -8233 0
2317 -8234 0
8235 -7100 -8236 0
-8235 7100 0
-8235 8236 0
8237 -7097 -8236 0
-8237 7097 0
-8237 8236 0
8238 -7097 -7342 0
-8238 7097 0
-8238 7342 0
8239 -7100 -7342 -7118 0
-8239 7100 0
-8239 7342 0
-8239 7118 0
-2303 7343 8235 8237 8238 8239 0
2303 -7343 0
2303 -8235 0
2303 -8237 0
2303 -8238 0
2303 -8239 0
8240 -7100 -7096 0
-8240 7100 0
-8240 7096 0
8241 -7097 -7099 0
-8241 7097 0
-8241 7099 0
8242 -7097 -7096 0
-8242 7097 0
-8242 7096 0
8243 -7100 -7099 -7118 0
-8243 7100 0
-8243 7099 0
-8243 7118 0
-2310 7084 8240 8241 8242 8243 0
2310 -7084 0
2310 -8240 0
2310 -8241 0
2310 -8242 0
2310 -8243 0
8244 -7102 -7096 0
-8244 7102 0
-8244 7096 0
8245 -7114 -7096 0
-8245 7114 0
-8245 7096 0
8246 -7114 -7099 0
-8246 7114 0
-8246 7099 0
8247 -7102 -7099 -7118 0
-8247 7102 0
-8247 7099 0
-8247 7118 0
-2312 7093 8244 8245 8246 8247 0
2312 -7093 0
2312 -8244 0
2312 -8245 0
2312 -8246 0
2312 -8247 0
8248 -7110 -7114 0
-8248 7110 0
-8248 7114 0
8249 -7108 -7102 0
-8249 7108 0
-8249 7102 0
8250 -7108 -7114 0
-8250 7108 0
-8250 7114 0
8251 -7110 -7102 -7118 0
-8251 7110 0
-8251 7102 0
-8251 7118 0
-2294 7104 8248 8249 8250 8251 0
2294 -7104 0
2294 -8248 0
2294 -8249 0
2294 -8250 0
2294 -8251 0
8252 -7110 -7108 0
-8252 7110 0
-8252 7108 0
8253 -7108 -7108 0
-8253 7108 0
-8253 7108 0
8254 -7108 -7110 0
-8254 7108 0
-8254 7110 0
8255 -7110 -7110 -7118 0
-8255 7110 0
-8255 7110 0
-8255 7118 0
-2301 7106 8252 8253 8254 8255 0
2301 -7106 0
2301 -8252 0
2301 -8253 0
2301 -8254 0
2301 -8255 0
8256 -7110 -8236 0
-8256 7110 0
-8256 8236 0
8257 -7108 -8236 0
-8257 7108 0
-8257 8236 0
8258 -7108 -7342 0
-8258 7108 0
-8258 7342 0
8259 -7110 -7342 -7118 0
-8259 7110 0
-8259 7342 0
-8259 7118 0
-2308 7349 8256 8257 8258 8259 0
2308 -7349 0
2308 -8256 0
2308 -8257 0
2308 -8258 0
2308 -8259 0
8260 -7110 -7096 0
-8260 7110 0
-8260 7096 0
8261 -7108 -7099 0
-8261 7108 0
-8261 7099 0
8262 -7108 -7096 0
-8262 7108 0
-8262 7096 0
8263 -7110 -7099 -7118 0
-8263 7110 0
-8263 7099 0
-8263 7118 0
-2315 7087 8260 8261 8262 8263 0
2315 -7087 0
2315 -8260 0
2315 -8261 0
2315 -8262 0
2315 -8263 0
8264 -7112 -7096 0
-8264 7112 0
-8264 7096 0
8265 -7116 -7096 0
-8265 7116 0
-8265 7096 0
8266 -7116 -7099 0
-8266 7116 0
-8266 7099 0
8267 -7112 -7099 -7118 0
-8267 7112 0
-8267 7099 0
-8267 7118 0
-2322 7090 8264 8265 8266 8267 0
2322 -7090 0
2322 -8264 0
2322 -8265 0
2322 -8266 0
2322 -8267 0
8268 -7342 -7114 0
-8268 7342 0
-8268 7114 0
8269 -8236 -7102 0
-8269 8236 0
-8269 7102 0
8270 -8236 -7114 0
-8270 8236 0
-8270 7114 0
8271 -7342 -7102 -7118 0
-8271 7342 0
-8271 7102 0
-8271 7118 0
-2306 7353 8268 8269 8270 8271 0
2306 -7353 0
2306 -8268 0
2306 -8269 0
2306 -8270 0
2306 -8271 0
8272 -7342 -7116 0
-8272 7342 0
-8272 7116 0
8273 -8236 -7112 0
-8273 8236 0
-8273 7112 0
8274 -8236 -7116 0
-8274 8236 0
-8274 7116 0
8275 -7342 -7112 -7118 0
-8275 7342 0
-8275 7112 0
-8275 7118 0
-2327 7355 8272 8273 8274 8275 0
2327 -7355 0
2327 -8272 0
2327 -8273 0
2327 -8274 0
2327 -8275 0
8276 -7342 -8236 0
-8276 7342 0
-8276 8236 0
8277 -8236 -8236 0
-8277 8236 0
-8277 8236 0
8278 -8236 -7342 0
-8278 8236 0
-8278 7342 0
8279 -7342 -7342 -7118 0
-8279 7342 0
-8279 7342 0
-8279 7118 0
-2333 7357 8276 8277 8278 8279 0
2333 -7357 0
2333 -8276 0
2333 -8277 0
2333 -8278 0
2333 -8279 0
8280 -7142 -7139 0
-8280 7142 0
-8280 7139 0
8281 -7139 -7139 0
-8281 7139 0
-8281 7139 0
8282 -7139 -7142 0
-8282 7139 0
-8282 7142 0
8283 -7142 -7142 -7157 0
-8283 7142 0
-8283 7142 0
-8283 7157 0
-4262 7136 8280 8281 8282 8283 0
4262 -7136 0
4262 -8280 0
4262 -8281 0
4262 -8282 0
4262 -8283 0
8284 -7142 -8285 0
-8284 7142 0
-8284 8285 0
8286 -7139 -8285 0
-8286 7139 0
-8286 8285 0
8287 -7139 -8288 0
-8287 7139 0
-8287 8288 0
8289 -7142 -8288 -7157 0
-8289 7142 0
-8289 8288 0
-8289 7157 0
-4258 8290 8284 8286 8287 8289 0
4258 -8290 0
4258 -8284 0
4258 -8286 0
4258 -8287 0
4258 -8289 0
8291 -7142 -7138 0
-8291 7142 0
-8291 7138 0
8292 -7139 -7141 0
-8292 7139 0
-8292 7141 0
8293 -7139 -7138 0
-8293 7139 0
-8293 7138 0
8294 -7142 -7141 -7157 0
-8294 7142 0
-8294 7141 0
-8294 7157 0
-4276 7135 8291 8292 8293 8294 0
4276 -7135 0
4276 -8291 0
4276 -8292 0
4276 -8293 0
4276 -8294 0
8295 -7145 -7138 0
-8295 7145 0
-8295 7138 0
8296 -7155 -7138 0
-8296 7155 0
-8296 7138 0
8297 -7155 -7141 0
-8297 7155 0
-8297 7141 0
8298 -7145 -7141 -7157 0
-8298 7145 0
-8298 7141 0
-8298 7157 0
-4046 7144 8295 8296 8297 8298 0
4046 -7144 0
4046 -8295 0
4046 -8296 0
4046 -8297 0
4046 -8298 0
8299 -7142 -7159 0
-8299 7142 0
-8299 7159 0
8300 -7139 -7159 0
-8300 7139 0
-8300 7159 0
8301 -7139 -7167 0
-8301 7139 0
-8301 7167 0
8302 -7142 -7167 -7157 0
-8302 7142 0
-8302 7167 0
-8302 7157 0
-4265 7148 8299 8300 8301 8302 0
4265 -7148 0
4265 -8299 0
4265 -8300 0
4265 -8301 0
4265 -8302 0
8303 -7142 -7161 0
-8303 7142 0
-8303 7161 0
8304 -7139 -7163 0
-8304 7139 0
-8304 7163 0
8305 -7139 -7161 0
-8305 7139 0
-8305 7161 0
8306 -7142 -7163 -7157 0
-8306 7142 0
-8306 7163 0
-8306 7157 0
-4270 7151 8303 8304 8305 8306 0
4270 -7151 0
4270 -8303 0
4270 -8304 0
4270 -8305 0
4270 -8306 0
8307 -7145 -7161 0
-8307 7145 0
-8307 7161 0
8308 -7155 -7161 0
-8308 7155 0
-8308 7161 0
8309 -7155 -7163 0
-8309 7155 0
-8309 7163 0
8310 -7145 -7163 -7157 0
-8310 7145 0
-8310 7163 0
-8310 7157 0
-4043 7153 8307 8308 8309 8310 0
4043 -7153 0
4043 -8307 0
4043 -8308 0
4043 -8309 0
4043 -8310 0
8311 -8288 -7155 0
-8311 8288 0
-8311 7155 0
8312 -8285 -7145 0
-8312 8285 0
-8312 7145 0
8313 -8285 -7155 0
-8313 8285 0
-8313 7155 0
8314 -8288 -7145 -7157 0
-8314 8288 0
-8314 7145 0
-8314 7157 0
-4036 8315 8311 8312 8313 8314 0
4036 -8315 0
4036 -8311 0
4036 -8312 0
4036 -8313 0
4036 -8314 0
8316 -8288 -8285 0
-8316 8288 0
-8316 8285 0
8317 -8285 -8285 0
-8317 8285 0
-8317 8285 0
8318 -8285 -8288 0
-8318 8285 0
-8318 8288 0
8319 -8288 -8288 -7157 0
-8319 8288 0
-8319 8288 0
-8319 7157 0
-4038 8320 8316 8317 8318 8319 0
4038 -8320 0
4038 -8316 0
4038 -8317 0
4038 -8318 0
4038 -8319 0
8321 -8288 -7159 0
-8321 8288 0
-8321 7159 0
8322 -8285 -7159 0
-8322 8285 0
-8322 7159 0
8323 -8285 -7167 0
-8323 8285 0
-8323 7167 0
8324 -8288 -7167 -7157 0
-8324 8288 0
-8324 7167 0
-8324 7157 0
-4041 8325 8321 8322 8323 8324 0
4041 -8325 0
4041 -8321 0
4041 -8322 0
4041 -8323 0
4041 -8324 0
8326 -8288 -7161 0
-8326 8288 0
-8326 7161 0
8327 -8285 -7163 0
-8327 8285 0
-8327 7163 0
8328 -8285 -7161 0
-8328 8285 0
-8328 7161 0
8329 -8288 -7163 -7157 0
-8329 8288 0
-8329 7163 0
-8329 7157 0
-4044 8330 8326 8327 8328 8329 0
4044 -8330 0
4044 -8326 0
4044 -8327 0
4044 -8328 0
4044 -8329 0
8331 -7141 -7161 0
-8331 7141 0
-8331 7161 0
8332 -7138 -7161 0
-8332 7138 0
-8332 7161 0
8333 -7138 -7163 0
-8333 7138 0
-8333 7163 0
8334 -7141 -7163 -7157 0
-8334 7141 0
-8334 7163 0
-8334 7157 0
-4047 7150 8331 8332 8333 8334 0
4047 -7150 0
4047 -8331 0
4047 -8332 0
4047 -8333 0
4047 -8334 0
8335 -7167 -7155 0
-8335 7167 0
-8335 7155 0
8336 -7159 -7145 0
-8336 7159 0
-8336 7145 0
8337 -7159 -7155 0
-8337 7159 0
-8337 7155 0
8338 -7167 -7145 -7157 0
-8338 7167 0
-8338 7145 0
-8338 7157 0
-4040 7165 8335 8336 8337 8338 0
4040 -7165 0
4040 -8335 0
4040 -8336 0
4040 -8337 0
4040 -8338 0
8339 -7167 -7138 0
-8339 7167 0
-8339 7138 0
8340 -7159 -7141 0
-8340 7159 0
-8340 7141 0
8341 -7159 -7138 0
-8341 7159 0
-8341 7138 0
8342 -7167 -7141 -7157 0
-8342 7167 0
-8342 7141 0
-8342 7157 0
-4049 7147 8339 8340 8341 8342 0
4049 -7147 0
4049 -8339 0
4049 -8340 0
4049 -8341 0
4049 -8342 0
8343 -7167 -7159 0
-8343 7167 0
-8343 7159 0
8344 -7159 -7159 0
-8344 7159 0
-8344 7159 0
8345 -7159 -7167 0
-8345 7159 0
-8345 7167 0
8346 -7167 -7167 -7157 0
-8346 7167 0
-8346 7167 0
-8346 7157 0
-4052 7169 8343 8344 8345 8346 0
4052 -7169 0
4052 -8343 0
4052 -8344 0
4052 -8345 0
4052 -8346 0
8347 -7230 -8162 0
-8347 7230 0
-8347 8162 0
8348 -8162 -8162 0
-8348 8162 0
-8348 8162 0
8349 -8162 -7230 0
-8349 8162 0
-8349 7230 0
8350 -7230 -7230 -8192 0
-8350 7230 0
-8350 7230 0
-8350 8192 0
-1638 7231 8347 8348 8349 8350 0
1638 -7231 0
1638 -8347 0
1638 -8348 0
1638 -8349 0
1638 -8350 0
8351 -7230 -8157 0
-8351 7230 0
-8351 8157 0
8352 -8162 -8157 0
-8352 8162 0
-8352 8157 0
8353 -8162 -7233 0
-8353 8162 0
-8353 7233 0
8354 -7230 -7233 -8192 0
-8354 7230 0
-8354 7233 0
-8354 8192 0
-1632 7234 8351 8352 8353 8354 0
1632 -7234 0
1632 -8351 0
1632 -8352 0
1632 -8353 0
1632 -8354 0
8355 -7230 -8160 0
-8355 7230 0
-8355 8160 0
8356 -8162 -7236 0
-8356 8162 0
-8356 7236 0
8357 -8162 -8160 0
-8357 8162 0
-8357 8160 0
8358 -7230 -7236 -8192 0
-8358 7230 0
-8358 7236 0
-8358 8192 0
-1631 7237 8355 8356 8357 8358 0
1631 -7237 0
1631 -8355 0
1631 -8356 0
1631 -8357 0
1631 -8358 0
8359 -7239 -8160 0
-8359 7239 0
-8359 8160 0
8360 -8187 -8160 0
-8360 8187 0
-8360 8160 0
8361 -8187 -7236 0
-8361 8187 0
-8361 7236 0
8362 -7239 -7236 -8192 0
-8362 7239 0
-8362 7236 0
-8362 8192 0
-1654 7240 8359 8360 8361 8362 0
1654 -7240 0
1654 -8359 0
1654 -8360 0
1654 -8361 0
1654 -8362 0
8363 -7230 -8197 0
-8363 7230 0
-8363 8197 0
8364 -8162 -8197 0
-8364 8162 0
-8364 8197 0
8365 -8162 -7242 0
-8365 8162 0
-8365 7242 0
8366 -7230 -7242 -8192 0
-8366 7230 0
-8366 7242 0
-8366 8192 0
-1645 7243 8363 8364 8365 8366 0
1645 -7243 0
1645 -8363 0
1645 -8364 0
1645 -8365 0
1645 -8366 0
8367 -7230 -8202 0
-8367 7230 0
-8367 8202 0
8368 -8162 -7245 0
-8368 8162 0
-8368 7245 0
8369 -8162 -8202 0
-8369 8162 0
-8369 8202 0
8370 -7230 -7245 -8192 0
-8370 7230 0
-8370 7245 0
-8370 8192 0
-1652 7246 8367 8368 8369 8370 0
1652 -7246 0
1652 -8367 0
1652 -8368 0
1652 -8369 0
1652 -8370 0
8371 -7239 -8202 0
-8371 7239 0
-8371 8202 0
8372 -8187 -8202 0
-8372 8187 0
-8372 8202 0
8373 -8187 -7245 0
-8373 8187 0
-8373 7245 0
8374 -7239 -7245 -8192 0
-8374 7239 0
-8374 7245 0
-8374 8192 0
-1659 7248 8371 8372 8373 8374 0
1659 -7248 0
1659 -8371 0
1659 -8372 0
1659 -8373 0
1659 -8374 0
8375 -7233 -8187 0
-8375 7233 0
-8375 8187 0
8376 -8157 -7239 0
-8376 8157 0
-8376 7239 0
8377 -8157 -8187 0
-8377 8157 0
-8377 8187 0
8378 -7233 -7239 -8192 0
-8378 7233 0
-8378 7239 0
-8378 8192 0
-1656 7250 8375 8376 8377 8378 0
1656 -7250 0
1656 -8375 0
1656 -8376 0
1656 -8377 0
1656 -8378 0
8379 -7233 -8157 0
-8379 7233 0
-8379 8157 0
8189 -8157 -8157 0
-8189 8157 0
-8189 8157 0
8380 -8157 -7233 0
-8380 8157 0
-8380 7233 0
8381 -7233 -7233 -8192 0
-8381 7233 0
-8381 7233 0
-8381 8192 0
-1636 7252 8379 8189 8380 8381 0
1636 -7252 0
1636 -8379 0
1636 -8189 0
1636 -8380 0
1636 -8381 0
8382 -7233 -8197 0
-8382 7233 0
-8382 8197 0
8383 -8157 -8197 0
-8383 8157 0
-8383 8197 0
8384 -8157 -7242 0
-8384 8157 0
-8384 7242 0
8385 -7233 -7242 -8192 0
-8385 7233 0
-8385 7242 0
-8385 8192 0
-1640 7254 8382 8383 8384 8385 0
1640 -7254 0
1640 -8382 0
1640 -8383 0
1640 -8384 0
1640 -8385 0
8386 -7233 -8202 0
-8386 7233 0
-8386 8202 0
8387 -8157 -7245 0
-8387 8157 0
-8387 7245 0
8388 -8157 -8202 0
-8388 8157 0
-8388 8202 0
8389 -7233 -7245 -8192 0
-8389 7233 0
-8389 7245 0
-8389 8192 0
-1647 7256 8386 8387 8388 8389 0
1647 -7256 0
1647 -8386 0
1647 -8387 0
1647 -8388 0
1647 -8389 0
8390 -7236 -8202 0
-8390 7236 0
-8390 8202 0
8391 -8160 -8202 0
-8391 8160 0
-8391 8202 0
8392 -8160 -7245 0
-8392 8160 0
-8392 7245 0
8393 -7236 -7245 -8192 0
-8393 7236 0
-8393 7245 0
-8393 8192 0
-1649 7258 8390 8391 8392 8393 0
1649 -7258 0
1649 -8390 0
1649 -8391 0
1649 -8392 0
1649 -8393 0
8394 -7242 -8187 0
-8394 7242 0
-8394 8187 0
8395 -8197 -7239 0
-8395 8197 0
-8395 7239 0
8396 -8197 -8187 0
-8396 8197 0
-8396 8187 0
8397 -7242 -7239 -8192 0
-8397 7242 0
-8397 7239 0
-8397 8192 0
-1664 7260 8394 8395 8396 8397 0
1664 -7260 0
1664 -8394 0
1664 -8395 0
1664 -8396 0
1664 -8397 0
8398 -7242 -8160 0
-8398 7242 0
-8398 8160 0
8399 -8197 -7236 0
-8399 8197 0
-8399 7236 0
8400 -8197 -8160 0
-8400 8197 0
-8400 8160 0
8401 -7242 -7236 -8192 0
-8401 7242 0
-8401 7236 0
-8401 8192 0
-1643 7262 8398 8399 8400 8401 0
1643 -7262 0
1643 -8398 0
1643 -8399 0
1643 -8400 0
1643 -8401 0
8402 -7242 -8197 0
-8402 7242 0
-8402 8197 0
8403 -8197 -8197 0
-8403 8197 0
-8403 8197 0
8404 -8197 -7242 0
-8404 8197 0
-8404 7242 0
8405 -7242 -7242 -8192 0
-8405 7242 0
-8405 7242 0
-8405 8192 0
-1670 7264 8402 8403 8404 8405 0
1670 -7264 0
1670 -8402 0
1670 -8403 0
1670 -8404 0
1670 -8405 0
8406 -7135 -8290 0
-8406 7135 0
-8406 8290 0
8407 -8290 -8290 0
-8407 8290 0
-8407 8290 0
8408 -8290 -7135 0
-8408 8290 0
-8408 7135 0
8409 -7135 -7135 -8320 0
-8409 7135 0
-8409 7135 0
-8409 8320 0
-3631 7136 8406 8407 8408 8409 0
3631 -7136 0
3631 -8406 0
3631 -8407 0
3631 -8408 0
3631 -8409 0
8410 -7135 -8285 0
-8410 7135 0
-8410 8285 0
8411 -8290 -8285 0
-8411 8290 0
-8411 8285 0
8412 -8290 -7138 0
-8412 8290 0
-8412 7138 0
8413 -7135 -7138 -8320 0
-8413 7135 0
-8413 7138 0
-8413 8320 0
-3722 7139 8410 8411 8412 8413 0
3722 -7139 0
3722 -8410 0
3722 -8411 0
3722 -8412 0
3722 -8413 0
8414 -7135 -8288 0
-8414 7135 0
-8414 8288 0
8415 -8290 -7141 0
-8415 8290 0
-8415 7141 0
8416 -8290 -8288 0
-8416 8290 0
-8416 8288 0
8417 -7135 -7141 -8320 0
-8417 7135 0
-8417 7141 0
-8417 8320 0
-3629 7142 8414 8415 8416 8417 0
3629 -7142 0
3629 -8414 0
3629 -8415 0
3629 -8416 0
3629 -8417 0
8418 -7144 -8288 0
-8418 7144 0
-8418 8288 0
8419 -8315 -8288 0
-8419 8315 0
-8419 8288 0
8420 -8315 -7141 0
-8420 8315 0
-8420 7141 0
8421 -7144 -7141 -8320 0
-8421 7144 0
-8421 7141 0
-8421 8320 0
-3639 7145 8418 8419 8420 8421 0
3639 -7145 0
3639 -8418 0
3639 -8419 0
3639 -8420 0
3639 -8421 0
8422 -7135 -8325 0
-8422 7135 0
-8422 8325 0
8423 -8290 -8325 0
-8423 8290 0
-8423 8325 0
8424 -8290 -7147 0
-8424 8290 0
-8424 7147 0
8425 -7135 -7147 -8320 0
-8425 7135 0
-8425 7147 0
-8425 8320 0
-3634 7148 8422 8423 8424 8425 0
3634 -7148 0
3634 -8422 0
3634 -8423 0
3634 -8424 0
3634 -8425 0
8426 -7135 -8330 0
-8426 7135 0
-8426 8330 0
8427 -8290 -7150 0
-8427 8290 0
-8427 7150 0
8428 -8290 -8330 0
-8428 8290 0
-8428 8330 0
8429 -7135 -7150 -8320 0
-8429 7135 0
-8429 7150 0
-8429 8320 0
-3637 7151 8426 8427 8428 8429 0
3637 -7151 0
3637 -8426 0
3637 -8427 0
3637 -8428 0
3637 -8429 0
8430 -7144 -8330 0
-8430 7144 0
-8430 8330 0
8431 -8315 -8330 0
-8431 8315 0
-8431 8330 0
8432 -8315 -7150 0
-8432 8315 0
-8432 7150 0
8433 -7144 -7150 -8320 0
-8433 7144 0
-8433 7150 0
-8433 8320 0
-3640 7153 8430 8431 8432 8433 0
3640 -7153 0
3640 -8430 0
3640 -8431 0
3640 -8432 0
3640 -8433 0
8434 -7138 -8315 0
-8434 7138 0
-8434 8315 0
8435 -8285 -7144 0
-8435 8285 0
-8435 7144 0
8436 -8285 -8315 0
-8436 8285 0
-8436 8315 0
8437 -7138 -7144 -8320 0
-8437 7138 0
-8437 7144 0
-8437 8320 0
-3721 7155 8434 8435 8436 8437 0
3721 -7155 0
3721 -8434 0
3721 -8435 0
3721 -8436 0
3721 -8437 0
8438 -7138 -8285 0
-8438 7138 0
-8438 8285 0
8317 -8285 -8285 0
-8317 8285 0
-8317 8285 0
8439 -8285 -7138 0
-8439 8285 0
-8439 7138 0
8440 -7138 -7138 -8320 0
-8440 7138 0
-8440 7138 0
-8440 8320 0
-3727 7157 8438 8317 8439 8440 0
3727 -7157 0
3727 -8438 0
3727 -8317 0
3727 -8439 0
3727 -8440 0
8441 -7138 -8325 0
-8441 7138 0
-8441 8325 0
8442 -8285 -8325 0
-8442 8285 0
-8442 8325 0
8443 -8285 -7147 0
-8443 8285 0
-8443 7147 0
8444 -7138 -7147 -8320 0
-8444 7138 0
-8444 7147 0
-8444 8320 0
-3732 7159 8441 8442 8443 8444 0
3732 -7159 0
3732 -8441 0
3732 -8442 0
3732 -8443 0
3732 -8444 0
8445 -7138 -8330 0
-8445 7138 0
-8445 8330 0
8446 -8285 -7150 0
-8446 8285 0
-8446 7150 0
8447 -8285 -8330 0
-8447 8285 0
-8447 8330 0
8448 -7138 -7150 -8320 0
-8448 7138 0
-8448 7150 0
-8448 8320 0
-3737 7161 8445 8446 8447 8448 0
3737 -7161 0
3737 -8445 0
3737 -8446 0
3737 -8447 0
3737 -8448 0
8449 -7141 -8330 0
-8449 7141 0
-8449 8330 0
8450 -8288 -8330 0
-8450 8288 0
-8450 8330 0
8451 -8288 -7150 0
-8451 8288 0
-8451 7150 0
8452 -7141 -7150 -8320 0
-8452 7141 0
-8452 7150 0
-8452 8320 0
-3636 7163 8449 8450 8451 8452 0
3636 -7163 0
3636 -8449 0
3636 -8450 0
3636 -8451 0
3636 -8452 0
8453 -7147 -8315 0
-8453 7147 0
-8453 8315 0
8454 -8325 -7144 0
-8454 8325 0
-8454 7144 0
8455 -8325 -8315 0
-8455 8325 0
-8455 8315 0
8456 -7147 -7144 -8320 0
-8456 7147 0
-8456 7144 0
-8456 8320 0
-3642 7165 8453 8454 8455 8456 0
3642 -7165 0
3642 -8453 0
3642 -8454 0
3642 -8455 0
3642 -8456 0
8457 -7147 -8288 0
-8457 7147 0
-8457 8288 0
8458 -8325 -7141 0
-8458 8325 0
-8458 7141 0
8459 -8325 -8288 0
-8459 8325 0
-8459 8288 0
8460 -7147 -7141 -8320 0
-8460 7147 0
-8460 7141 0
-8460 8320 0
-3633 7167 8457 8458 8459 8460 0
3633 -7167 0
3633 -8457 0
3633 -8458 0
3633 -8459 0
3633 -8460 0
8461 -7147 -8325 0
-8461 7147 0
-8461 8325 0
8462 -8325 -8325 0
-8462 8325 0
-8462 8325 0
8463 -8325 -7147 0
-8463 8325 0
-8463 7147 0
8464 -7147 -7147 -8320 0
-8464 7147 0
-8464 7147 0
-8464 8320 0
-3645 7169 8461 8462 8463 8464 0
3645 -7169 0
3645 -8461 0
3645 -8462 0
3645 -8463 0
3645 -8464 0
8465 -6838 -6838 0
-8465 6838 0
-8465 6838 0
-1879 6823 8465 0
1879 -6823 0
1879 -8465 0
8466 -6838 -6899 0
-8466 6838 0
-8466 6899 0
-1873 6873 8466 0
1873 -6873 0
1873 -8466 0
8467 -6838 -6837 0
-8467 6838 0
-8467 6837 0
-1872 6822 8467 0
1872 -6822 0
1872 -8467 0
8468 -6840 -6837 0
-8468 6840 0
-8468 6837 0
-1895 6831 8468 0
1895 -6831 0
1895 -8468 0
8469 -6838 -6848 0
-8469 6838 0
-8469 6848 0
-1886 6826 8469 0
1886 -6826 0
1886 -8469 0
8470 -6838 -6850 0
-8470 6838 0
-8470 6850 0
-1893 6829 8470 0
1893 -6829 0
1893 -8470 0
8471 -6840 -6850 0
-8471 6840 0
-8471 6850 0
-1900 6832 8471 0
1900 -6832 0
1900 -8471 0
8472 -6899 -6840 0
-8472 6899 0
-8472 6840 0
-1897 6890 8472 0
1897 -6890 0
1897 -8472 0
8473 -6899 -6899 0
-8473 6899 0
-8473 6899 0
-1877 6877 8473 0
1877 -6877 0
1877 -8473 0
8474 -6899 -6848 0
-8474 6899 0
-8474 6848 0
-1881 6879 8474 0
1881 -6879 0
1881 -8474 0
8475 -6899 -6850 0
-8475 6899 0
-8475 6850 0
-1888 6884 8475 0
1888 -6884 0
1888 -8475 0
8476 -6837 -6850 0
-8476 6837 0
-8476 6850 0
-1890 6828 8476 0
1890 -6828 0
1890 -8476 0
8477 -6848 -6840 0
-8477 6848 0
-8477 6840 0
-1905 6842 8477 0
1905 -6842 0
1905 -8477 0
8478 -6848 -6837 0
-8478 6848 0
-8478 6837 0
-1884 6825 8478 0
1884 -6825 0
1884 -8478 0
8479 -6848 -6848 0
-8479 6848 0
-8479 6848 0
-1911 6844 8479 0
1911 -6844 0
1911 -8479 0
8480 -7055 -7052 0
-8480 7055 0
-8480 7052 0
8481 -7052 -7052 0
-8481 7052 0
-8481 7052 0
8482 -7052 -7055 0
-8482 7052 0
-8482 7055 0
8483 -7055 -7055 -7070 0
-8483 7055 0
-8483 7055 0
-8483 7070 0
-1836 7049 8480 8481 8482 8483 0
1836 -7049 0
1836 -8480 0
1836 -8481 0
1836 -8482 0
1836 -8483 0
8484 -7055 -8485 0
-8484 7055 0
-8484 8485 0
8486 -7052 -8485 0
-8486 7052 0
-8486 8485 0
8487 -7052 -8488 0
-8487 7052 0
-8487 8488 0
8489 -7055 -8488 -7070 0
-8489 7055 0
-8489 8488 0
-8489 7070 0
-1832 8490 8484 8486 8487 8489 0
1832 -8490 0
1832 -8484 0
1832 -8486 0
1832 -8487 0
1832 -8489 0
8491 -7055 -7051 0
-8491 7055 0
-8491 7051 0
8492 -7052 -7054 0
-8492 7052 0
-8492 7054 0
8493 -7052 -7051 0
-8493 7052 0
-8493 7051 0
8494 -7055 -7054 -7070 0
-8494 7055 0
-8494 7054 0
-8494 7070 0
-1856 7048 8491 8492 8493 8494 0
1856 -7048 0
1856 -8491 0
1856 -8492 0
1856 -8493 0
1856 -8494 0
8495 -7058 -7051 0
-8495 7058 0
-8495 7051 0
8496 -7068 -7051 0
-8496 7068 0
-8496 7051 0
8497 -7068 -7054 0
-8497 7068 0
-8497 7054 0
8498 -7058 -7054 -7070 0
-8498 7058 0
-8498 7054 0
-8498 7070 0
-1854 7057 8495 8496 8497 8498 0
1854 -7057 0
1854 -8495 0
1854 -8496 0
1854 -8497 0
1854 -8498 0
8499 -7055 -7072 0
-8499 7055 0
-8499 7072 0
8500 -7052 -7072 0
-8500 7052 0
-8500 7072 0
8501 -7052 -7080 0
-8501 7052 0
-8501 7080 0
8502 -7055 -7080 -7070 0
-8502 7055 0
-8502 7080 0
-8502 7070 0
-1840 7061 8499 8500 8501 8502 0
1840 -7061 0
1840 -8499 0
1840 -8500 0
1840 -8501 0
1840 -8502 0
8503 -7055 -7074 0
-8503 7055 0
-8503 7074 0
8504 -7052 -7076 0
-8504 7052 0
-8504 7076 0
8505 -7052 -7074 0
-8505 7052 0
-8505 7074 0
8506 -7055 -7076 -7070 0
-8506 7055 0
-8506 7076 0
-8506 7070 0
-1847 7064 8503 8504 8505 8506 0
1847 -7064 0
1847 -8503 0
1847 -8504 0
1847 -8505 0
1847 -8506 0
8507 -7058 -7074 0
-8507 7058 0
-8507 7074 0
8508 -7068 -7074 0
-8508 7068 0
-8508 7074 0
8509 -7068 -7076 0
-8509 7068 0
-8509 7076 0
8510 -7058 -7076 -7070 0
-8510 7058 0
-8510 7076 0
-8510 7070 0
-1849 7066 8507 8508 8509 8510 0
1849 -7066 0
1849 -8507 0
1849 -8508 0
1849 -8509 0
1849 -8510 0
8511 -8488 -7068 0
-8511 8488 0
-8511 7068 0
8512 -8485 -7058 0
-8512 8485 0
-8512 7058 0
8513 -8485 -7068 0
-8513 8485 0
-8513 7068 0
8514 -8488 -7058 -7070 0
-8514 8488 0
-8514 7058 0
-8514 7070 0
-1831 8515 8511 8512 8513 8514 0
1831 -8515 0
1831 -8511 0
1831 -8512 0
1831 -8513 0
1831 -8514 0
8516 -8488 -8485 0
-8516 8488 0
-8516 8485 0
8517 -8485 -8485 0
-8517 8485 0
-8517 8485 0
8518 -8485 -8488 0
-8518 8485 0
-8518 8488 0
8519 -8488 -8488 -7070 0
-8519 8488 0
-8519 8488 0
-8519 7070 0
-1838 8520 8516 8517 8518 8519 0
1838 -8520 0
1838 -8516 0
1838 -8517 0
1838 -8518 0
1838 -8519 0
8521 -8488 -7072 0
-8521 8488 0
-8521 7072 0
8522 -8485 -7072 0
-8522 8485 0
-8522 7072 0
8523 -8485 -7080 0
-8523 8485 0
-8523 7080 0
8524 -8488 -7080 -7070 0
-8524 8488 0
-8524 7080 0
-8524 7070 0
-1845 8525 8521 8522 8523 8524 0
1845 -8525 0
1845 -8521 0
1845 -8522 0
1845 -8523 0
1845 -8524 0
8526 -8488 -7074 0
-8526 8488 0
-8526 7074 0
8527 -8485 -7076 0
-8527 8485 0
-8527 7076 0
8528 -8485 -7074 0
-8528 8485 0
-8528 7074 0
8529 -8488 -7076 -7070 0
-8529 8488 0
-8529 7076 0
-8529 7070 0
-1852 8530 8526 8527 8528 8529 0
1852 -8530 0
1852 -8526 0
1852 -8527 0
1852 -8528 0
1852 -8529 0
8531 -7054 -7074 0
-8531 7054 0
-8531 7074 0
8532 -7051 -7074 0
-8532 7051 0
-8532 7074 0
8533 -7051 -7076 0
-8533 7051 0
-8533 7076 0
8534 -7054 -7076 -7070 0
-8534 7054 0
-8534 7076 0
-8534 7070 0
-1859 7063 8531 8532 8533 8534 0
1859 -7063 0
1859 -8531 0
1859 -8532 0
1859 -8533 0
1859 -8534 0
8535 -7080 -7068 0
-8535 7080 0
-8535 7068 0
8536 -7072 -7058 0
-8536 7072 0
-8536 7058 0
8537 -7072 -7068 0
-8537 7072 0
-8537 7068 0
8538 -7080 -7058 -7070 0
-8538 7080 0
-8538 7058 0
-8538 7070 0
-1843 7078 8535 8536 8537 8538 0
1843 -7078 0
1843 -8535 0
1843 -8536 0
1843 -8537 0
1843 -8538 0
8539 -7080 -7051 0
-8539 7080 0
-8539 7051 0
8540 -7072 -7054 0
-8540 7072 0
-8540 7054 0
8541 -7072 -7051 0
-8541 7072 0
-8541 7051 0
8542 -7080 -7054 -7070 0
-8542 7080 0
-8542 7054 0
-8542 7070 0
-1864 7060 8539 8540 8541 8542 0
1864 -7060 0
1864 -8539 0
1864 -8540 0
1864 -8541 0
1864 -8542 0
8543 -7080 -7072 0
-8543 7080 0
-8543 7072 0
8544 -7072 -7072 0
-8544 7072 0
-8544 7072 0
8545 -7072 -7080 0
-8545 7072 0
-8545 7080 0
8546 -7080 -7080 -7070 0
-8546 7080 0
-8546 7080 0
-8546 7070 0
-1870 7082 8543 8544 8545 8546 0
1870 -7082 0
1870 -8543 0
1870 -8544 0
1870 -8545 0
1870 -8546 0
8547 -6646 -6646 0
-8547 6646 0
-8547 6646 0
-3550 6652 8547 0
3550 -6652 0
3550 -8547 0
8548 -6646 -6657 0
-8548 6646 0
-8548 6657 0
-3546 6659 8548 0
3546 -6659 0
3546 -8548 0
8549 -6646 -6663 0
-8549 6646 0
-8549 6663 0
-3570 6666 8549 0
3570 -6666 0
3570 -8549 0
8550 -6668 -6663 0
-8550 6668 0
-8550 6663 0
-3568 6673 8550 0
3568 -6673 0
3568 -8550 0
8551 -6646 -6678 0
-8551 6646 0
-8551 6678 0
-3554 6680 8551 0
3554 -6680 0
3554 -8551 0
8552 -6646 -6684 0
-8552 6646 0
-8552 6684 0
-3561 6687 8552 0
3561 -6687 0
3561 -8552 0
8553 -6668 -6684 0
-8553 6668 0
-8553 6684 0
-3563 6692 8553 0
3563 -6692 0
3563 -8553 0
8554 -6657 -6668 0
-8554 6657 0
-8554 6668 0
-3545 6697 8554 0
3545 -6697 0
3545 -8554 0
8555 -6657 -6657 0
-8555 6657 0
-8555 6657 0
-3552 6702 8555 0
3552 -6702 0
3552 -8555 0
8556 -6657 -6678 0
-8556 6657 0
-8556 6678 0
-3559 6707 8556 0
3559 -6707 0
3559 -8556 0
8557 -6657 -6684 0
-8557 6657 0
-8557 6684 0
-3566 6712 8557 0
3566 -6712 0
3566 -8557 0
8558 -6663 -6684 0
-8558 6663 0
-8558 6684 0
-3573 6717 8558 0
3573 -6717 0
3573 -8558 0
8559 -6678 -6668 0
-8559 6678 0
-8559 6668 0
-3557 6722 8559 0
3557 -6722 0
3557 -8559 0
8560 -6678 -6663 0
-8560 6678 0
-8560 6663 0
-3578 6727 8560 0
3578 -6727 0
3578 -8560 0
8561 -6678 -6678 0
-8561 6678 0
-8561 6678 0
-3584 6732 8561 0
3584 -6732 0
3584 -8561 0
8562 -8563 -8564 0
-8562 8563 0
-8562 8564 0
8565 -8564 -8564 0
-8565 8564 0
-8565 8564 0
8566 -8564 -8563 0
-8566 8564 0
-8566 8563 0
8567 -8563 -8563 -8568 0
-8567 8563 0
-8567 8563 0
-8567 8568 0
-4124 8569 8562 8565 8566 8567 0
4124 -8569 0
4124 -8562 0
4124 -8565 0
4124 -8566 0
4124 -8567 0
8570 -8563 -8571 0
-8570 8563 0
-8570 8571 0
8572 -8564 -8571 0
-8572 8564 0
-8572 8571 0
8573 -8564 -8574 0
-8573 8564 0
-8573 8574 0
8575 -8563 -8574 -8568 0
-8575 8563 0
-8575 8574 0
-8575 8568 0
-4120 8576 8570 8572 8573 8575 0
4120 -8576 0
4120 -8570 0
4120 -8572 0
4120 -8573 0
4120 -8575 0
8577 -8563 -8578 0
-8577 8563 0
-8577 8578 0
8579 -8564 -8580 0
-8579 8564 0
-8579 8580 0
8581 -8564 -8578 0
-8581 8564 0
-8581 8578 0
8582 -8563 -8580 -8568 0
-8582 8563 0
-8582 8580 0
-8582 8568 0
-4144 8583 8577 8579 8581 8582 0
4144 -8583 0
4144 -8577 0
4144 -8579 0
4144 -8581 0
4144 -8582 0
8584 -8585 -8578 0
-8584 8585 0
-8584 8578 0
8586 -8587 -8578 0
-8586 8587 0
-8586 8578 0
8588 -8587 -8580 0
-8588 8587 0
-8588 8580 0
8589 -8585 -8580 -8568 0
-8589 8585 0
-8589 8580 0
-8589 8568 0
-4142 8590 8584 8586 8588 8589 0
4142 -8590 0
4142 -8584 0
4142 -8586 0
4142 -8588 0
4142 -8589 0
8591 -8563 -8592 0
-8591 8563 0
-8591 8592 0
8593 -8564 -8592 0
-8593 8564 0
-8593 8592 0
8594 -8564 -8595 0
-8594 8564 0
-8594 8595 0
8596 -8563 -8595 -8568 0
-8596 8563 0
-8596 8595 0
-8596 8568 0
-4128 8597 8591 8593 8594 8596 0
4128 -8597 0
4128 -8591 0
4128 -8593 0
4128 -8594 0
4128 -8596 0
8598 -8563 -8599 0
-8598 8563 0
-8598 8599 0
8600 -8564 -8601 0
-8600 8564 0
-8600 8601 0
8602 -8564 -8599 0
-8602 8564 0
-8602 8599 0
8603 -8563 -8601 -8568 0
-8603 8563 0
-8603 8601 0
-8603 8568 0
-4135 8604 8598 8600 8602 8603 0
4135 -8604 0
4135 -8598 0
4135 -8600 0
4135 -8602 0
4135 -8603 0
8605 -8585 -8599 0
-8605 8585 0
-8605 8599 0
8606 -8587 -8599 0
-8606 8587 0
-8606 8599 0
8607 -8587 -8601 0
-8607 8587 0
-8607 8601 0
8608 -8585 -8601 -8568 0
-8608 8585 0
-8608 8601 0
-8608 8568 0
-4137 8609 8605 8606 8607 8608 0
4137 -8609 0
4137 -8605 0
4137 -8606 0
4137 -8607 0
4137 -8608 0
8610 -8574 -8587 0
-8610 8574 0
-8610 8587 0
8611 -8571 -8585 0
-8611 8571 0
-8611 8585 0
8612 -8571 -8587 0
-8612 8571 0
-8612 8587 0
8613 -8574 -8585 -8568 0
-8613 8574 0
-8613 8585 0
-8613 8568 0
-4119 8614 8610 8611 8612 8613 0
4119 -8614 0
4119 -8610 0
4119 -8611 0
4119 -8612 0
4119 -8613 0
8615 -8574 -8571 0
-8615 8574 0
-8615 8571 0
8616 -8571 -8571 0
-8616 8571 0
-8616 8571 0
8617 -8571 -8574 0
-8617 8571 0
-8617 8574 0
8618 -8574 -8574 -8568 0
-8618 8574 0
-8618 8574 0
-8618 8568 0
-4126 8619 8615 8616 8617 8618 0
4126 -8619 0
4126 -8615 0
4126 -8616 0
4126 -8617 0
4126 -8618 0
8620 -8574 -8592 0
-8620 8574 0
-8620 8592 0
8621 -8571 -8592 0
-8621 8571 0
-8621 8592 0
8622 -8571 -8595 0
-8622 8571 0
-8622 8595 0
8623 -8574 -8595 -8568 0
-8623 8574 0
-8623 8595 0
-8623 8568 0
-4133 8624 8620 8621 8622 8623 0
4133 -8624 0
4133 -8620 0
4133 -8621 0
4133 -8622 0
4133 -8623 0
8625 -8574 -8599 0
-8625 8574 0
-8625 8599 0
8626 -8571 -8601 0
-8626 8571 0
-8626 8601 0
8627 -8571 -8599 0
-8627 8571 0
-8627 8599 0
8628 -8574 -8601 -8568 0
-8628 8574 0
-8628 8601 0
-8628 8568 0
-4140 8629 8625 8626 8627 8628 0
4140 -8629 0
4140 -8625 0
4140 -8626 0
4140 -8627 0
4140 -8628 0
8630 -8580 -8599 0
-8630 8580 0
-8630 8599 0
8631 -8578 -8599 0
-8631 8578 0
-8631 8599 0
8632 -8578 -8601 0
-8632 8578 0
-8632 8601 0
8633 -8580 -8601 -8568 0
-8633 8580 0
-8633 8601 0
-8633 8568 0
-4147 8634 8630 8631 8632 8633 0
4147 -8634 0
4147 -8630 0
4147 -8631 0
4147 -8632 0
4147 -8633 0
8635 -8595 -8587 0
-8635 8595 0
-8635 8587 0
8636 -8592 -8585 0
-8636 8592 0
-8636 8585 0
8637 -8592 -8587 0
-8637 8592 0
-8637 8587 0
8638 -8595 -8585 -8568 0
-8638 8595 0
-8638 8585 0
-8638 8568 0
-4131 8639 8635 8636 8637 8638 0
4131 -8639 0
4131 -8635 0
4131 -8636 0
4131 -8637 0
4131 -8638 0
8640 -8595 -8578 0
-8640 8595 0
-8640 8578 0
8641 -8592 -8580 0
-8641 8592 0
-8641 8580 0
8642 -8592 -8578 0
-8642 8592 0
-8642 8578 0
8643 -8595 -8580 -8568 0
-8643 8595 0
-8643 8580 0
-8643 8568 0
-4152 8644 8640 8641 8642 8643 0
4152 -8644 0
4152 -8640 0
4152 -8641 0
4152 -8642 0
4152 -8643 0
8645 -8595 -8592 0
-8645 8595 0
-8645 8592 0
8646 -8592 -8592 0
-8646 8592 0
-8646 8592 0
8647 -8592 -8595 0
-8647 8592 0
-8647 8595 0
8648 -8595 -8595 -8568 0
-8648 8595 0
-8648 8595 0
-8648 8568 0
-4158 8649 8645 8646 8647 8648 0
4158 -8649 0
4158 -8645 0
4158 -8646 0
4158 -8647 0
4158 -8648 0
8650 -7012 -8651 0
-8650 7012 0
-8650 8651 0
8652 -8651 -8651 0
-8652 8651 0
-8652 8651 0
8653 -8651 -7012 0
-8653 8651 0
-8653 7012 0
8654 -7012 -7012 -8655 0
-8654 7012 0
-8654 7012 0
-8654 8655 0
-6061 7013 8650 8652 8653 8654 0
6061 -7013 0
6061 -8650 0
6061 -8652 0
6061 -8653 0
6061 -8654 0
8656 -7012 -8657 0
-8656 7012 0
-8656 8657 0
8658 -8651 -8657 0
-8658 8651 0
-8658 8657 0
8659 -8651 -7015 0
-8659 8651 0
-8659 7015 0
8660 -7012 -7015 -8655 0
-8660 7012 0
-8660 7015 0
-8660 8655 0
-6057 7016 8656 8658 8659 8660 0
6057 -7016 0
6057 -8656 0
6057 -8658 0
6057 -8659 0
6057 -8660 0
8661 -7012 -8662 0
-8661 7012 0
-8661 8662 0
8663 -8651 -7018 0
-8663 8651 0
-8663 7018 0
8664 -8651 -8662 0
-8664 8651 0
-8664 8662 0
8665 -7012 -7018 -8655 0
-8665 7012 0
-8665 7018 0
-8665 8655 0
-6075 7019 8661 8663 8664 8665 0
6075 -7019 0
6075 -8661 0
6075 -8663 0
6075 -8664 0
6075 -8665 0
8666 -7021 -8662 0
-8666 7021 0
-8666 8662 0
8667 -8668 -8662 0
-8667 8668 0
-8667 8662 0
8669 -8668 -7018 0
-8669 8668 0
-8669 7018 0
8670 -7021 -7018 -8655 0
-8670 7021 0
-8670 7018 0
-8670 8655 0
-4802 7022 8666 8667 8669 8670 0
4802 -7022 0
4802 -8666 0
4802 -8667 0
4802 -8669 0
4802 -8670 0
8671 -7012 -8672 0
-8671 7012 0
-8671 8672 0
8673 -8651 -8672 0
-8673 8651 0
-8673 8672 0
8674 -8651 -7024 0
-8674 8651 0
-8674 7024 0
8675 -7012 -7024 -8655 0
-8675 7012 0
-8675 7024 0
-8675 8655 0
-6064 7025 8671 8673 8674 8675 0
6064 -7025 0
6064 -8671 0
6064 -8673 0
6064 -8674 0
6064 -8675 0
8676 -7012 -8677 0
-8676 7012 0
-8676 8677 0
8678 -8651 -7027 0
-8678 8651 0
-8678 7027 0
8679 -8651 -8677 0
-8679 8651 0
-8679 8677 0
8680 -7012 -7027 -8655 0
-8680 7012 0
-8680 7027 0
-8680 8655 0
-6069 7028 8676 8678 8679 8680 0
6069 -7028 0
6069 -8676 0
6069 -8678 0
6069 -8679 0
6069 -8680 0
8681 -7021 -8677 0
-8681 7021 0
-8681 8677 0
8682 -8668 -8677 0
-8682 8668 0
-8682 8677 0
8683 -8668 -7027 0
-8683 8668 0
-8683 7027 0
8684 -7021 -7027 -8655 0
-8684 7021 0
-8684 7027 0
-8684 8655 0
-4799 7030 8681 8682 8683 8684 0
4799 -7030 0
4799 -8681 0
4799 -8682 0
4799 -8683 0
4799 -8684 0
8685 -7015 -8668 0
-8685 7015 0
-8685 8668 0
8686 -8657 -7021 0
-8686 8657 0
-8686 7021 0
8687 -8657 -8668 0
-8687 8657 0
-8687 8668 0
8688 -7015 -7021 -8655 0
-8688 7015 0
-8688 7021 0
-8688 8655 0
-4792 7032 8685 8686 8687 8688 0
4792 -7032 0
4792 -8685 0
4792 -8686 0
4792 -8687 0
4792 -8688 0
8689 -7015 -8657 0
-8689 7015 0
-8689 8657 0
8690 -8657 -8657 0
-8690 8657 0
-8690 8657 0
8691 -8657 -7015 0
-8691 8657 0
-8691 7015 0
8692 -7015 -7015 -8655 0
-8692 7015 0
-8692 7015 0
-8692 8655 0
-4794 7034 8689 8690 8691 8692 0
4794 -7034 0
4794 -8689 0
4794 -8690 0
4794 -8691 0
4794 -8692 0
8693 -7015 -8672 0
-8693 7015 0
-8693 8672 0
8694 -8657 -8672 0
-8694 8657 0
-8694 8672 0
8695 -8657 -7024 0
-8695 8657 0
-8695 7024 0
8696 -7015 -7024 -8655 0
-8696 7015 0
-8696 7024 0
-8696 8655 0
-4797 7036 8693 8694 8695 8696 0
4797 -7036 0
4797 -8693 0
4797 -8694 0
4797 -8695 0
4797 -8696 0
8697 -7015 -8677 0
-8697 7015 0
-8697 8677 0
8698 -8657 -7027 0
-8698 8657 0
-8698 7027 0
8699 -8657 -8677 0
-8699 8657 0
-8699 8677 0
8700 -7015 -7027 -8655 0
-8700 7015 0
-8700 7027 0
-8700 8655 0
-4800 7038 8697 8698 8699 8700 0
4800 -7038 0
4800 -8697 0
4800 -8698 0
4800 -8699 0
4800 -8700 0
8701 -7018 -8677 0
-8701 7018 0
-8701 8677 0
8702 -8662 -8677 0
-8702 8662 0
-8702 8677 0
8703 -8662 -7027 0
-8703 8662 0
-8703 7027 0
8704 -7018 -7027 -8655 0
-8704 7018 0
-8704 7027 0
-8704 8655 0
-4803 7040 8701 8702 8703 8704 0
4803 -7040 0
4803 -8701 0
4803 -8702 0
4803 -8703 0
4803 -8704 0
8705 -7024 -8668 0
-8705 7024 0
-8705 8668 0
8706 -8672 -7021 0
-8706 8672 0
-8706 7021 0
8707 -8672 -8668 0
-8707 8672 0
-8707 8668 0
8708 -7024 -7021 -8655 0
-8708 7024 0
-8708 7021 0
-8708 8655 0
-4796 7042 8705 8706 8707 8708 0
4796 -7042 0
4796 -8705 0
4796 -8706 0
4796 -8707 0
4796 -8708 0
8709 -7024 -8662 0
-8709 7024 0
-8709 8662 0
8710 -8672 -7018 0
-8710 8672 0
-8710 7018 0
8711 -8672 -8662 0
-8711 8672 0
-8711 8662 0
8712 -7024 -7018 -8655 0
-8712 7024 0
-8712 7018 0
-8712 8655 0
-4805 7044 8709 8710 8711 8712 0
4805 -7044 0
4805 -8709 0
4805 -8710 0
4805 -8711 0
4805 -8712 0
8713 -7024 -8672 0
-8713 7024 0
-8713 8672 0
8714 -8672 -8672 0
-8714 8672 0
-8714 8672 0
8715 -8672 -7024 0
-8715 8672 0
-8715 7024 0
8716 -7024 -7024 -8655 0
-8716 7024 0
-8716 7024 0
-8716 8655 0
-4808 7046 8713 8714 8715 8716 0
4808 -7046 0
4808 -8713 0
4808 -8714 0
4808 -8715 0
4808 -8716 0
8717 -8718 -8718 0
-8717 8718 0
-8717 8718 0
-6428 8719 8717 0
6428 -8719 0
6428 -8717 0
8720 -8718 -8721 0
-8720 8718 0
-8720 8721 0
-6424 8722 8720 0
6424 -8722 0
6424 -8720 0
8723 -8718 -8724 0
-8723 8718 0
-8723 8724 0
-6442 8725 8723 0
6442 -8725 0
6442 -8723 0
8726 -8727 -8724 0
-8726 8727 0
-8726 8724 0
-1564 8728 8726 0
1564 -8728 0
1564 -8726 0
8729 -8718 -8730 0
-8729 8718 0
-8729 8730 0
-6431 8731 8729 0
6431 -8731 0
6431 -8729 0
8732 -8718 -8733 0
-8732 8718 0
-8732 8733 0
-6436 8734 8732 0
6436 -8734 0
6436 -8732 0
8735 -8727 -8733 0
-8735 8727 0
-8735 8733 0
-1561 8736 8735 0
1561 -8736 0
1561 -8735 0
8737 -8721 -8727 0
-8737 8721 0
-8737 8727 0
-1554 8738 8737 0
1554 -8738 0
1554 -8737 0
8739 -8721 -8721 0
-8739 8721 0
-8739 8721 0
-1556 8740 8739 0
1556 -8740 0
1556 -8739 0
8741 -8721 -8730 0
-8741 8721 0
-8741 8730 0
-1559 8742 8741 0
1559 -8742 0
1559 -8741 0
8743 -8721 -8733 0
-8743 8721 0
-8743 8733 0
-1562 8744 8743 0
1562 -8744 0
1562 -8743 0
8745 -8724 -8733 0
-8745 8724 0
-8745 8733 0
-1565 8746 8745 0
1565 -8746 0
1565 -8745 0
8747 -8730 -8727 0
-8747 8730 0
-8747 8727 0
-1558 8748 8747 0
1558 -8748 0
1558 -8747 0
8749 -8730 -8724 0
-8749 8730 0
-8749 8724 0
-1567 8750 8749 0
1567 -8750 0
1567 -8749 0
8751 -8730 -8730 0
-8751 8730 0
-8751 8730 0
-1570 8752 8751 0
1570 -8752 0
1570 -8751 0
8753 -6983 -6983 0
-8753 6983 0
-8753 6983 0
-4067 6977 8753 0
4067 -6977 0
4067 -8753 0
8754 -6983 -7696 0
-8754 6983 0
-8754 7696 0
-4063 7698 8754 0
4063 -7698 0
4063 -8754 0
8755 -6983 -6982 0
-8755 6983 0
-8755 6982 0
-4087 6976 8755 0
4087 -6976 0
4087 -8755 0
8756 -6986 -6982 0
-8756 6986 0
-8756 6982 0
-4085 6985 8756 0
4085 -6985 0
4085 -8756 0
8757 -6983 -7008 0
-8757 6983 0
-8757 7008 0
-4071 6989 8757 0
4071 -6989 0
4071 -8757 0
8758 -6983 -7004 0
-8758 6983 0
-8758 7004 0
-4078 6992 8758 0
4078 -6992 0
4078 -8758 0
8759 -6986 -7004 0
-8759 6986 0
-8759 7004 0
-4080 6994 8759 0
4080 -6994 0
4080 -8759 0
8760 -7696 -6986 0
-8760 7696 0
-8760 6986 0
-4062 7723 8760 0
4062 -7723 0
4062 -8760 0
8761 -7696 -7696 0
-8761 7696 0
-8761 7696 0
-4069 7728 8761 0
4069 -7728 0
4069 -8761 0
8762 -7696 -7008 0
-8762 7696 0
-8762 7008 0
-4076 7733 8762 0
4076 -7733 0
4076 -8762 0
8763 -7696 -7004 0
-8763 7696 0
-8763 7004 0
-4083 7738 8763 0
4083 -7738 0
4083 -8763 0
8764 -6982 -7004 0
-8764 6982 0
-8764 7004 0
-4090 6991 8764 0
4090 -6991 0
4090 -8764 0
8765 -7008 -6986 0
-8765 7008 0
-8765 6986 0
-4074 7006 8765 0
4074 -7006 0
4074 -8765 0
8766 -7008 -6982 0
-8766 7008 0
-8766 6982 0
-4095 6988 8766 0
4095 -6988 0
4095 -8766 0
8767 -7008 -7008 0
-8767 7008 0
-8767 7008 0
-4101 7010 8767 0
4101 -7010 0
4101 -8767 0
8768 -7601 -7601 0
-8768 7601 0
-8768 7601 0
-5470 7607 8768 0
5470 -7607 0
5470 -8768 0
8769 -7601 -7612 0
-8769 7601 0
-8769 7612 0
-5466 7614 8769 0
5466 -7614 0
5466 -8769 0
8770 -7601 -7618 0
-8770 7601 0
-8770 7618 0
-5484 7621 8770 0
5484 -7621 0
5484 -8770 0
8771 -7623 -7618 0
-8771 7623 0
-8771 7618 0
-4936 7628 8771 0
4936 -7628 0
4936 -8771 0
8772 -7601 -7633 0
-8772 7601 0
-8772 7633 0
-5473 7635 8772 0
5473 -7635 0
5473 -8772 0
8773 -7601 -7639 0
-8773 7601 0
-8773 7639 0
-5478 7642 8773 0
5478 -7642 0
5478 -8773 0
8774 -7623 -7639 0
-8774 7623 0
-8774 7639 0
-4933 7647 8774 0
4933 -7647 0
4933 -8774 0
8775 -7612 -7623 0
-8775 7612 0
-8775 7623 0
-4926 7652 8775 0
4926 -7652 0
4926 -8775 0
8776 -7612 -7612 0
-8776 7612 0
-8776 7612 0
-4928 7657 8776 0
4928 -7657 0
4928 -8776 0
8777 -7612 -7633 0
-8777 7612 0
-8777 7633 0
-4931 7662 8777 0
4931 -7662 0
4931 -8777 0
8778 -7612 -7639 0
-8778 7612 0
-8778 7639 0
-4934 7667 8778 0
4934 -7667 0
4934 -8778 0
8779 -7618 -7639 0
-8779 7618 0
-8779 7639 0
-4937 7672 8779 0
4937 -7672 0
4937 -8779 0
8780 -7633 -7623 0
-8780 7633 0
-8780 7623 0
-4930 7677 8780 0
4930 -7677 0
4930 -8780 0
8781 -7633 -7618 0
-8781 7633 0
-8781 7618 0
-4939 7682 8781 0
4939 -7682 0
4939 -8781 0
8782 -7633 -7633 0
-8782 7633 0
-8782 7633 0
-4942 7687 8782 0
4942 -7687 0
4942 -8782 0
8783 -7266 -7925 0
-8783 7266 0
-8783 7925 0
8784 -7925 -7925 0
-8784 7925 0
-8784 7925 0
8785 -7925 -7266 0
-8785 7925 0
-8785 7266 0
8786 -7266 -7266 -7955 0
-8786 7266 0
-8786 7266 0
-8786 7955 0
-1474 7267 8783 8784 8785 8786 0
1474 -7267 0
1474 -8783 0
1474 -8784 0
1474 -8785 0
1474 -8786 0
8787 -7266 -7920 0
-8787 7266 0
-8787 7920 0
8788 -7925 -7920 0
-8788 7925 0
-8788 7920 0
8789 -7925 -7269 0
-8789 7925 0
-8789 7269 0
8790 -7266 -7269 -7955 0
-8790 7266 0
-8790 7269 0
-8790 7955 0
-1470 7270 8787 8788 8789 8790 0
1470 -7270 0
1470 -8787 0
1470 -8788 0
1470 -8789 0
1470 -8790 0
8791 -7266 -7923 0
-8791 7266 0
-8791 7923 0
8792 -7925 -7272 0
-8792 7925 0
-8792 7272 0
8793 -7925 -7923 0
-8793 7925 0
-8793 7923 0
8794 -7266 -7272 -7955 0
-8794 7266 0
-8794 7272 0
-8794 7955 0
-1494 7273 8791 8792 8793 8794 0
1494 -7273 0
1494 -8791 0
1494 -8792 0
1494 -8793 0
1494 -8794 0
8795 -7275 -7923 0
-8795 7275 0
-8795 7923 0
8796 -7950 -7923 0
-8796 7950 0
-8796 7923 0
8797 -7950 -7272 0
-8797 7950 0
-8797 7272 0
8798 -7275 -7272 -7955 0
-8798 7275 0
-8798 7272 0
-8798 7955 0
-1492 7276 8795 8796 8797 8798 0
1492 -7276 0
1492 -8795 0
1492 -8796 0
1492 -8797 0
1492 -8798 0
8799 -7266 -7960 0
-8799 7266 0
-8799 7960 0
8800 -7925 -7960 0
-8800 7925 0
-8800 7960 0
8801 -7925 -7278 0
-8801 7925 0
-8801 7278 0
8802 -7266 -7278 -7955 0
-8802 7266 0
-8802 7278 0
-8802 7955 0
-1478 7279 8799 8800 8801 8802 0
1478 -7279 0
1478 -8799 0
1478 -8800 0
1478 -8801 0
1478 -8802 0
8803 -7266 -7965 0
-8803 7266 0
-8803 7965 0
8804 -7925 -7281 0
-8804 7925 0
-8804 7281 0
8805 -7925 -7965 0
-8805 7925 0
-8805 7965 0
8806 -7266 -7281 -7955 0
-8806 7266 0
-8806 7281 0
-8806 7955 0
-1485 7282 8803 8804 8805 8806 0
1485 -7282 0
1485 -8803 0
1485 -8804 0
1485 -8805 0
1485 -8806 0
8807 -7275 -7965 0
-8807 7275 0
-8807 7965 0
8808 -7950 -7965 0
-8808 7950 0
-8808 7965 0
8809 -7950 -7281 0
-8809 7950 0
-8809 7281 0
8810 -7275 -7281 -7955 0
-8810 7275 0
-8810 7281 0
-8810 7955 0
-1487 7284 8807 8808 8809 8810 0
1487 -7284 0
1487 -8807 0
1487 -8808 0
1487 -8809 0
1487 -8810 0
8811 -7269 -7950 0
-8811 7269 0
-8811 7950 0
8812 -7920 -7275 0
-8812 7920 0
-8812 7275 0
8813 -7920 -7950 0
-8813 7920 0
-8813 7950 0
8814 -7269 -7275 -7955 0
-8814 7269 0
-8814 7275 0
-8814 7955 0
-1469 7286 8811 8812 8813 8814 0
1469 -7286 0
1469 -8811 0
1469 -8812 0
1469 -8813 0
1469 -8814 0
8815 -7269 -7920 0
-8815 7269 0
-8815 7920 0
7952 -7920 -7920 0
-7952 7920 0
-7952 7920 0
8816 -7920 -7269 0
-8816 7920 0
-8816 7269 0
8817 -7269 -7269 -7955 0
-8817 7269 0
-8817 7269 0
-8817 7955 0
-1476 7288 8815 7952 8816 8817 0
1476 -7288 0
1476 -8815 0
1476 -7952 0
1476 -8816 0
1476 -8817 0
8818 -7269 -7960 0
-8818 7269 0
-8818 7960 0
8819 -7920 -7960 0
-8819 7920 0
-8819 7960 0
8820 -7920 -7278 0
-8820 7920 0
-8820 7278 0
8821 -7269 -7278 -7955 0
-8821 7269 0
-8821 7278 0
-8821 7955 0
-1483 7290 8818 8819 8820 8821 0
1483 -7290 0
1483 -8818 0
1483 -8819 0
1483 -8820 0
1483 -8821 0
8822 -7269 -7965 0
-8822 7269 0
-8822 7965 0
8823 -7920 -7281 0
-8823 7920 0
-8823 7281 0
8824 -7920 -7965 0
-8824 7920 0
-8824 7965 0
8825 -7269 -7281 -7955 0
-8825 7269 0
-8825 7281 0
-8825 7955 0
-1490 7292 8822 8823 8824 8825 0
1490 -7292 0
1490 -8822 0
1490 -8823 0
1490 -8824 0
1490 -8825 0
8826 -7272 -7965 0
-8826 7272 0
-8826 7965 0
8827 -7923 -7965 0
-8827 7923 0
-8827 7965 0
8828 -7923 -7281 0
-8828 7923 0
-8828 7281 0
8829 -7272 -7281 -7955 0
-8829 7272 0
-8829 7281 0
-8829 7955 0
-1497 7294 8826 8827 8828 8829 0
1497 -7294 0
1497 -8826 0
1497 -8827 0
1497 -8828 0
1497 -8829 0
8830 -7278 -7950 0
-8830 7278 0
-8830 7950 0
8831 -7960 -7275 0
-8831 7960 0
-8831 7275 0
8832 -7960 -7950 0
-8832 7960 0
-8832 7950 0
8833 -7278 -7275 -7955 0
-8833 7278 0
-8833 7275 0
-8833 7955 0
-1481 7296 8830 8831 8832 8833 0
1481 -7296 0
1481 -8830 0
1481 -8831 0
1481 -8832 0
1481 -8833 0
8834 -7278 -7923 0
-8834 7278 0
-8834 7923 0
8835 -7960 -7272 0
-8835 7960 0
-8835 7272 0
8836 -7960 -7923 0
-8836 7960 0
-8836 7923 0
8837 -7278 -7272 -7955 0
-8837 7278 0
-8837 7272 0
-8837 7955 0
-1502 7298 8834 8835 8836 8837 0
1502 -7298 0
1502 -8834 0
1502 -8835 0
1502 -8836 0
1502 -8837 0
8838 -7278 -7960 0
-8838 7278 0
-8838 7960 0
8839 -7960 -7960 0
-8839 7960 0
-8839 7960 0
8840 -7960 -7278 0
-8840 7960 0
-8840 7278 0
8841 -7278 -7278 -7955 0
-8841 7278 0
-8841 7278 0
-8841 7955 0
-1508 7300 8838 8839 8840 8841 0
1508 -7300 0
1508 -8838 0
1508 -8839 0
1508 -8840 0
1508 -8841 0
8842 -8718 -8843 0
-8842 8718 0
-8842 8843 0
8844 -8843 -8843 0
-8844 8843 0
-8844 8843 0
8845 -8843 -8718 0
-8845 8843 0
-8845 8718 0
8846 -8718 -8718 -8847 0
-8846 8718 0
-8846 8718 0
-8846 8847 0
-5382 8719 8842 8844 8845 8846 0
5382 -8719 0
5382 -8842 0
5382 -8844 0
5382 -8845 0
5382 -8846 0
8848 -8718 -8849 0
-8848 8718 0
-8848 8849 0
8850 -8843 -8849 0
-8850 8843 0
-8850 8849 0
8851 -8843 -8721 0
-8851 8843 0
-8851 8721 0
8852 -8718 -8721 -8847 0
-8852 8718 0
-8852 8721 0
-8852 8847 0
-5378 8722 8848 8850 8851 8852 0
5378 -8722 0
5378 -8848 0
5378 -8850 0
5378 -8851 0
5378 -8852 0
8853 -8718 -8854 0
-8853 8718 0
-8853 8854 0
8855 -8843 -8724 0
-8855 8843 0
-8855 8724 0
8856 -8843 -8854 0
-8856 8843 0
-8856 8854 0
8857 -8718 -8724 -8847 0
-8857 8718 0
-8857 8724 0
-8857 8847 0
-5396 8725 8853 8855 8856 8857 0
5396 -8725 0
5396 -8853 0
5396 -8855 0
5396 -8856 0
5396 -8857 0
8858 -8727 -8854 0
-8858 8727 0
-8858 8854 0
8859 -8860 -8854 0
-8859 8860 0
-8859 8854 0
8861 -8860 -8724 0
-8861 8860 0
-8861 8724 0
8862 -8727 -8724 -8847 0
-8862 8727 0
-8862 8724 0
-8862 8847 0
-3446 8728 8858 8859 8861 8862 0
3446 -8728 0
3446 -8858 0
3446 -8859 0
3446 -8861 0
3446 -8862 0
8863 -8718 -8864 0
-8863 8718 0
-8863 8864 0
8865 -8843 -8864 0
-8865 8843 0
-8865 8864 0
8866 -8843 -8730 0
-8866 8843 0
-8866 8730 0
8867 -8718 -8730 -8847 0
-8867 8718 0
-8867 8730 0
-8867 8847 0
-5385 8731 8863 8865 8866 8867 0
5385 -8731 0
5385 -8863 0
5385 -8865 0
5385 -8866 0
5385 -8867 0
8868 -8718 -8869 0
-8868 8718 0
-8868 8869 0
8870 -8843 -8733 0
-8870 8843 0
-8870 8733 0
8871 -8843 -8869 0
-8871 8843 0
-8871 8869 0
8872 -8718 -8733 -8847 0
-8872 8718 0
-8872 8733 0
-8872 8847 0
-5390 8734 8868 8870 8871 8872 0
5390 -8734 0
5390 -8868 0
5390 -8870 0
5390 -8871 0
5390 -8872 0
8873 -8727 -8869 0
-8873 8727 0
-8873 8869 0
8874 -8860 -8869 0
-8874 8860 0
-8874 8869 0
8875 -8860 -8733 0
-8875 8860 0
-8875 8733 0
8876 -8727 -8733 -8847 0
-8876 8727 0
-8876 8733 0
-8876 8847 0
-3443 8736 8873 8874 8875 8876 0
3443 -8736 0
3443 -8873 0
3443 -8874 0
3443 -8875 0
3443 -8876 0
8877 -8721 -8860 0
-8877 8721 0
-8877 8860 0
8878 -8849 -8727 0
-8878 8849 0
-8878 8727 0
8879 -8849 -8860 0
-8879 8849 0
-8879 8860 0
8880 -8721 -8727 -8847 0
-8880 8721 0
-8880 8727 0
-8880 8847 0
-3436 8738 8877 8878 8879 8880 0
3436 -8738 0
3436 -8877 0
3436 -8878 0
3436 -8879 0
3436 -8880 0
8881 -8721 -8849 0
-8881 8721 0
-8881 8849 0
8882 -8849 -8849 0
-8882 8849 0
-8882 8849 0
8883 -8849 -8721 0
-8883 8849 0
-8883 8721 0
8884 -8721 -8721 -8847 0
-8884 8721 0
-8884 8721 0
-8884 8847 0
-3438 8740 8881 8882 8883 8884 0
3438 -8740 0
3438 -8881 0
3438 -8882 0
3438 -8883 0
3438 -8884 0
8885 -8721 -8864 0
-8885 8721 0
-8885 8864 0
8886 -8849 -8864 0
-8886 8849 0
-8886 8864 0
8887 -8849 -8730 0
-8887 8849 0
-8887 8730 0
8888 -8721 -8730 -8847 0
-8888 8721 0
-8888 8730 0
-8888 8847 0
-3441 8742 8885 8886 8887 8888 0
3441 -8742 0
3441 -8885 0
3441 -8886 0
3441 -8887 0
3441 -8888 0
8889 -8721 -8869 0
-8889 8721 0
-8889 8869 0
8890 -8849 -8733 0
-8890 8849 0
-8890 8733 0
8891 -8849 -8869 0
-8891 8849 0
-8891 8869 0
8892 -8721 -8733 -8847 0
-8892 8721 0
-8892 8733 0
-8892 8847 0
-3444 8744 8889 8890 8891 8892 0
3444 -8744 0
3444 -8889 0
3444 -8890 0
3444 -8891 0
3444 -8892 0
8893 -8724 -8869 0
-8893 8724 0
-8893 8869 0
8894 -8854 -8869 0
-8894 8854 0
-8894 8869 0
8895 -8854 -8733 0
-8895 8854 0
-8895 8733 0
8896 -8724 -8733 -8847 0
-8896 8724 0
-8896 8733 0
-8896 8847 0
-3447 8746 8893 8894 8895 8896 0
3447 -8746 0
3447 -8893 0
3447 -8894 0
3447 -8895 0
3447 -8896 0
8897 -8730 -8860 0
-8897 8730 0
-8897 8860 0
8898 -8864 -8727 0
-8898 8864 0
-8898 8727 0
8899 -8864 -8860 0
-8899 8864 0
-8899 8860 0
8900 -8730 -8727 -8847 0
-8900 8730 0
-8900 8727 0
-8900 8847 0
-3440 8748 8897 8898 8899 8900 0
3440 -8748 0
3440 -8897 0
3440 -8898 0
3440 -8899 0
3440 -8900 0
8901 -8730 -8854 0
-8901 8730 0
-8901 8854 0
8902 -8864 -8724 0
-8902 8864 0
-8902 8724 0
8903 -8864 -8854 0
-8903 8864 0
-8903 8854 0
8904 -8730 -8724 -8847 0
-8904 8730 0
-8904 8724 0
-8904 8847 0
-3449 8750 8901 8902 8903 8904 0
3449 -8750 0
3449 -8901 0
3449 -8902 0
3449 -8903 0
3449 -8904 0
8905 -8730 -8864 0
-8905 8730 0
-8905 8864 0
8906 -8864 -8864 0
-8906 8864 0
-8906 8864 0
8907 -8864 -8730 0
-8907 8864 0
-8907 8730 0
8908 -8730 -8730 -8847 0
-8908 8730 0
-8908 8730 0
-8908 8847 0
-3452 8752 8905 8906 8907 8908 0
3452 -8752 0
3452 -8905 0
3452 -8906 0
3452 -8907 0
3452 -8908 0
8909 -6687 -6680 0
-8909 6687 0
-8909 6680 0
8910 -6680 -6680 0
-8910 6680 0
-8910 6680 0
8911 -6680 -6687 0
-8911 6680 0
-8911 6687 0
8912 -6687 -6687 -6732 0
-8912 6687 0
-8912 6687 0
-8912 6732 0
-2342 6652 8909 8910 8911 8912 0
2342 -6652 0
2342 -8909 0
2342 -8910 0
2342 -8911 0
2342 -8912 0
8913 -6687 -6675 0
-8913 6687 0
-8913 6675 0
8914 -6680 -6675 0
-8914 6680 0
-8914 6675 0
8915 -6680 -6682 0
-8915 6680 0
-8915 6682 0
8916 -6687 -6682 -6732 0
-8916 6687 0
-8916 6682 0
-8916 6732 0
-2349 6647 8913 8914 8915 8916 0
2349 -6647 0
2349 -8913 0
2349 -8914 0
2349 -8915 0
2349 -8916 0
8917 -6687 -6678 0
-8917 6687 0
-8917 6678 0
8918 -6680 -6684 0
-8918 6680 0
-8918 6684 0
8919 -6680 -6678 0
-8919 6680 0
-8919 6678 0
8920 -6687 -6684 -6732 0
-8920 6687 0
-8920 6684 0
-8920 6732 0
-2356 6646 8917 8918 8919 8920 0
2356 -6646 0
2356 -8917 0
2356 -8918 0
2356 -8919 0
2356 -8920 0
8921 -6692 -6678 0
-8921 6692 0
-8921 6678 0
8922 -6722 -6678 0
-8922 6722 0
-8922 6678 0
8923 -6722 -6684 0
-8923 6722 0
-8923 6684 0
8924 -6692 -6684 -6732 0
-8924 6692 0
-8924 6684 0
-8924 6732 0
-2363 6668 8921 8922 8923 8924 0
2363 -6668 0
2363 -8921 0
2363 -8922 0
2363 -8923 0
2363 -8924 0
8925 -6687 -6707 0
-8925 6687 0
-8925 6707 0
8926 -6680 -6707 0
-8926 6680 0
-8926 6707 0
8927 -6680 -6712 0
-8927 6680 0
-8927 6712 0
8928 -6687 -6712 -6732 0
-8928 6687 0
-8928 6712 0
-8928 6732 0
-2336 6659 8925 8926 8927 8928 0
2336 -6659 0
2336 -8925 0
2336 -8926 0
2336 -8927 0
2336 -8928 0
8929 -6687 -6727 0
-8929 6687 0
-8929 6727 0
8930 -6680 -6717 0
-8930 6680 0
-8930 6717 0
8931 -6680 -6727 0
-8931 6680 0
-8931 6727 0
8932 -6687 -6717 -6732 0
-8932 6687 0
-8932 6717 0
-8932 6732 0
-2335 6666 8929 8930 8931 8932 0
2335 -6666 0
2335 -8929 0
2335 -8930 0
2335 -8931 0
2335 -8932 0
8933 -6692 -6727 0
-8933 6692 0
-8933 6727 0
8934 -6722 -6727 0
-8934 6722 0
-8934 6727 0
8935 -6722 -6717 0
-8935 6722 0
-8935 6717 0
8936 -6692 -6717 -6732 0
-8936 6692 0
-8936 6717 0
-8936 6732 0
-2358 6673 8933 8934 8935 8936 0
2358 -6673 0
2358 -8933 0
2358 -8934 0
2358 -8935 0
2358 -8936 0
8937 -6682 -6722 0
-8937 6682 0
-8937 6722 0
8938 -6675 -6692 0
-8938 6675 0
-8938 6692 0
8939 -6675 -6722 0
-8939 6675 0
-8939 6722 0
8940 -6682 -6692 -6732 0
-8940 6682 0
-8940 6692 0
-8940 6732 0
-2368 6670 8937 8938 8939 8940 0
2368 -6670 0
2368 -8937 0
2368 -8938 0
2368 -8939 0
2368 -8940 0
8941 -6682 -6675 0
-8941 6682 0
-8941 6675 0
6729 -6675 -6675 0
-6729 6675 0
-6729 6675 0
8942 -6675 -6682 0
-8942 6675 0
-8942 6682 0
8943 -6682 -6682 -6732 0
-8943 6682 0
-8943 6682 0
-8943 6732 0
-2374 6651 8941 6729 8942 8943 0
2374 -6651 0
2374 -8941 0
2374 -6729 0
2374 -8942 0
2374 -8943 0
8944 -6682 -6707 0
-8944 6682 0
-8944 6707 0
8945 -6675 -6707 0
-8945 6675 0
-8945 6707 0
8946 -6675 -6712 0
-8946 6675 0
-8946 6712 0
8947 -6682 -6712 -6732 0
-8947 6682 0
-8947 6712 0
-8947 6732 0
-2344 6654 8944 8945 8946 8947 0
2344 -6654 0
2344 -8944 0
2344 -8945 0
2344 -8946 0
2344 -8947 0
8948 -6682 -6727 0
-8948 6682 0
-8948 6727 0
8949 -6675 -6717 0
-8949 6675 0
-8949 6717 0
8950 -6675 -6727 0
-8950 6675 0
-8950 6727 0
8951 -6682 -6717 -6732 0
-8951 6682 0
-8951 6717 0
-8951 6732 0
-2347 6661 8948 8949 8950 8951 0
2347 -6661 0
2347 -8948 0
2347 -8949 0
2347 -8950 0
2347 -8951 0
8952 -6684 -6727 0
-8952 6684 0
-8952 6727 0
8953 -6678 -6727 0
-8953 6678 0
-8953 6727 0
8954 -6678 -6717 0
-8954 6678 0
-8954 6717 0
8955 -6684 -6717 -6732 0
-8955 6684 0
-8955 6717 0
-8955 6732 0
-2353 6663 8952 8953 8954 8955 0
2353 -6663 0
2353 -8952 0
2353 -8953 0
2353 -8954 0
2353 -8955 0
8956 -6712 -6722 0
-8956 6712 0
-8956 6722 0
8957 -6707 -6692 0
-8957 6707 0
-8957 6692 0
8958 -6707 -6722 0
-8958 6707 0
-8958 6722 0
8959 -6712 -6692 -6732 0
-8959 6712 0
-8959 6692 0
-8959 6732 0
-2360 6697 8956 8957 8958 8959 0
2360 -6697 0
2360 -8956 0
2360 -8957 0
2360 -8958 0
2360 -8959 0
8960 -6712 -6678 0
-8960 6712 0
-8960 6678 0
8961 -6707 -6684 0
-8961 6707 0
-8961 6684 0
8962 -6707 -6678 0
-8962 6707 0
-8962 6678 0
8963 -6712 -6684 -6732 0
-8963 6712 0
-8963 6684 0
-8963 6732 0
-2351 6657 8960 8961 8962 8963 0
2351 -6657 0
2351 -8960 0
2351 -8961 0
2351 -8962 0
2351 -8963 0
8964 -6712 -6707 0
-8964 6712 0
-8964 6707 0
7226 -6707 -6707 0
-7226 6707 0
-7226 6707 0
8965 -6707 -6712 0
-8965 6707 0
-8965 6712 0
8966 -6712 -6712 -6732 0
-8966 6712 0
-8966 6712 0
-8966 6732 0
-2340 6702 8964 7226 8965 8966 0
2340 -6702 0
2340 -8964 0
2340 -7226 0
2340 -8965 0
2340 -8966 0
8967 -7772 -7772 0
-8967 7772 0
-8967 7772 0
-2258 7757 8967 0
2258 -7757 0
2258 -8967 0
8968 -7772 -7782 0
-8968 7772 0
-8968 7782 0
-2254 7760 8968 0
2254 -7760 0
2254 -8968 0
8969 -7772 -7784 0
-8969 7772 0
-8969 7784 0
-2278 7763 8969 0
2278 -7763 0
2278 -8969 0
8970 -7774 -7784 0
-8970 7774 0
-8970 7784 0
-2276 7766 8970 0
2276 -7766 0
2276 -8970 0
8971 -7772 -8972 0
-8971 7772 0
-8971 8972 0
-2262 8973 8971 0
2262 -8973 0
2262 -8971 0
8974 -7772 -7771 0
-8974 7772 0
-8974 7771 0
-2269 7756 8974 0
2269 -7756 0
2269 -8974 0
8975 -7774 -7771 0
-8975 7774 0
-8975 7771 0
-2271 7765 8975 0
2271 -7765 0
2271 -8975 0
8976 -7782 -7774 0
-8976 7782 0
-8976 7774 0
-2253 7776 8976 0
2253 -7776 0
2253 -8976 0
8977 -7782 -7782 0
-8977 7782 0
-8977 7782 0
-2260 7778 8977 0
2260 -7778 0
2260 -8977 0
8978 -7782 -8972 0
-8978 7782 0
-8978 8972 0
-2267 8979 8978 0
2267 -8979 0
2267 -8978 0
8980 -7782 -7771 0
-8980 7782 0
-8980 7771 0
-2274 7759 8980 0
2274 -7759 0
2274 -8980 0
8981 -7784 -7771 0
-8981 7784 0
-8981 7771 0
-2281 7762 8981 0
2281 -7762 0
2281 -8981 0
8982 -8972 -7774 0
-8982 8972 0
-8982 7774 0
-2265 8983 8982 0
2265 -8983 0
2265 -8982 0
8984 -8972 -7784 0
-8984 8972 0
-8984 7784 0
-2286 8985 8984 0
2286 -8985 0
2286 -8984 0
8986 -8972 -8972 0
-8986 8972 0
-8986 8972 0
-2292 8987 8986 0
2292 -8987 0
2292 -8986 0
8988 -7848 -7848 0
-8988 7848 0
-8988 7848 0
-5303 7834 8988 0
5303 -7834 0
5303 -8988 0
8989 -7848 -7843 0
-8989 7848 0
-8989 7843 0
-5299 7829 8989 0
5299 -7829 0
5299 -8989 0
8990 -7848 -7845 0
-8990 7848 0
-8990 7845 0
-5323 7828 8990 0
5323 -7828 0
5323 -8990 0
8991 -7855 -7845 0
-8991 7855 0
-8991 7845 0
-5321 7850 8991 0
5321 -7850 0
5321 -8991 0
8992 -7848 -7909 0
-8992 7848 0
-8992 7909 0
-5307 7862 8992 0
5307 -7862 0
5307 -8992 0
8993 -7848 -7899 0
-8993 7848 0
-8993 7899 0
-5314 7869 8993 0
5314 -7869 0
5314 -8993 0
8994 -7855 -7899 0
-8994 7855 0
-8994 7899 0
-5316 7874 8994 0
5316 -7874 0
5316 -8994 0
8995 -7843 -7855 0
-8995 7843 0
-8995 7855 0
-5298 7852 8995 0
5298 -7852 0
5298 -8995 0
8996 -7843 -7843 0
-8996 7843 0
-8996 7843 0
-5305 7833 8996 0
5305 -7833 0
5305 -8996 0
8997 -7843 -7909 0
-8997 7843 0
-8997 7909 0
-5312 7857 8997 0
5312 -7857 0
5312 -8997 0
8998 -7843 -7899 0
-8998 7843 0
-8998 7899 0
-5319 7864 8998 0
5319 -7864 0
5319 -8998 0
8999 -7845 -7899 0
-8999 7845 0
-8999 7899 0
-5326 7866 8999 0
5326 -7866 0
5326 -8999 0
9000 -7909 -7855 0
-9000 7909 0
-9000 7855 0
-5310 7904 9000 0
5310 -7904 0
5310 -9000 0
9001 -7909 -7845 0
-9001 7909 0
-9001 7845 0
-5331 7860 9001 0
5331 -7860 0
5331 -9001 0
9002 -7909 -7909 0
-9002 7909 0
-9002 7909 0
-5337 7914 9002 0
5337 -7914 0
5337 -9002 0
9003 -7273 -7273 0
-9003 7273 0
-9003 7273 0
-4732 7267 9003 0
4732 -7267 0
4732 -9003 0
9004 -7273 -7923 0
-9004 7273 0
-9004 7923 0
-4728 7925 9004 0
4728 -7925 0
4728 -9004 0
9005 -7273 -7272 0
-9005 7273 0
-9005 7272 0
-4752 7266 9005 0
4752 -7266 0
4752 -9005 0
9006 -7276 -7272 0
-9006 7276 0
-9006 7272 0
-4750 7275 9006 0
4750 -7275 0
4750 -9006 0
9007 -7273 -7298 0
-9007 7273 0
-9007 7298 0
-4736 7279 9007 0
4736 -7279 0
4736 -9007 0
9008 -7273 -7294 0
-9008 7273 0
-9008 7294 0
-4743 7282 9008 0
4743 -7282 0
4743 -9008 0
9009 -7276 -7294 0
-9009 7276 0
-9009 7294 0
-4745 7284 9009 0
4745 -7284 0
4745 -9009 0
9010 -7923 -7276 0
-9010 7923 0
-9010 7276 0
-4727 7950 9010 0
4727 -7950 0
4727 -9010 0
9011 -7923 -7923 0
-9011 7923 0
-9011 7923 0
-4734 7955 9011 0
4734 -7955 0
4734 -9011 0
9012 -7923 -7298 0
-9012 7923 0
-9012 7298 0
-4741 7960 9012 0
4741 -7960 0
4741 -9012 0
9013 -7923 -7294 0
-9013 7923 0
-9013 7294 0
-4748 7965 9013 0
4748 -7965 0
4748 -9013 0
9014 -7272 -7294 0
-9014 7272 0
-9014 7294 0
-4755 7281 9014 0
4755 -7281 0
4755 -9014 0
9015 -7298 -7276 0
-9015 7298 0
-9015 7276 0
-4739 7296 9015 0
4739 -7296 0
4739 -9015 0
9016 -7298 -7272 0
-9016 7298 0
-9016 7272 0
-4760 7278 9016 0
4760 -7278 0
4760 -9016 0
9017 -7298 -7298 0
-9017 7298 0
-9017 7298 0
-4766 7300 9017 0
4766 -7300 0
4766 -9017 0
9018 -9019 -9019 0
-9018 9019 0
-9018 9019 0
-2825 9020 9018 0
2825 -9020 0
2825 -9018 0
9021 -9019 -9022 0
-9021 9019 0
-9021 9022 0
-2821 9023 9021 0
2821 -9023 0
2821 -9021 0
9024 -9019 -9025 0
-9024 9019 0
-9024 9025 0
-2845 9026 9024 0
2845 -9026 0
2845 -9024 0
9027 -9028 -9025 0
-9027 9028 0
-9027 9025 0
-2843 9029 9027 0
2843 -9029 0
2843 -9027 0
9030 -9019 -9031 0
-9030 9019 0
-9030 9031 0
-2829 9032 9030 0
2829 -9032 0
2829 -9030 0
9033 -9019 -9034 0
-9033 9019 0
-9033 9034 0
-2836 9035 9033 0
2836 -9035 0
2836 -9033 0
9036 -9028 -9034 0
-9036 9028 0
-9036 9034 0
-2838 9037 9036 0
2838 -9037 0
2838 -9036 0
9038 -9022 -9028 0
-9038 9022 0
-9038 9028 0
-2820 9039 9038 0
2820 -9039 0
2820 -9038 0
9040 -9022 -9022 0
-9040 9022 0
-9040 9022 0
-2827 9041 9040 0
2827 -9041 0
2827 -9040 0
9042 -9022 -9031 0
-9042 9022 0
-9042 9031 0
-2834 9043 9042 0
2834 -9043 0
2834 -9042 0
9044 -9022 -9034 0
-9044 9022 0
-9044 9034 0
-2841 9045 9044 0
2841 -9045 0
2841 -9044 0
9046 -9025 -9034 0
-9046 9025 0
-9046 9034 0
-2848 9047 9046 0
2848 -9047 0
2848 -9046 0
9048 -9031 -9028 0
-9048 9031 0
-9048 9028 0
-2832 9049 9048 0
2832 -9049 0
2832 -9048 0
9050 -9031 -9025 0
-9050 9031 0
-9050 9025 0
-2853 9051 9050 0
2853 -9051 0
2853 -9050 0
9052 -9031 -9031 0
-9052 9031 0
-9052 9031 0
-2859 9053 9052 0
2859 -9053 0
2859 -9052 0
9054 -6754 -6747 0
-9054 6754 0
-9054 6747 0
9055 -6747 -6747 0
-9055 6747 0
-9055 6747 0
9056 -6747 -6754 0
-9056 6747 0
-9056 6754 0
9057 -6754 -6754 -6790 0
-9057 6754 0
-9057 6754 0
-9057 6790 0
-5501 6740 9054 9055 9056 9057 0
5501 -6740 0
5501 -9054 0
5501 -9055 0
5501 -9056 0
5501 -9057 0
9058 -6754 -6742 0
-9058 6754 0
-9058 6742 0
9059 -6747 -6742 0
-9059 6747 0
-9059 6742 0
9060 -6747 -6749 0
-9060 6747 0
-9060 6749 0
9061 -6754 -6749 -6790 0
-9061 6754 0
-9061 6749 0
-9061 6790 0
-5497 6735 9058 9059 9060 9061 0
5497 -6735 0
5497 -9058 0
5497 -9059 0
5497 -9060 0
5497 -9061 0
9062 -6754 -6745 0
-9062 6754 0
-9062 6745 0
9063 -6747 -6751 0
-9063 6747 0
-9063 6751 0
9064 -6747 -6745 0
-9064 6747 0
-9064 6745 0
9065 -6754 -6751 -6790 0
-9065 6754 0
-9065 6751 0
-9065 6790 0
-5515 6734 9062 9063 9064 9065 0
5515 -6734 0
5515 -9062 0
5515 -9063 0
5515 -9064 0
5515 -9065 0
9066 -6761 -6745 0
-9066 6761 0
-9066 6745 0
9067 -6785 -6745 0
-9067 6785 0
-9067 6745 0
9068 -6785 -6751 0
-9068 6785 0
-9068 6751 0
9069 -6761 -6751 -6790 0
-9069 6761 0
-9069 6751 0
-9069 6790 0
-2453 6756 9066 9067 9068 9069 0
2453 -6756 0
2453 -9066 0
2453 -9067 0
2453 -9068 0
2453 -9069 0
9070 -6754 -6795 0
-9070 6754 0
-9070 6795 0
9071 -6747 -6795 0
-9071 6747 0
-9071 6795 0
9072 -6747 -6815 0
-9072 6747 0
-9072 6815 0
9073 -6754 -6815 -6790 0
-9073 6754 0
-9073 6815 0
-9073 6790 0
-5504 6768 9070 9071 9072 9073 0
5504 -6768 0
5504 -9070 0
5504 -9071 0
5504 -9072 0
5504 -9073 0
9074 -6754 -6800 0
-9074 6754 0
-9074 6800 0
9075 -6747 -6805 0
-9075 6747 0
-9075 6805 0
9076 -6747 -6800 0
-9076 6747 0
-9076 6800 0
9077 -6754 -6805 -6790 0
-9077 6754 0
-9077 6805 0
-9077 6790 0
-5509 6775 9074 9075 9076 9077 0
5509 -6775 0
5509 -9074 0
5509 -9075 0
5509 -9076 0
5509 -9077 0
9078 -6761 -6800 0
-9078 6761 0
-9078 6800 0
9079 -6785 -6800 0
-9079 6785 0
-9079 6800 0
9080 -6785 -6805 0
-9080 6785 0
-9080 6805 0
9081 -6761 -6805 -6790 0
-9081 6761 0
-9081 6805 0
-9081 6790 0
-2450 6780 9078 9079 9080 9081 0
2450 -6780 0
2450 -9078 0
2450 -9079 0
2450 -9080 0
2450 -9081 0
9082 -6749 -6785 0
-9082 6749 0
-9082 6785 0
9083 -6742 -6761 0
-9083 6742 0
-9083 6761 0
9084 -6742 -6785 0
-9084 6742 0
-9084 6785 0
9085 -6749 -6761 -6790 0
-9085 6749 0
-9085 6761 0
-9085 6790 0
-2443 6758 9082 9083 9084 9085 0
2443 -6758 0
2443 -9082 0
2443 -9083 0
2443 -9084 0
2443 -9085 0
9086 -6749 -6742 0
-9086 6749 0
-9086 6742 0
6787 -6742 -6742 0
-6787 6742 0
-6787 6742 0
9087 -6742 -6749 0
-9087 6742 0
-9087 6749 0
9088 -6749 -6749 -6790 0
-9088 6749 0
-9088 6749 0
-9088 6790 0
-2445 6739 9086 6787 9087 9088 0
2445 -6739 0
2445 -9086 0
2445 -6787 0
2445 -9087 0
2445 -9088 0
9089 -6749 -6795 0
-9089 6749 0
-9089 6795 0
9090 -6742 -6795 0
-9090 6742 0
-9090 6795 0
9091 -6742 -6815 0
-9091 6742 0
-9091 6815 0
9092 -6749 -6815 -6790 0
-9092 6749 0
-9092 6815 0
-9092 6790 0
-2448 6763 9089 9090 9091 9092 0
2448 -6763 0
2448 -9089 0
2448 -9090 0
2448 -9091 0
2448 -9092 0
9093 -6749 -6800 0
-9093 6749 0
-9093 6800 0
9094 -6742 -6805 0
-9094 6742 0
-9094 6805 0
9095 -6742 -6800 0
-9095 6742 0
-9095 6800 0
9096 -6749 -6805 -6790 0
-9096 6749 0
-9096 6805 0
-9096 6790 0
-2451 6770 9093 9094 9095 9096 0
2451 -6770 0
2451 -9093 0
2451 -9094 0
2451 -9095 0
2451 -9096 0
9097 -6751 -6800 0
-9097 6751 0
-9097 6800 0
9098 -6745 -6800 0
-9098 6745 0
-9098 6800 0
9099 -6745 -6805 0
-9099 6745 0
-9099 6805 0
9100 -6751 -6805 -6790 0
-9100 6751 0
-9100 6805 0
-9100 6790 0
-2454 6772 9097 9098 9099 9100 0
2454 -6772 0
2454 -9097 0
2454 -9098 0
2454 -9099 0
2454 -9100 0
9101 -6815 -6785 0
-9101 6815 0
-9101 6785 0
9102 -6795 -6761 0
-9102 6795 0
-9102 6761 0
9103 -6795 -6785 0
-9103 6795 0
-9103 6785 0
9104 -6815 -6761 -6790 0
-9104 6815 0
-9104 6761 0
-9104 6790 0
-2447 6810 9101 9102 9103 9104 0
2447 -6810 0
2447 -9101 0
2447 -9102 0
2447 -9103 0
2447 -9104 0
9105 -6815 -6745 0
-9105 6815 0
-9105 6745 0
9106 -6795 -6751 0
-9106 6795 0
-9106 6751 0
9107 -6795 -6745 0
-9107 6795 0
-9107 6745 0
9108 -6815 -6751 -6790 0
-9108 6815 0
-9108 6751 0
-9108 6790 0
-2456 6766 9105 9106 9107 9108 0
2456 -6766 0
2456 -9105 0
2456 -9106 0
2456 -9107 0
2456 -9108 0
9109 -6815 -6795 0
-9109 6815 0
-9109 6795 0
9110 -6795 -6795 0
-9110 6795 0
-9110 6795 0
9111 -6795 -6815 0
-9111 6795 0
-9111 6815 0
9112 -6815 -6815 -6790 0
-9112 6815 0
-9112 6815 0
-9112 6790 0
-2459 6820 9109 9110 9111 9112 0
2459 -6820 0
2459 -9109 0
2459 -9110 0
2459 -9111 0
2459 -9112 0
9113 -6829 -6829 0
-9113 6829 0
-9113 6829 0
-2522 6823 9113 0
2522 -6823 0
2522 -9113 0
9114 -6829 -6884 0
-9114 6829 0
-9114 6884 0
-4423 6873 9114 0
4423 -6873 0
4423 -9114 0
9115 -6829 -6828 0
-9115 6829 0
-9115 6828 0
-2520 6822 9115 0
2520 -6822 0
2520 -9115 0
9116 -6832 -6828 0
-9116 6832 0
-9116 6828 0
-1823 6831 9116 0
1823 -6831 0
1823 -9116 0
9117 -6829 -6854 0
-9117 6829 0
-9117 6854 0
-2524 6835 9117 0
2524 -6835 0
2524 -9117 0
9118 -6829 -6850 0
-9118 6829 0
-9118 6850 0
-2526 6838 9118 0
2526 -6838 0
2526 -9118 0
9119 -6832 -6850 0
-9119 6832 0
-9119 6850 0
-1820 6840 9119 0
1820 -6840 0
1820 -9119 0
9120 -6884 -6832 0
-9120 6884 0
-9120 6832 0
-1813 6890 9120 0
1813 -6890 0
1813 -9120 0
9121 -6884 -6884 0
-9121 6884 0
-9121 6884 0
-1815 6877 9121 0
1815 -6877 0
1815 -9121 0
9122 -6884 -6854 0
-9122 6884 0
-9122 6854 0
-1818 6894 9122 0
1818 -6894 0
1818 -9122 0
9123 -6884 -6850 0
-9123 6884 0
-9123 6850 0
-1821 6899 9123 0
1821 -6899 0
1821 -9123 0
9124 -6828 -6850 0
-9124 6828 0
-9124 6850 0
-1824 6837 9124 0
1824 -6837 0
1824 -9124 0
9125 -6854 -6832 0
-9125 6854 0
-9125 6832 0
-1817 6852 9125 0
1817 -6852 0
1817 -9125 0
9126 -6854 -6828 0
-9126 6854 0
-9126 6828 0
-1826 6834 9126 0
1826 -6834 0
1826 -9126 0
9127 -6854 -6854 0
-9127 6854 0
-9127 6854 0
-1829 6856 9127 0
1829 -6856 0
1829 -9127 0
9128 -7048 -8490 0
-9128 7048 0
-9128 8490 0
9129 -8490 -8490 0
-9129 8490 0
-9129 8490 0
9130 -8490 -7048 0
-9130 8490 0
-9130 7048 0
9131 -7048 -7048 -8520 0
-9131 7048 0
-9131 7048 0
-9131 8520 0
-2172 7049 9128 9129 9130 9131 0
2172 -7049 0
2172 -9128 0
2172 -9129 0
2172 -9130 0
2172 -9131 0
9132 -7048 -8485 0
-9132 7048 0
-9132 8485 0
9133 -8490 -8485 0
-9133 8490 0
-9133 8485 0
9134 -8490 -7051 0
-9134 8490 0
-9134 7051 0
9135 -7048 -7051 -8520 0
-9135 7048 0
-9135 7051 0
-9135 8520 0
-3191 7052 9132 9133 9134 9135 0
3191 -7052 0
3191 -9132 0
3191 -9133 0
3191 -9134 0
3191 -9135 0
9136 -7048 -8488 0
-9136 7048 0
-9136 8488 0
9137 -8490 -7054 0
-9137 8490 0
-9137 7054 0
9138 -8490 -8488 0
-9138 8490 0
-9138 8488 0
9139 -7048 -7054 -8520 0
-9139 7048 0
-9139 7054 0
-9139 8520 0
-2170 7055 9136 9137 9138 9139 0
2170 -7055 0
2170 -9136 0
2170 -9137 0
2170 -9138 0
2170 -9139 0
9140 -7057 -8488 0
-9140 7057 0
-9140 8488 0
9141 -8515 -8488 0
-9141 8515 0
-9141 8488 0
9142 -8515 -7054 0
-9142 8515 0
-9142 7054 0
9143 -7057 -7054 -8520 0
-9143 7057 0
-9143 7054 0
-9143 8520 0
-2180 7058 9140 9141 9142 9143 0
2180 -7058 0
2180 -9140 0
2180 -9141 0
2180 -9142 0
2180 -9143 0
9144 -7048 -8525 0
-9144 7048 0
-9144 8525 0
9145 -8490 -8525 0
-9145 8490 0
-9145 8525 0
9146 -8490 -7060 0
-9146 8490 0
-9146 7060 0
9147 -7048 -7060 -8520 0
-9147 7048 0
-9147 7060 0
-9147 8520 0
-2175 7061 9144 9145 9146 9147 0
2175 -7061 0
2175 -9144 0
2175 -9145 0
2175 -9146 0
2175 -9147 0
9148 -7048 -8530 0
-9148 7048 0
-9148 8530 0
9149 -8490 -7063 0
-9149 8490 0
-9149 7063 0
9150 -8490 -8530 0
-9150 8490 0
-9150 8530 0
9151 -7048 -7063 -8520 0
-9151 7048 0
-9151 7063 0
-9151 8520 0
-2178 7064 9148 9149 9150 9151 0
2178 -7064 0
2178 -9148 0
2178 -9149 0
2178 -9150 0
2178 -9151 0
9152 -7057 -8530 0
-9152 7057 0
-9152 8530 0
9153 -8515 -8530 0
-9153 8515 0
-9153 8530 0
9154 -8515 -7063 0
-9154 8515 0
-9154 7063 0
9155 -7057 -7063 -8520 0
-9155 7057 0
-9155 7063 0
-9155 8520 0
-2181 7066 9152 9153 9154 9155 0
2181 -7066 0
2181 -9152 0
2181 -9153 0
2181 -9154 0
2181 -9155 0
9156 -7051 -8515 0
-9156 7051 0
-9156 8515 0
9157 -8485 -7057 0
-9157 8485 0
-9157 7057 0
9158 -8485 -8515 0
-9158 8485 0
-9158 8515 0
9159 -7051 -7057 -8520 0
-9159 7051 0
-9159 7057 0
-9159 8520 0
-3209 7068 9156 9157 9158 9159 0
3209 -7068 0
3209 -9156 0
3209 -9157 0
3209 -9158 0
3209 -9159 0
9160 -7051 -8485 0
-9160 7051 0
-9160 8485 0
8517 -8485 -8485 0
-8517 8485 0
-8517 8485 0
9161 -8485 -7051 0
-9161 8485 0
-9161 7051 0
9162 -7051 -7051 -8520 0
-9162 7051 0
-9162 7051 0
-9162 8520 0
-3195 7070 9160 8517 9161 9162 0
3195 -7070 0
3195 -9160 0
3195 -8517 0
3195 -9161 0
3195 -9162 0
9163 -7051 -8525 0
-9163 7051 0
-9163 8525 0
9164 -8485 -8525 0
-9164 8485 0
-9164 8525 0
9165 -8485 -7060 0
-9165 8485 0
-9165 7060 0
9166 -7051 -7060 -8520 0
-9166 7051 0
-9166 7060 0
-9166 8520 0
-3198 7072 9163 9164 9165 9166 0
3198 -7072 0
3198 -9163 0
3198 -9164 0
3198 -9165 0
3198 -9166 0
9167 -7051 -8530 0
-9167 7051 0
-9167 8530 0
9168 -8485 -7063 0
-9168 8485 0
-9168 7063 0
9169 -8485 -8530 0
-9169 8485 0
-9169 8530 0
9170 -7051 -7063 -8520 0
-9170 7051 0
-9170 7063 0
-9170 8520 0
-3203 7074 9167 9168 9169 9170 0
3203 -7074 0
3203 -9167 0
3203 -9168 0
3203 -9169 0
3203 -9170 0
9171 -7054 -8530 0
-9171 7054 0
-9171 8530 0
9172 -8488 -8530 0
-9172 8488 0
-9172 8530 0
9173 -8488 -7063 0
-9173 8488 0
-9173 7063 0
9174 -7054 -7063 -8520 0
-9174 7054 0
-9174 7063 0
-9174 8520 0
-2177 7076 9171 9172 9173 9174 0
2177 -7076 0
2177 -9171 0
2177 -9172 0
2177 -9173 0
2177 -9174 0
9175 -7060 -8515 0
-9175 7060 0
-9175 8515 0
9176 -8525 -7057 0
-9176 8525 0
-9176 7057 0
9177 -8525 -8515 0
-9177 8525 0
-9177 8515 0
9178 -7060 -7057 -8520 0
-9178 7060 0
-9178 7057 0
-9178 8520 0
-2183 7078 9175 9176 9177 9178 0
2183 -7078 0
2183 -9175 0
2183 -9176 0
2183 -9177 0
2183 -9178 0
9179 -7060 -8488 0
-9179 7060 0
-9179 8488 0
9180 -8525 -7054 0
-9180 8525 0
-9180 7054 0
9181 -8525 -8488 0
-9181 8525 0
-9181 8488 0
9182 -7060 -7054 -8520 0
-9182 7060 0
-9182 7054 0
-9182 8520 0
-2174 7080 9179 9180 9181 9182 0
2174 -7080 0
2174 -9179 0
2174 -9180 0
2174 -9181 0
2174 -9182 0
9183 -7060 -8525 0
-9183 7060 0
-9183 8525 0
9184 -8525 -8525 0
-9184 8525 0
-9184 8525 0
9185 -8525 -7060 0
-9185 8525 0
-9185 7060 0
9186 -7060 -7060 -8520 0
-9186 7060 0
-9186 7060 0
-9186 8520 0
-2186 7082 9183 9184 9185 9186 0
2186 -7082 0
2186 -9183 0
2186 -9184 0
2186 -9185 0
2186 -9186 0
9187 -7302 -9188 0
-9187 7302 0
-9187 9188 0
9189 -9188 -9188 0
-9189 9188 0
-9189 9188 0
9190 -9188 -7302 0
-9190 9188 0
-9190 7302 0
9191 -7302 -7302 -9192 0
-9191 7302 0
-9191 7302 0
-9191 9192 0
-3054 7303 9187 9189 9190 9191 0
3054 -7303 0
3054 -9187 0
3054 -9189 0
3054 -9190 0
3054 -9191 0
9193 -7302 -9194 0
-9193 7302 0
-9193 9194 0
9195 -9188 -9194 0
-9195 9188 0
-9195 9194 0
9196 -9188 -7305 0
-9196 9188 0
-9196 7305 0
9197 -7302 -7305 -9192 0
-9197 7302 0
-9197 7305 0
-9197 9192 0
-3050 7306 9193 9195 9196 9197 0
3050 -7306 0
3050 -9193 0
3050 -9195 0
3050 -9196 0
3050 -9197 0
9198 -7302 -9199 0
-9198 7302 0
-9198 9199 0
9200 -9188 -7308 0
-9200 9188 0
-9200 7308 0
9201 -9188 -9199 0
-9201 9188 0
-9201 9199 0
9202 -7302 -7308 -9192 0
-9202 7302 0
-9202 7308 0
-9202 9192 0
-3068 7309 9198 9200 9201 9202 0
3068 -7309 0
3068 -9198 0
3068 -9200 0
3068 -9201 0
3068 -9202 0
9203 -7311 -9199 0
-9203 7311 0
-9203 9199 0
9204 -9205 -9199 0
-9204 9205 0
-9204 9199 0
9206 -9205 -7308 0
-9206 9205 0
-9206 7308 0
9207 -7311 -7308 -9192 0
-9207 7311 0
-9207 7308 0
-9207 9192 0
-2031 7312 9203 9204 9206 9207 0
2031 -7312 0
2031 -9203 0
2031 -9204 0
2031 -9206 0
2031 -9207 0
9208 -7302 -9209 0
-9208 7302 0
-9208 9209 0
9210 -9188 -9209 0
-9210 9188 0
-9210 9209 0
9211 -9188 -7314 0
-9211 9188 0
-9211 7314 0
9212 -7302 -7314 -9192 0
-9212 7302 0
-9212 7314 0
-9212 9192 0
-3057 7315 9208 9210 9211 9212 0
3057 -7315 0
3057 -9208 0
3057 -9210 0
3057 -9211 0
3057 -9212 0
9213 -7302 -9214 0
-9213 7302 0
-9213 9214 0
9215 -9188 -7317 0
-9215 9188 0
-9215 7317 0
9216 -9188 -9214 0
-9216 9188 0
-9216 9214 0
9217 -7302 -7317 -9192 0
-9217 7302 0
-9217 7317 0
-9217 9192 0
-3062 7318 9213 9215 9216 9217 0
3062 -7318 0
3062 -9213 0
3062 -9215 0
3062 -9216 0
3062 -9217 0
9218 -7311 -9214 0
-9218 7311 0
-9218 9214 0
9219 -9205 -9214 0
-9219 9205 0
-9219 9214 0
9220 -9205 -7317 0
-9220 9205 0
-9220 7317 0
9221 -7311 -7317 -9192 0
-9221 7311 0
-9221 7317 0
-9221 9192 0
-2028 7320 9218 9219 9220 9221 0
2028 -7320 0
2028 -9218 0
2028 -9219 0
2028 -9220 0
2028 -9221 0
9222 -7305 -9205 0
-9222 7305 0
-9222 9205 0
9223 -9194 -7311 0
-9223 9194 0
-9223 7311 0
9224 -9194 -9205 0
-9224 9194 0
-9224 9205 0
9225 -7305 -7311 -9192 0
-9225 7305 0
-9225 7311 0
-9225 9192 0
-2021 7322 9222 9223 9224 9225 0
2021 -7322 0
2021 -9222 0
2021 -9223 0
2021 -9224 0
2021 -9225 0
9226 -7305 -9194 0
-9226 7305 0
-9226 9194 0
9227 -9194 -9194 0
-9227 9194 0
-9227 9194 0
9228 -9194 -7305 0
-9228 9194 0
-9228 7305 0
9229 -7305 -7305 -9192 0
-9229 7305 0
-9229 7305 0
-9229 9192 0
-2023 7324 9226 9227 9228 9229 0
2023 -7324 0
2023 -9226 0
2023 -9227 0
2023 -9228 0
2023 -9229 0
9230 -7305 -9209 0
-9230 7305 0
-9230 9209 0
9231 -9194 -9209 0
-9231 9194 0
-9231 9209 0
9232 -9194 -7314 0
-9232 9194 0
-9232 7314 0
9233 -7305 -7314 -9192 0
-9233 7305 0
-9233 7314 0
-9233 9192 0
-2026 7326 9230 9231 9232 9233 0
2026 -7326 0
2026 -9230 0
2026 -9231 0
2026 -9232 0
2026 -9233 0
9234 -7305 -9214 0
-9234 7305 0
-9234 9214 0
9235 -9194 -7317 0
-9235 9194 0
-9235 7317 0
9236 -9194 -9214 0
-9236 9194 0
-9236 9214 0
9237 -7305 -7317 -9192 0
-9237 7305 0
-9237 7317 0
-9237 9192 0
-2029 7328 9234 9235 9236 9237 0
2029 -7328 0
2029 -9234 0
2029 -9235 0
2029 -9236 0
2029 -9237 0
9238 -7308 -9214 0
-9238 7308 0
-9238 9214 0
9239 -9199 -9214 0
-9239 9199 0
-9239 9214 0
9240 -9199 -7317 0
-9240 9199 0
-9240 7317 0
9241 -7308 -7317 -9192 0
-9241 7308 0
-9241 7317 0
-9241 9192 0
-2032 7330 9238 9239 9240 9241 0
2032 -7330 0
2032 -9238 0
2032 -9239 0
2032 -9240 0
2032 -9241 0
9242 -7314 -9205 0
-9242 7314 0
-9242 9205 0
9243 -9209 -7311 0
-9243 9209 0
-9243 7311 0
9244 -9209 -9205 0
-9244 9209 0
-9244 9205 0
9245 -7314 -7311 -9192 0
-9245 7314 0
-9245 7311 0
-9245 9192 0
-2025 7332 9242 9243 9244 9245 0
2025 -7332 0
2025 -9242 0
2025 -9243 0
2025 -9244 0
2025 -9245 0
9246 -7314 -9199 0
-9246 7314 0
-9246 9199 0
9247 -9209 -7308 0
-9247 9209 0
-9247 7308 0
9248 -9209 -9199 0
-9248 9209 0
-9248 9199 0
9249 -7314 -7308 -9192 0
-9249 7314 0
-9249 7308 0
-9249 9192 0
-2034 7334 9246 9247 9248 9249 0
2034 -7334 0
2034 -9246 0
2034 -9247 0
2034 -9248 0
2034 -9249 0
9250 -7314 -9209 0
-9250 7314 0
-9250 9209 0
9251 -9209 -9209 0
-9251 9209 0
-9251 9209 0
9252 -9209 -7314 0
-9252 9209 0
-9252 7314 0
9253 -7314 -7314 -9192 0
-9253 7314 0
-9253 7314 0
-9253 9192 0
-2037 7336 9250 9251 9252 9253 0
2037 -7336 0
2037 -9250 0
2037 -9251 0
2037 -9252 0
2037 -9253 0
9254 -8563 -8563 0
-9254 8563 0
-9254 8563 0
-5848 8569 9254 0
5848 -8569 0
5848 -9254 0
9255 -8563 -8574 0
-9255 8563 0
-9255 8574 0
-5844 8576 9255 0
5844 -8576 0
5844 -9255 0
9256 -8563 -8580 0
-9256 8563 0
-9256 8580 0
-5862 8583 9256 0
5862 -8583 0
5862 -9256 0
9257 -8585 -8580 0
-9257 8585 0
-9257 8580 0
-1520 8590 9257 0
1520 -8590 0
1520 -9257 0
9258 -8563 -8595 0
-9258 8563 0
-9258 8595 0
-5851 8597 9258 0
5851 -8597 0
5851 -9258 0
9259 -8563 -8601 0
-9259 8563 0
-9259 8601 0
-5856 8604 9259 0
5856 -8604 0
5856 -9259 0
9260 -8585 -8601 0
-9260 8585 0
-9260 8601 0
-1517 8609 9260 0
1517 -8609 0
1517 -9260 0
9261 -8574 -8585 0
-9261 8574 0
-9261 8585 0
-1510 8614 9261 0
1510 -8614 0
1510 -9261 0
9262 -8574 -8574 0
-9262 8574 0
-9262 8574 0
-1512 8619 9262 0
1512 -8619 0
1512 -9262 0
9263 -8574 -8595 0
-9263 8574 0
-9263 8595 0
-1515 8624 9263 0
1515 -8624 0
1515 -9263 0
9264 -8574 -8601 0
-9264 8574 0
-9264 8601 0
-1518 8629 9264 0
1518 -8629 0
1518 -9264 0
9265 -8580 -8601 0
-9265 8580 0
-9265 8601 0
-1521 8634 9265 0
1521 -8634 0
1521 -9265 0
9266 -8595 -8585 0
-9266 8595 0
-9266 8585 0
-1514 8639 9266 0
1514 -8639 0
1514 -9266 0
9267 -8595 -8580 0
-9267 8595 0
-9267 8580 0
-1523 8644 9267 0
1523 -8644 0
1523 -9267 0
9268 -8595 -8595 0
-9268 8595 0
-9268 8595 0
-1526 8649 9268 0
1526 -8649 0
1526 -9268 0
9269 -7142 -7142 0
-9269 7142 0
-9269 7142 0
-5572 7136 9269 0
5572 -7136 0
5572 -9269 0
9270 -7142 -8288 0
-9270 7142 0
-9270 8288 0
-5568 8290 9270 0
5568 -8290 0
5568 -9270 0
9271 -7142 -7141 0
-9271 7142 0
-9271 7141 0
-5586 7135 9271 0
5586 -7135 0
5586 -9271 0
9272 -7145 -7141 0
-9272 7145 0
-9272 7141 0
-2471 7144 9272 0
2471 -7144 0
2471 -9272 0
9273 -7142 -7167 0
-9273 7142 0
-9273 7167 0
-5575 7148 9273 0
5575 -7148 0
5575 -9273 0
9274 -7142 -7163 0
-9274 7142 0
-9274 7163 0
-5580 7151 9274 0
5580 -7151 0
5580 -9274 0
9275 -7145 -7163 0
-9275 7145 0
-9275 7163 0
-2468 7153 9275 0
2468 -7153 0
2468 -9275 0
9276 -8288 -7145 0
-9276 8288 0
-9276 7145 0
-2461 8315 9276 0
2461 -8315 0
2461 -9276 0
9277 -8288 -8288 0
-9277 8288 0
-9277 8288 0
-2463 8320 9277 0
2463 -8320 0
2463 -9277 0
9278 -8288 -7167 0
-9278 8288 0
-9278 7167 0
-2466 8325 9278 0
2466 -8325 0
2466 -9278 0
9279 -8288 -7163 0
-9279 8288 0
-9279 7163 0
-2469 8330 9279 0
2469 -8330 0
2469 -9279 0
9280 -7141 -7163 0
-9280 7141 0
-9280 7163 0
-2472 7150 9280 0
2472 -7150 0
2472 -9280 0
9281 -7167 -7145 0
-9281 7167 0
-9281 7145 0
-2465 7165 9281 0
2465 -7165 0
2465 -9281 0
9282 -7167 -7141 0
-9282 7167 0
-9282 7141 0
-2474 7147 9282 0
2474 -7147 0
2474 -9282 0
9283 -7167 -7167 0
-9283 7167 0
-9283 7167 0
-2477 7169 9283 0
2477 -7169 0
2477 -9283 0
9284 -7084 -7343 0
-9284 7084 0
-9284 7343 0
9285 -7343 -7343 0
-9285 7343 0
-9285 7343 0
9286 -7343 -7084 0
-9286 7343 0
-9286 7084 0
9287 -7084 -7084 -7357 0
-9287 7084 0
-9287 7084 0
-9287 7357 0
-2945 7085 9284 9285 9286 9287 0
2945 -7085 0
2945 -9284 0
2945 -9285 0
2945 -9286 0
2945 -9287 0
9288 -7084 -7349 0
-9288 7084 0
-9288 7349 0
9289 -7343 -7349 0
-9289 7343 0
-9289 7349 0
9290 -7343 -7087 0
-9290 7343 0
-9290 7087 0
9291 -7084 -7087 -7357 0
-9291 7084 0
-9291 7087 0
-9291 7357 0
-4570 7088 9288 9289 9290 9291 0
4570 -7088 0
4570 -9288 0
4570 -9289 0
4570 -9290 0
4570 -9291 0
9292 -7084 -7355 0
-9292 7084 0
-9292 7355 0
9293 -7343 -7090 0
-9293 7343 0
-9293 7090 0
9294 -7343 -7355 0
-9294 7343 0
-9294 7355 0
9295 -7084 -7090 -7357 0
-9295 7084 0
-9295 7090 0
-9295 7357 0
-2943 7091 9292 9293 9294 9295 0
2943 -7091 0
2943 -9292 0
2943 -9293 0
2943 -9294 0
2943 -9295 0
9296 -7093 -7355 0
-9296 7093 0
-9296 7355 0
9297 -7353 -7355 0
-9297 7353 0
-9297 7355 0
9298 -7353 -7090 0
-9298 7353 0
-9298 7090 0
9299 -7093 -7090 -7357 0
-9299 7093 0
-9299 7090 0
-9299 7357 0
-2953 7094 9296 9297 9298 9299 0
2953 -7094 0
2953 -9296 0
2953 -9297 0
2953 -9298 0
2953 -9299 0
9300 -7084 -8236 0
-9300 7084 0
-9300 8236 0
9301 -7343 -8236 0
-9301 7343 0
-9301 8236 0
9302 -7343 -7096 0
-9302 7343 0
-9302 7096 0
9303 -7084 -7096 -7357 0
-9303 7084 0
-9303 7096 0
-9303 7357 0
-2948 7097 9300 9301 9302 9303 0
2948 -7097 0
2948 -9300 0
2948 -9301 0
2948 -9302 0
2948 -9303 0
9304 -7084 -7342 0
-9304 7084 0
-9304 7342 0
9305 -7343 -7099 0
-9305 7343 0
-9305 7099 0
9306 -7343 -7342 0
-9306 7343 0
-9306 7342 0
9307 -7084 -7099 -7357 0
-9307 7084 0
-9307 7099 0
-9307 7357 0
-2951 7100 9304 9305 9306 9307 0
2951 -7100 0
2951 -9304 0
2951 -9305 0
2951 -9306 0
2951 -9307 0
9308 -7093 -7342 0
-9308 7093 0
-9308 7342 0
9309 -7353 -7342 0
-9309 7353 0
-9309 7342 0
9310 -7353 -7099 0
-9310 7353 0
-9310 7099 0
9311 -7093 -7099 -7357 0
-9311 7093 0
-9311 7099 0
-9311 7357 0
-2954 7102 9308 9309 9310 9311 0
2954 -7102 0
2954 -9308 0
2954 -9309 0
2954 -9310 0
2954 -9311 0
9312 -7087 -7353 0
-9312 7087 0
-9312 7353 0
9313 -7349 -7093 0
-9313 7349 0
-9313 7093 0
9314 -7349 -7353 0
-9314 7349 0
-9314 7353 0
9315 -7087 -7093 -7357 0
-9315 7087 0
-9315 7093 0
-9315 7357 0
-2979 7104 9312 9313 9314 9315 0
2979 -7104 0
2979 -9312 0
2979 -9313 0
2979 -9314 0
2979 -9315 0
9316 -7087 -7349 0
-9316 7087 0
-9316 7349 0
9317 -7349 -7349 0
-9317 7349 0
-9317 7349 0
9318 -7349 -7087 0
-9318 7349 0
-9318 7087 0
9319 -7087 -7087 -7357 0
-9319 7087 0
-9319 7087 0
-9319 7357 0
-2981 7106 9316 9317 9318 9319 0
2981 -7106 0
2981 -9316 0
2981 -9317 0
2981 -9318 0
2981 -9319 0
9320 -7087 -8236 0
-9320 7087 0
-9320 8236 0
9321 -7349 -8236 0
-9321 7349 0
-9321 8236 0
9322 -7349 -7096 0
-9322 7349 0
-9322 7096 0
9323 -7087 -7096 -7357 0
-9323 7087 0
-9323 7096 0
-9323 7357 0
-2983 7108 9320 9321 9322 9323 0
2983 -7108 0
2983 -9320 0
2983 -9321 0
2983 -9322 0
2983 -9323 0
9324 -7087 -7342 0
-9324 7087 0
-9324 7342 0
9325 -7349 -7099 0
-9325 7349 0
-9325 7099 0
9326 -7349 -7342 0
-9326 7349 0
-9326 7342 0
9327 -7087 -7099 -7357 0
-9327 7087 0
-9327 7099 0
-9327 7357 0
-2985 7110 9324 9325 9326 9327 0
2985 -7110 0
2985 -9324 0
2985 -9325 0
2985 -9326 0
2985 -9327 0
9328 -7090 -7342 0
-9328 7090 0
-9328 7342 0
9329 -7355 -7342 0
-9329 7355 0
-9329 7342 0
9330 -7355 -7099 0
-9330 7355 0
-9330 7099 0
9331 -7090 -7099 -7357 0
-9331 7090 0
-9331 7099 0
-9331 7357 0
-2950 7112 9328 9329 9330 9331 0
2950 -7112 0
2950 -9328 0
2950 -9329 0
2950 -9330 0
2950 -9331 0
9332 -7096 -7353 0
-9332 7096 0
-9332 7353 0
9333 -8236 -7093 0
-9333 8236 0
-9333 7093 0
9334 -8236 -7353 0
-9334 8236 0
-9334 7353 0
9335 -7096 -7093 -7357 0
-9335 7096 0
-9335 7093 0
-9335 7357 0
-2956 7114 9332 9333 9334 9335 0
2956 -7114 0
2956 -9332 0
2956 -9333 0
2956 -9334 0
2956 -9335 0
9336 -7096 -7355 0
-9336 7096 0
-9336 7355 0
9337 -8236 -7090 0
-9337 8236 0
-9337 7090 0
9338 -8236 -7355 0
-9338 8236 0
-9338 7355 0
9339 -7096 -7090 -7357 0
-9339 7096 0
-9339 7090 0
-9339 7357 0
-2947 7116 9336 9337 9338 9339 0
2947 -7116 0
2947 -9336 0
2947 -9337 0
2947 -9338 0
2947 -9339 0
9340 -7096 -8236 0
-9340 7096 0
-9340 8236 0
8277 -8236 -8236 0
-8277 8236 0
-8277 8236 0
9341 -8236 -7096 0
-9341 8236 0
-9341 7096 0
9342 -7096 -7096 -7357 0
-9342 7096 0
-9342 7096 0
-9342 7357 0
-2959 7118 9340 8277 9341 9342 0
2959 -7118 0
2959 -9340 0
2959 -8277 0
2959 -9341 0
2959 -9342 0
9343 -6838 -6835 0
-9343 6838 0
-9343 6835 0
9344 -6835 -6835 0
-9344 6835 0
-9344 6835 0
9345 -6835 -6838 0
-9345 6835 0
-9345 6838 0
9346 -6838 -6838 -6856 0
-9346 6838 0
-9346 6838 0
-9346 6856 0
-3619 6823 9343 9344 9345 9346 0
3619 -6823 0
3619 -9343 0
3619 -9344 0
3619 -9345 0
3619 -9346 0
9347 -6838 -6894 0
-9347 6838 0
-9347 6894 0
9348 -6835 -6894 0
-9348 6835 0
-9348 6894 0
9349 -6835 -6899 0
-9349 6835 0
-9349 6899 0
9350 -6838 -6899 -6856 0
-9350 6838 0
-9350 6899 0
-9350 6856 0
-3801 6873 9347 9348 9349 9350 0
3801 -6873 0
3801 -9347 0
3801 -9348 0
3801 -9349 0
3801 -9350 0
9351 -6838 -6834 0
-9351 6838 0
-9351 6834 0
9352 -6835 -6837 0
-9352 6835 0
-9352 6837 0
9353 -6835 -6834 0
-9353 6835 0
-9353 6834 0
9354 -6838 -6837 -6856 0
-9354 6838 0
-9354 6837 0
-9354 6856 0
-3617 6822 9351 9352 9353 9354 0
3617 -6822 0
3617 -9351 0
3617 -9352 0
3617 -9353 0
3617 -9354 0
9355 -6840 -6834 0
-9355 6840 0
-9355 6834 0
9356 -6852 -6834 0
-9356 6852 0
-9356 6834 0
9357 -6852 -6837 0
-9357 6852 0
-9357 6837 0
9358 -6840 -6837 -6856 0
-9358 6840 0
-9358 6837 0
-9358 6856 0
-3263 6831 9355 9356 9357 9358 0
3263 -6831 0
3263 -9355 0
3263 -9356 0
3263 -9357 0
3263 -9358 0
9359 -6838 -6846 0
-9359 6838 0
-9359 6846 0
9360 -6835 -6846 0
-9360 6835 0
-9360 6846 0
9361 -6835 -6848 0
-9361 6835 0
-9361 6848 0
9362 -6838 -6848 -6856 0
-9362 6838 0
-9362 6848 0
-9362 6856 0
-3621 6826 9359 9360 9361 9362 0
3621 -6826 0
3621 -9359 0
3621 -9360 0
3621 -9361 0
3621 -9362 0
9363 -6838 -6854 0
-9363 6838 0
-9363 6854 0
9364 -6835 -6850 0
-9364 6835 0
-9364 6850 0
9365 -6835 -6854 0
-9365 6835 0
-9365 6854 0
9366 -6838 -6850 -6856 0
-9366 6838 0
-9366 6850 0
-9366 6856 0
-3623 6829 9363 9364 9365 9366 0
3623 -6829 0
3623 -9363 0
3623 -9364 0
3623 -9365 0
3623 -9366 0
9367 -6840 -6854 0
-9367 6840 0
-9367 6854 0
9368 -6852 -6854 0
-9368 6852 0
-9368 6854 0
9369 -6852 -6850 0
-9369 6852 0
-9369 6850 0
9370 -6840 -6850 -6856 0
-9370 6840 0
-9370 6850 0
-9370 6856 0
-3260 6832 9367 9368 9369 9370 0
3260 -6832 0
3260 -9367 0
3260 -9368 0
3260 -9369 0
3260 -9370 0
9371 -6899 -6852 0
-9371 6899 0
-9371 6852 0
9372 -6894 -6840 0
-9372 6894 0
-9372 6840 0
9373 -6894 -6852 0
-9373 6894 0
-9373 6852 0
9374 -6899 -6840 -6856 0
-9374 6899 0
-9374 6840 0
-9374 6856 0
-3253 6890 9371 9372 9373 9374 0
3253 -6890 0
3253 -9371 0
3253 -9372 0
3253 -9373 0
3253 -9374 0
9375 -6899 -6894 0
-9375 6899 0
-9375 6894 0
6936 -6894 -6894 0
-6936 6894 0
-6936 6894 0
9376 -6894 -6899 0
-9376 6894 0
-9376 6899 0
9377 -6899 -6899 -6856 0
-9377 6899 0
-9377 6899 0
-9377 6856 0
-3255 6877 9375 6936 9376 9377 0
3255 -6877 0
3255 -9375 0
3255 -6936 0
3255 -9376 0
3255 -9377 0
9378 -6899 -6846 0
-9378 6899 0
-9378 6846 0
9379 -6894 -6846 0
-9379 6894 0
-9379 6846 0
9380 -6894 -6848 0
-9380 6894 0
-9380 6848 0
9381 -6899 -6848 -6856 0
-9381 6899 0
-9381 6848 0
-9381 6856 0
-3258 6879 9378 9379 9380 9381 0
3258 -6879 0
3258 -9378 0
3258 -9379 0
3258 -9380 0
3258 -9381 0
9382 -6899 -6854 0
-9382 6899 0
-9382 6854 0
9383 -6894 -6850 0
-9383 6894 0
-9383 6850 0
9384 -6894 -6854 0
-9384 6894 0
-9384 6854 0
9385 -6899 -6850 -6856 0
-9385 6899 0
-9385 6850 0
-9385 6856 0
-3261 6884 9382 9383 9384 9385 0
3261 -6884 0
3261 -9382 0
3261 -9383 0
3261 -9384 0
3261 -9385 0
9386 -6837 -6854 0
-9386 6837 0
-9386 6854 0
9387 -6834 -6854 0
-9387 6834 0
-9387 6854 0
9388 -6834 -6850 0
-9388 6834 0
-9388 6850 0
9389 -6837 -6850 -6856 0
-9389 6837 0
-9389 6850 0
-9389 6856 0
-3264 6828 9386 9387 9388 9389 0
3264 -6828 0
3264 -9386 0
3264 -9387 0
3264 -9388 0
3264 -9389 0
9390 -6848 -6852 0
-9390 6848 0
-9390 6852 0
9391 -6846 -6840 0
-9391 6846 0
-9391 6840 0
9392 -6846 -6852 0
-9392 6846 0
-9392 6852 0
9393 -6848 -6840 -6856 0
-9393 6848 0
-9393 6840 0
-9393 6856 0
-3257 6842 9390 9391 9392 9393 0
3257 -6842 0
3257 -9390 0
3257 -9391 0
3257 -9392 0
3257 -9393 0
9394 -6848 -6834 0
-9394 6848 0
-9394 6834 0
9395 -6846 -6837 0
-9395 6846 0
-9395 6837 0
9396 -6846 -6834 0
-9396 6846 0
-9396 6834 0
9397 -6848 -6837 -6856 0
-9397 6848 0
-9397 6837 0
-9397 6856 0
-3266 6825 9394 9395 9396 9397 0
3266 -6825 0
3266 -9394 0
3266 -9395 0
3266 -9396 0
3266 -9397 0
9398 -6848 -6846 0
-9398 6848 0
-9398 6846 0
7414 -6846 -6846 0
-7414 6846 0
-7414 6846 0
9399 -6846 -6848 0
-9399 6846 0
-9399 6848 0
9400 -6848 -6848 -6856 0
-9400 6848 0
-9400 6848 0
-9400 6856 0
-3269 6844 9398 7414 9399 9400 0
3269 -6844 0
3269 -9398 0
3269 -7414 0
3269 -9399 0
3269 -9400 0
9401 -7055 -7055 0
-9401 7055 0
-9401 7055 0
-3881 7049 9401 0
3881 -7049 0
3881 -9401 0
9402 -7055 -8488 0
-9402 7055 0
-9402 8488 0
-3877 8490 9402 0
3877 -8490 0
3877 -9402 0
9403 -7055 -7054 0
-9403 7055 0
-9403 7054 0
-3895 7048 9403 0
3895 -7048 0
3895 -9403 0
9404 -7058 -7054 0
-9404 7058 0
-9404 7054 0
-3091 7057 9404 0
3091 -7057 0
3091 -9404 0
9405 -7055 -7080 0
-9405 7055 0
-9405 7080 0
-3884 7061 9405 0
3884 -7061 0
3884 -9405 0
9406 -7055 -7076 0
-9406 7055 0
-9406 7076 0
-3889 7064 9406 0
3889 -7064 0
3889 -9406 0
9407 -7058 -7076 0
-9407 7058 0
-9407 7076 0
-3088 7066 9407 0
3088 -7066 0
3088 -9407 0
9408 -8488 -7058 0
-9408 8488 0
-9408 7058 0
-3081 8515 9408 0
3081 -8515 0
3081 -9408 0
9409 -8488 -8488 0
-9409 8488 0
-9409 8488 0
-3083 8520 9409 0
3083 -8520 0
3083 -9409 0
9410 -8488 -7080 0
-9410 8488 0
-9410 7080 0
-3086 8525 9410 0
3086 -8525 0
3086 -9410 0
9411 -8488 -7076 0
-9411 8488 0
-9411 7076 0
-3089 8530 9411 0
3089 -8530 0
3089 -9411 0
9412 -7054 -7076 0
-9412 7054 0
-9412 7076 0
-3092 7063 9412 0
3092 -7063 0
3092 -9412 0
9413 -7080 -7058 0
-9413 7080 0
-9413 7058 0
-3085 7078 9413 0
3085 -7078 0
3085 -9413 0
9414 -7080 -7054 0
-9414 7080 0
-9414 7054 0
-3094 7060 9414 0
3094 -7060 0
3094 -9414 0
9415 -7080 -7080 0
-9415 7080 0
-9415 7080 0
-3097 7082 9415 0
3097 -7082 0
3097 -9415 0
9416 -7763 -7760 0
-9416 7763 0
-9416 7760 0
9417 -7760 -7760 0
-9417 7760 0
-9417 7760 0
9418 -7760 -7763 0
-9418 7760 0
-9418 7763 0
9419 -7763 -7763 -7778 0
-9419 7763 0
-9419 7763 0
-9419 7778 0
-1269 7757 9416 9417 9418 9419 0
1269 -7757 0
1269 -9416 0
1269 -9417 0
1269 -9418 0
1269 -9419 0
9420 -7763 -7780 0
-9420 7763 0
-9420 7780 0
9421 -7760 -7780 0
-9421 7760 0
-9421 7780 0
9422 -7760 -7788 0
-9422 7760 0
-9422 7788 0
9423 -7763 -7788 -7778 0
-9423 7763 0
-9423 7788 0
-9423 7778 0
-1265 7769 9420 9421 9422 9423 0
1265 -7769 0
1265 -9420 0
1265 -9421 0
1265 -9422 0
1265 -9423 0
9424 -7763 -7782 0
-9424 7763 0
-9424 7782 0
9425 -7760 -7784 0
-9425 7760 0
-9425 7784 0
9426 -7760 -7782 0
-9426 7760 0
-9426 7782 0
9427 -7763 -7784 -7778 0
-9427 7763 0
-9427 7784 0
-9427 7778 0
-1289 7772 9424 9425 9426 9427 0
1289 -7772 0
1289 -9424 0
1289 -9425 0
1289 -9426 0
1289 -9427 0
9428 -7766 -7782 0
-9428 7766 0
-9428 7782 0
9429 -7776 -7782 0
-9429 7776 0
-9429 7782 0
9430 -7776 -7784 0
-9430 7776 0
-9430 7784 0
9431 -7766 -7784 -7778 0
-9431 7766 0
-9431 7784 0
-9431 7778 0
-1287 7774 9428 9429 9430 9431 0
1287 -7774 0
1287 -9428 0
1287 -9429 0
1287 -9430 0
1287 -9431 0
9432 -7763 -8979 0
-9432 7763 0
-9432 8979 0
9433 -7760 -8979 0
-9433 7760 0
-9433 8979 0
9434 -7760 -8985 0
-9434 7760 0
-9434 8985 0
9435 -7763 -8985 -7778 0
-9435 7763 0
-9435 8985 0
-9435 7778 0
-1273 8973 9432 9433 9434 9435 0
1273 -8973 0
1273 -9432 0
1273 -9433 0
1273 -9434 0
1273 -9435 0
9436 -7763 -7759 0
-9436 7763 0
-9436 7759 0
9437 -7760 -7762 0
-9437 7760 0
-9437 7762 0
9438 -7760 -7759 0
-9438 7760 0
-9438 7759 0
9439 -7763 -7762 -7778 0
-9439 7763 0
-9439 7762 0
-9439 7778 0
-1280 7756 9436 9437 9438 9439 0
1280 -7756 0
1280 -9436 0
1280 -9437 0
1280 -9438 0
1280 -9439 0
9440 -7766 -7759 0
-9440 7766 0
-9440 7759 0
9441 -7776 -7759 0
-9441 7776 0
-9441 7759 0
9442 -7776 -7762 0
-9442 7776 0
-9442 7762 0
9443 -7766 -7762 -7778 0
-9443 7766 0
-9443 7762 0
-9443 7778 0
-1282 7765 9440 9441 9442 9443 0
1282 -7765 0
1282 -9440 0
1282 -9441 0
1282 -9442 0
1282 -9443 0
9444 -7788 -7776 0
-9444 7788 0
-9444 7776 0
9445 -7780 -7766 0
-9445 7780 0
-9445 7766 0
9446 -7780 -7776 0
-9446 7780 0
-9446 7776 0
9447 -7788 -7766 -7778 0
-9447 7788 0
-9447 7766 0
-9447 7778 0
-1264 7786 9444 9445 9446 9447 0
1264 -7786 0
1264 -9444 0
1264 -9445 0
1264 -9446 0
1264 -9447 0
9448 -7788 -7780 0
-9448 7788 0
-9448 7780 0
9449 -7780 -7780 0
-9449 7780 0
-9449 7780 0
9450 -7780 -7788 0
-9450 7780 0
-9450 7788 0
9451 -7788 -7788 -7778 0
-9451 7788 0
-9451 7788 0
-9451 7778 0
-1271 7790 9448 9449 9450 9451 0
1271 -7790 0
1271 -9448 0
1271 -9449 0
1271 -9450 0
1271 -9451 0
9452 -7788 -8979 0
-9452 7788 0
-9452 8979 0
9453 -7780 -8979 0
-9453 7780 0
-9453 8979 0
9454 -7780 -8985 0
-9454 7780 0
-9454 8985 0
9455 -7788 -8985 -7778 0
-9455 7788 0
-9455 8985 0
-9455 7778 0
-1278 9456 9452 9453 9454 9455 0
1278 -9456 0
1278 -9452 0
1278 -9453 0
1278 -9454 0
1278 -9455 0
9457 -7788 -7759 0
-9457 7788 0
-9457 7759 0
9458 -7780 -7762 0
-9458 7780 0
-9458 7762 0
9459 -7780 -7759 0
-9459 7780 0
-9459 7759 0
9460 -7788 -7762 -7778 0
-9460 7788 0
-9460 7762 0
-9460 7778 0
-1285 7768 9457 9458 9459 9460 0
1285 -7768 0
1285 -9457 0
1285 -9458 0
1285 -9459 0
1285 -9460 0
9461 -7784 -7759 0
-9461 7784 0
-9461 7759 0
9462 -7782 -7759 0
-9462 7782 0
-9462 7759 0
9463 -7782 -7762 0
-9463 7782 0
-9463 7762 0
9464 -7784 -7762 -7778 0
-9464 7784 0
-9464 7762 0
-9464 7778 0
-1292 7771 9461 9462 9463 9464 0
1292 -7771 0
1292 -9461 0
1292 -9462 0
1292 -9463 0
1292 -9464 0
9465 -8985 -7776 0
-9465 8985 0
-9465 7776 0
9466 -8979 -7766 0
-9466 8979 0
-9466 7766 0
9467 -8979 -7776 0
-9467 8979 0
-9467 7776 0
9468 -8985 -7766 -7778 0
-9468 8985 0
-9468 7766 0
-9468 7778 0
-1276 8983 9465 9466 9467 9468 0
1276 -8983 0
1276 -9465 0
1276 -9466 0
1276 -9467 0
1276 -9468 0
9469 -8985 -7782 0
-9469 8985 0
-9469 7782 0
9470 -8979 -7784 0
-9470 8979 0
-9470 7784 0
9471 -8979 -7782 0
-9471 8979 0
-9471 7782 0
9472 -8985 -7784 -7778 0
-9472 8985 0
-9472 7784 0
-9472 7778 0
-1297 8972 9469 9470 9471 9472 0
1297 -8972 0
1297 -9469 0
1297 -9470 0
1297 -9471 0
1297 -9472 0
9473 -8985 -8979 0
-9473 8985 0
-9473 8979 0
9474 -8979 -8979 0
-9474 8979 0
-9474 8979 0
9475 -8979 -8985 0
-9475 8979 0
-9475 8985 0
9476 -8985 -8985 -7778 0
-9476 8985 0
-9476 8985 0
-9476 7778 0
-1303 8987 9473 9474 9475 9476 0
1303 -8987 0
1303 -9473 0
1303 -9474 0
1303 -9475 0
1303 -9476 0
9477 -7091 -7091 0
-9477 7091 0
-9477 7091 0
-5414 7085 9477 0
5414 -7085 0
5414 -9477 0
9478 -7091 -7355 0
-9478 7091 0
-9478 7355 0
-5410 7343 9478 0
5410 -7343 0
5410 -9478 0
9479 -7091 -7090 0
-9479 7091 0
-9479 7090 0
-5434 7084 9479 0
5434 -7084 0
5434 -9479 0
9480 -7094 -7090 0
-9480 7094 0
-9480 7090 0
-5432 7093 9480 0
5432 -7093 0
5432 -9480 0
9481 -7091 -7116 0
-9481 7091 0
-9481 7116 0
-5418 7097 9481 0
5418 -7097 0
5418 -9481 0
9482 -7091 -7112 0
-9482 7091 0
-9482 7112 0
-5425 7100 9482 0
5425 -7100 0
5425 -9482 0
9483 -7094 -7112 0
-9483 7094 0
-9483 7112 0
-5427 7102 9483 0
5427 -7102 0
5427 -9483 0
9484 -7355 -7094 0
-9484 7355 0
-9484 7094 0
-5409 7353 9484 0
5409 -7353 0
5409 -9484 0
9485 -7355 -7355 0
-9485 7355 0
-9485 7355 0
-5416 7357 9485 0
5416 -7357 0
5416 -9485 0
9486 -7355 -7116 0
-9486 7355 0
-9486 7116 0
-5423 8236 9486 0
5423 -8236 0
5423 -9486 0
9487 -7355 -7112 0
-9487 7355 0
-9487 7112 0
-5430 7342 9487 0
5430 -7342 0
5430 -9487 0
9488 -7090 -7112 0
-9488 7090 0
-9488 7112 0
-5437 7099 9488 0
5437 -7099 0
5437 -9488 0
9489 -7116 -7094 0
-9489 7116 0
-9489 7094 0
-5421 7114 9489 0
5421 -7114 0
5421 -9489 0
9490 -7116 -7090 0
-9490 7116 0
-9490 7090 0
-5442 7096 9490 0
5442 -7096 0
5442 -9490 0
9491 -7116 -7116 0
-9491 7116 0
-9491 7116 0
-5448 7118 9491 0
5448 -7118 0
5448 -9491 0
9492 -6976 -7698 0
-9492 6976 0
-9492 7698 0
9493 -7698 -7698 0
-9493 7698 0
-9493 7698 0
9494 -7698 -6976 0
-9494 7698 0
-9494 6976 0
9495 -6976 -6976 -7728 0
-9495 6976 0
-9495 6976 0
-9495 7728 0
-5950 6977 9492 9493 9494 9495 0
5950 -6977 0
5950 -9492 0
5950 -9493 0
5950 -9494 0
5950 -9495 0
9496 -6976 -7693 0
-9496 6976 0
-9496 7693 0
9497 -7698 -7693 0
-9497 7698 0
-9497 7693 0
9498 -7698 -6979 0
-9498 7698 0
-9498 6979 0
9499 -6976 -6979 -7728 0
-9499 6976 0
-9499 6979 0
-9499 7728 0
-5946 6980 9496 9497 9498 9499 0
5946 -6980 0
5946 -9496 0
5946 -9497 0
5946 -9498 0
5946 -9499 0
9500 -6976 -7696 0
-9500 6976 0
-9500 7696 0
9501 -7698 -6982 0
-9501 7698 0
-9501 6982 0
9502 -7698 -7696 0
-9502 7698 0
-9502 7696 0
9503 -6976 -6982 -7728 0
-9503 6976 0
-9503 6982 0
-9503 7728 0
-5964 6983 9500 9501 9502 9503 0
5964 -6983 0
5964 -9500 0
5964 -9501 0
5964 -9502 0
5964 -9503 0
9504 -6985 -7696 0
-9504 6985 0
-9504 7696 0
9505 -7723 -7696 0
-9505 7723 0
-9505 7696 0
9506 -7723 -6982 0
-9506 7723 0
-9506 6982 0
9507 -6985 -6982 -7728 0
-9507 6985 0
-9507 6982 0
-9507 7728 0
-1682 6986 9504 9505 9506 9507 0
1682 -6986 0
1682 -9504 0
1682 -9505 0
1682 -9506 0
1682 -9507 0
9508 -6976 -7733 0
-9508 6976 0
-9508 7733 0
9509 -7698 -7733 0
-9509 7698 0
-9509 7733 0
9510 -7698 -6988 0
-9510 7698 0
-9510 6988 0
9511 -6976 -6988 -7728 0
-9511 6976 0
-9511 6988 0
-9511 7728 0
-5953 6989 9508 9509 9510 9511 0
5953 -6989 0
5953 -9508 0
5953 -9509 0
5953 -9510 0
5953 -9511 0
9512 -6976 -7738 0
-9512 6976 0
-9512 7738 0
9513 -7698 -6991 0
-9513 7698 0
-9513 6991 0
9514 -7698 -7738 0
-9514 7698 0
-9514 7738 0
9515 -6976 -6991 -7728 0
-9515 6976 0
-9515 6991 0
-9515 7728 0
-5958 6992 9512 9513 9514 9515 0
5958 -6992 0
5958 -9512 0
5958 -9513 0
5958 -9514 0
5958 -9515 0
9516 -6985 -7738 0
-9516 6985 0
-9516 7738 0
9517 -7723 -7738 0
-9517 7723 0
-9517 7738 0
9518 -7723 -6991 0
-9518 7723 0
-9518 6991 0
9519 -6985 -6991 -7728 0
-9519 6985 0
-9519 6991 0
-9519 7728 0
-1679 6994 9516 9517 9518 9519 0
1679 -6994 0
1679 -9516 0
1679 -9517 0
1679 -9518 0
1679 -9519 0
9520 -6979 -7723 0
-9520 6979 0
-9520 7723 0
9521 -7693 -6985 0
-9521 7693 0
-9521 6985 0
9522 -7693 -7723 0
-9522 7693 0
-9522 7723 0
9523 -6979 -6985 -7728 0
-9523 6979 0
-9523 6985 0
-9523 7728 0
-1672 6996 9520 9521 9522 9523 0
1672 -6996 0
1672 -9520 0
1672 -9521 0
1672 -9522 0
1672 -9523 0
9524 -6979 -7693 0
-9524 6979 0
-9524 7693 0
7725 -7693 -7693 0
-7725 7693 0
-7725 7693 0
9525 -7693 -6979 0
-9525 7693 0
-9525 6979 0
9526 -6979 -6979 -7728 0
-9526 6979 0
-9526 6979 0
-9526 7728 0
-1674 6998 9524 7725 9525 9526 0
1674 -6998 0
1674 -9524 0
1674 -7725 0
1674 -9525 0
1674 -9526 0
9527 -6979 -7733 0
-9527 6979 0
-9527 7733 0
9528 -7693 -7733 0
-9528 7693 0
-9528 7733 0
9529 -7693 -6988 0
-9529 7693 0
-9529 6988 0
9530 -6979 -6988 -7728 0
-9530 6979 0
-9530 6988 0
-9530 7728 0
-1677 7000 9527 9528 9529 9530 0
1677 -7000 0
1677 -9527 0
1677 -9528 0
1677 -9529 0
1677 -9530 0
9531 -6979 -7738 0
-9531 6979 0
-9531 7738 0
9532 -7693 -6991 0
-9532 7693 0
-9532 6991 0
9533 -7693 -7738 0
-9533 7693 0
-9533 7738 0
9534 -6979 -6991 -7728 0
-9534 6979 0
-9534 6991 0
-9534 7728 0
-1680 7002 9531 9532 9533 9534 0
1680 -7002 0
1680 -9531 0
1680 -9532 0
1680 -9533 0
1680 -9534 0
9535 -6982 -7738 0
-9535 6982 0
-9535 7738 0
9536 -7696 -7738 0
-9536 7696 0
-9536 7738 0
9537 -7696 -6991 0
-9537 7696 0
-9537 6991 0
9538 -6982 -6991 -7728 0
-9538 6982 0
-9538 6991 0
-9538 7728 0
-1683 7004 9535 9536 9537 9538 0
1683 -7004 0
1683 -9535 0
1683 -9536 0
1683 -9537 0
1683 -9538 0
9539 -6988 -7723 0
-9539 6988 0
-9539 7723 0
9540 -7733 -6985 0
-9540 7733 0
-9540 6985 0
9541 -7733 -7723 0
-9541 7733 0
-9541 7723 0
9542 -6988 -6985 -7728 0
-9542 6988 0
-9542 6985 0
-9542 7728 0
-1676 7006 9539 9540 9541 9542 0
1676 -7006 0
1676 -9539 0
1676 -9540 0
1676 -9541 0
1676 -9542 0
9543 -6988 -7696 0
-9543 6988 0
-9543 7696 0
9544 -7733 -6982 0
-9544 7733 0
-9544 6982 0
9545 -7733 -7696 0
-9545 7733 0
-9545 7696 0
9546 -6988 -6982 -7728 0
-9546 6988 0
-9546 6982 0
-9546 7728 0
-1685 7008 9543 9544 9545 9546 0
1685 -7008 0
1685 -9543 0
1685 -9544 0
1685 -9545 0
1685 -9546 0
9547 -6988 -7733 0
-9547 6988 0
-9547 7733 0
9548 -7733 -7733 0
-9548 7733 0
-9548 7733 0
9549 -7733 -6988 0
-9549 7733 0
-9549 6988 0
9550 -6988 -6988 -7728 0
-9550 6988 0
-9550 6988 0
-9550 7728 0
-1688 7010 9547 9548 9549 9550 0
1688 -7010 0
1688 -9547 0
1688 -9548 0
1688 -9549 0
1688 -9550 0
9551 -7091 -7088 0
-9551 7091 0
-9551 7088 0
9552 -7088 -7088 0
-9552 7088 0
-9552 7088 0
9553 -7088 -7091 0
-9553 7088 0
-9553 7091 0
9554 -7091 -7091 -7106 0
-9554 7091 0
-9554 7091 0
-9554 7106 0
-1392 7085 9551 9552 9553 9554 0
1392 -7085 0
1392 -9551 0
1392 -9552 0
1392 -9553 0
1392 -9554 0
9555 -7091 -7349 0
-9555 7091 0
-9555 7349 0
9556 -7088 -7349 0
-9556 7088 0
-9556 7349 0
9557 -7088 -7355 0
-9557 7088 0
-9557 7355 0
9558 -7091 -7355 -7106 0
-9558 7091 0
-9558 7355 0
-9558 7106 0
-1388 7343 9555 9556 9557 9558 0
1388 -7343 0
1388 -9555 0
1388 -9556 0
1388 -9557 0
1388 -9558 0
9559 -7091 -7087 0
-9559 7091 0
-9559 7087 0
9560 -7088 -7090 0
-9560 7088 0
-9560 7090 0
9561 -7088 -7087 0
-9561 7088 0
-9561 7087 0
9562 -7091 -7090 -7106 0
-9562 7091 0
-9562 7090 0
-9562 7106 0
-1412 7084 9559 9560 9561 9562 0
1412 -7084 0
1412 -9559 0
1412 -9560 0
1412 -9561 0
1412 -9562 0
9563 -7094 -7087 0
-9563 7094 0
-9563 7087 0
9564 -7104 -7087 0
-9564 7104 0
-9564 7087 0
9565 -7104 -7090 0
-9565 7104 0
-9565 7090 0
9566 -7094 -7090 -7106 0
-9566 7094 0
-9566 7090 0
-9566 7106 0
-1410 7093 9563 9564 9565 9566 0
1410 -7093 0
1410 -9563 0
1410 -9564 0
1410 -9565 0
1410 -9566 0
9567 -7091 -7108 0
-9567 7091 0
-9567 7108 0
9568 -7088 -7108 0
-9568 7088 0
-9568 7108 0
9569 -7088 -7116 0
-9569 7088 0
-9569 7116 0
9570 -7091 -7116 -7106 0
-9570 7091 0
-9570 7116 0
-9570 7106 0
-1396 7097 9567 9568 9569 9570 0
1396 -7097 0
1396 -9567 0
1396 -9568 0
1396 -9569 0
1396 -9570 0
9571 -7091 -7110 0
-9571 7091 0
-9571 7110 0
9572 -7088 -7112 0
-9572 7088 0
-9572 7112 0
9573 -7088 -7110 0
-9573 7088 0
-9573 7110 0
9574 -7091 -7112 -7106 0
-9574 7091 0
-9574 7112 0
-9574 7106 0
-1403 7100 9571 9572 9573 9574 0
1403 -7100 0
1403 -9571 0
1403 -9572 0
1403 -9573 0
1403 -9574 0
9575 -7094 -7110 0
-9575 7094 0
-9575 7110 0
9576 -7104 -7110 0
-9576 7104 0
-9576 7110 0
9577 -7104 -7112 0
-9577 7104 0
-9577 7112 0
9578 -7094 -7112 -7106 0
-9578 7094 0
-9578 7112 0
-9578 7106 0
-1405 7102 9575 9576 9577 9578 0
1405 -7102 0
1405 -9575 0
1405 -9576 0
1405 -9577 0
1405 -9578 0
9579 -7355 -7104 0
-9579 7355 0
-9579 7104 0
9580 -7349 -7094 0
-9580 7349 0
-9580 7094 0
9581 -7349 -7104 0
-9581 7349 0
-9581 7104 0
9582 -7355 -7094 -7106 0
-9582 7355 0
-9582 7094 0
-9582 7106 0
-1387 7353 9579 9580 9581 9582 0
1387 -7353 0
1387 -9579 0
1387 -9580 0
1387 -9581 0
1387 -9582 0
9583 -7355 -7349 0
-9583 7355 0
-9583 7349 0
9317 -7349 -7349 0
-9317 7349 0
-9317 7349 0
9584 -7349 -7355 0
-9584 7349 0
-9584 7355 0
9585 -7355 -7355 -7106 0
-9585 7355 0
-9585 7355 0
-9585 7106 0
-1394 7357 9583 9317 9584 9585 0
1394 -7357 0
1394 -9583 0
1394 -9317 0
1394 -9584 0
1394 -9585 0
9586 -7355 -7108 0
-9586 7355 0
-9586 7108 0
9587 -7349 -7108 0
-9587 7349 0
-9587 7108 0
9588 -7349 -7116 0
-9588 7349 0
-9588 7116 0
9589 -7355 -7116 -7106 0
-9589 7355 0
-9589 7116 0
-9589 7106 0
-1401 8236 9586 9587 9588 9589 0
1401 -8236 0
1401 -9586 0
1401 -9587 0
1401 -9588 0
1401 -9589 0
9590 -7355 -7110 0
-9590 7355 0
-9590 7110 0
9591 -7349 -7112 0
-9591 7349 0
-9591 7112 0
9592 -7349 -7110 0
-9592 7349 0
-9592 7110 0
9593 -7355 -7112 -7106 0
-9593 7355 0
-9593 7112 0
-9593 7106 0
-1408 7342 9590 9591 9592 9593 0
1408 -7342 0
1408 -9590 0
1408 -9591 0
1408 -9592 0
1408 -9593 0
9594 -7090 -7110 0
-9594 7090 0
-9594 7110 0
9595 -7087 -7110 0
-9595 7087 0
-9595 7110 0
9596 -7087 -7112 0
-9596 7087 0
-9596 7112 0
9597 -7090 -7112 -7106 0
-9597 7090 0
-9597 7112 0
-9597 7106 0
-1415 7099 9594 9595 9596 9597 0
1415 -7099 0
1415 -9594 0
1415 -9595 0
1415 -9596 0
1415 -9597 0
9598 -7116 -7104 0
-9598 7116 0
-9598 7104 0
9599 -7108 -7094 0
-9599 7108 0
-9599 7094 0
9600 -7108 -7104 0
-9600 7108 0
-9600 7104 0
9601 -7116 -7094 -7106 0
-9601 7116 0
-9601 7094 0
-9601 7106 0
-1399 7114 9598 9599 9600 9601 0
1399 -7114 0
1399 -9598 0
1399 -9599 0
1399 -9600 0
1399 -9601 0
9602 -7116 -7087 0
-9602 7116 0
-9602 7087 0
9603 -7108 -7090 0
-9603 7108 0
-9603 7090 0
9604 -7108 -7087 0
-9604 7108 0
-9604 7087 0
9605 -7116 -7090 -7106 0
-9605 7116 0
-9605 7090 0
-9605 7106 0
-1420 7096 9602 9603 9604 9605 0
1420 -7096 0
1420 -9602 0
1420 -9603 0
1420 -9604 0
1420 -9605 0
9606 -7116 -7108 0
-9606 7116 0
-9606 7108 0
8253 -7108 -7108 0
-8253 7108 0
-8253 7108 0
9607 -7108 -7116 0
-9607 7108 0
-9607 7116 0
9608 -7116 -7116 -7106 0
-9608 7116 0
-9608 7116 0
-9608 7106 0
-1426 7118 9606 8253 9607 9608 0
1426 -7118 0
1426 -9606 0
1426 -8253 0
1426 -9607 0
1426 -9608 0
9609 -6491 -6491 0
-9609 6491 0
-9609 6491 0
-4165 6497 9609 0
4165 -6497 0
4165 -9609 0
9610 -6491 -6502 0
-9610 6491 0
-9610 6502 0
-4161 6504 9610 0
4161 -6504 0
4161 -9610 0
9611 -6491 -6508 0
-9611 6491 0
-9611 6508 0
-4185 6511 9611 0
4185 -6511 0
4185 -9611 0
9612 -6513 -6508 0
-9612 6513 0
-9612 6508 0
-4183 6518 9612 0
4183 -6518 0
4183 -9612 0
9613 -6491 -6523 0
-9613 6491 0
-9613 6523 0
-4169 6525 9613 0
4169 -6525 0
4169 -9613 0
9614 -6491 -6529 0
-9614 6491 0
-9614 6529 0
-4176 6532 9614 0
4176 -6532 0
4176 -9614 0
9615 -6513 -6529 0
-9615 6513 0
-9615 6529 0
-4178 6537 9615 0
4178 -6537 0
4178 -9615 0
9616 -6502 -6513 0
-9616 6502 0
-9616 6513 0
-4160 6542 9616 0
4160 -6542 0
4160 -9616 0
9617 -6502 -6502 0
-9617 6502 0
-9617 6502 0
-4167 6547 9617 0
4167 -6547 0
4167 -9617 0
9618 -6502 -6523 0
-9618 6502 0
-9618 6523 0
-4174 6552 9618 0
4174 -6552 0
4174 -9618 0
9619 -6502 -6529 0
-9619 6502 0
-9619 6529 0
-4181 6557 9619 0
4181 -6557 0
4181 -9619 0
9620 -6508 -6529 0
-9620 6508 0
-9620 6529 0
-4188 6562 9620 0
4188 -6562 0
4188 -9620 0
9621 -6523 -6513 0
-9621 6523 0
-9621 6513 0
-4172 6567 9621 0
4172 -6567 0
4172 -9621 0
9622 -6523 -6508 0
-9622 6523 0
-9622 6508 0
-4193 6572 9622 0
4193 -6572 0
4193 -9622 0
9623 -6523 -6523 0
-9623 6523 0
-9623 6523 0
-4199 6577 9623 0
4199 -6577 0
4199 -9623 0
9624 -7763 -7763 0
-9624 7763 0
-9624 7763 0
-1985 7757 9624 0
1985 -7757 0
1985 -9624 0
9625 -7763 -7788 0
-9625 7763 0
-9625 7788 0
-1981 7769 9625 0
1981 -7769 0
1981 -9625 0
9626 -7763 -7784 0
-9626 7763 0
-9626 7784 0
-2005 7772 9626 0
2005 -7772 0
2005 -9626 0
9627 -7766 -7784 0
-9627 7766 0
-9627 7784 0
-2003 7774 9627 0
2003 -7774 0
2003 -9627 0
9628 -7763 -8985 0
-9628 7763 0
-9628 8985 0
-1989 8973 9628 0
1989 -8973 0
1989 -9628 0
9629 -7763 -7762 0
-9629 7763 0
-9629 7762 0
-1996 7756 9629 0
1996 -7756 0
1996 -9629 0
9630 -7766 -7762 0
-9630 7766 0
-9630 7762 0
-1998 7765 9630 0
1998 -7765 0
1998 -9630 0
9631 -7788 -7766 0
-9631 7788 0
-9631 7766 0
-1980 7786 9631 0
1980 -7786 0
1980 -9631 0
9632 -7788 -7788 0
-9632 7788 0
-9632 7788 0
-1987 7790 9632 0
1987 -7790 0
1987 -9632 0
9633 -7788 -8985 0
-9633 7788 0
-9633 8985 0
-1994 9456 9633 0
1994 -9456 0
1994 -9633 0
9634 -7788 -7762 0
-9634 7788 0
-9634 7762 0
-2001 7768 9634 0
2001 -7768 0
2001 -9634 0
9635 -7784 -7762 0
-9635 7784 0
-9635 7762 0
-2008 7771 9635 0
2008 -7771 0
2008 -9635 0
9636 -8985 -7766 0
-9636 8985 0
-9636 7766 0
-1992 8983 9636 0
1992 -8983 0
1992 -9636 0
9637 -8985 -7784 0
-9637 8985 0
-9637 7784 0
-2013 8972 9637 0
2013 -8972 0
2013 -9637 0
9638 -8985 -8985 0
-9638 8985 0
-9638 8985 0
-2019 8987 9638 0
2019 -8987 0
2019 -9638 0
9639 -7756 -8973 0
-9639 7756 0
-9639 8973 0
9640 -8973 -8973 0
-9640 8973 0
-9640 8973 0
9641 -8973 -7756 0
-9641 8973 0
-9641 7756 0
9642 -7756 -7756 -8987 0
-9642 7756 0
-9642 7756 0
-9642 8987 0
-2597 7757 9639 9640 9641 9642 0
2597 -7757 0
2597 -9639 0
2597 -9640 0
2597 -9641 0
2597 -9642 0
9643 -7756 -8979 0
-9643 7756 0
-9643 8979 0
9644 -8973 -8979 0
-9644 8973 0
-9644 8979 0
9645 -8973 -7759 0
-9645 8973 0
-9645 7759 0
9646 -7756 -7759 -8987 0
-9646 7756 0
-9646 7759 0
-9646 8987 0
-2602 7760 9643 9644 9645 9646 0
2602 -7760 0
2602 -9643 0
2602 -9644 0
2602 -9645 0
2602 -9646 0
9647 -7756 -8985 0
-9647 7756 0
-9647 8985 0
9648 -8973 -7762 0
-9648 8973 0
-9648 7762 0
9649 -8973 -8985 0
-9649 8973 0
-9649 8985 0
9650 -7756 -7762 -8987 0
-9650 7756 0
-9650 7762 0
-9650 8987 0
-2607 7763 9647 9648 9649 9650 0
2607 -7763 0
2607 -9647 0
2607 -9648 0
2607 -9649 0
2607 -9650 0
9651 -7765 -8985 0
-9651 7765 0
-9651 8985 0
9652 -8983 -8985 0
-9652 8983 0
-9652 8985 0
9653 -8983 -7762 0
-9653 8983 0
-9653 7762 0
9654 -7765 -7762 -8987 0
-9654 7765 0
-9654 7762 0
-9654 8987 0
-1923 7766 9651 9652 9653 9654 0
1923 -7766 0
1923 -9651 0
1923 -9652 0
1923 -9653 0
1923 -9654 0
9655 -7756 -9456 0
-9655 7756 0
-9655 9456 0
9656 -8973 -9456 0
-9656 8973 0
-9656 9456 0
9657 -8973 -7768 0
-9657 8973 0
-9657 7768 0
9658 -7756 -7768 -8987 0
-9658 7756 0
-9658 7768 0
-9658 8987 0
-2592 7769 9655 9656 9657 9658 0
2592 -7769 0
2592 -9655 0
2592 -9656 0
2592 -9657 0
2592 -9658 0
9659 -7756 -8972 0
-9659 7756 0
-9659 8972 0
9660 -8973 -7771 0
-9660 8973 0
-9660 7771 0
9661 -8973 -8972 0
-9661 8973 0
-9661 8972 0
9662 -7756 -7771 -8987 0
-9662 7756 0
-9662 7771 0
-9662 8987 0
-2591 7772 9659 9660 9661 9662 0
2591 -7772 0
2591 -9659 0
2591 -9660 0
2591 -9661 0
2591 -9662 0
9663 -7765 -8972 0
-9663 7765 0
-9663 8972 0
9664 -8983 -8972 0
-9664 8983 0
-9664 8972 0
9665 -8983 -7771 0
-9665 8983 0
-9665 7771 0
9666 -7765 -7771 -8987 0
-9666 7765 0
-9666 7771 0
-9666 8987 0
-1920 7774 9663 9664 9665 9666 0
1920 -7774 0
1920 -9663 0
1920 -9664 0
1920 -9665 0
1920 -9666 0
9667 -7759 -8983 0
-9667 7759 0
-9667 8983 0
9668 -8979 -7765 0
-9668 8979 0
-9668 7765 0
9669 -8979 -8983 0
-9669 8979 0
-9669 8983 0
9670 -7759 -7765 -8987 0
-9670 7759 0
-9670 7765 0
-9670 8987 0
-1913 7776 9667 9668 9669 9670 0
1913 -7776 0
1913 -9667 0
1913 -9668 0
1913 -9669 0
1913 -9670 0
9671 -7759 -8979 0
-9671 7759 0
-9671 8979 0
9474 -8979 -8979 0
-9474 8979 0
-9474 8979 0
9672 -8979 -7759 0
-9672 8979 0
-9672 7759 0
9673 -7759 -7759 -8987 0
-9673 7759 0
-9673 7759 0
-9673 8987 0
-1915 7778 9671 9474 9672 9673 0
1915 -7778 0
1915 -9671 0
1915 -9474 0
1915 -9672 0
1915 -9673 0
9674 -7759 -9456 0
-9674 7759 0
-9674 9456 0
9675 -8979 -9456 0
-9675 8979 0
-9675 9456 0
9676 -8979 -7768 0
-9676 8979 0
-9676 7768 0
9677 -7759 -7768 -8987 0
-9677 7759 0
-9677 7768 0
-9677 8987 0
-1918 7780 9674 9675 9676 9677 0
1918 -7780 0
1918 -9674 0
1918 -9675 0
1918 -9676 0
1918 -9677 0
9678 -7759 -8972 0
-9678 7759 0
-9678 8972 0
9679 -8979 -7771 0
-9679 8979 0
-9679 7771 0
9680 -8979 -8972 0
-9680 8979 0
-9680 8972 0
9681 -7759 -7771 -8987 0
-9681 7759 0
-9681 7771 0
-9681 8987 0
-1921 7782 9678 9679 9680 9681 0
1921 -7782 0
1921 -9678 0
1921 -9679 0
1921 -9680 0
1921 -9681 0
9682 -7762 -8972 0
-9682 7762 0
-9682 8972 0
9683 -8985 -8972 0
-9683 8985 0
-9683 8972 0
9684 -8985 -7771 0
-9684 8985 0
-9684 7771 0
9685 -7762 -7771 -8987 0
-9685 7762 0
-9685 7771 0
-9685 8987 0
-1924 7784 9682 9683 9684 9685 0
1924 -7784 0
1924 -9682 0
1924 -9683 0
1924 -9684 0
1924 -9685 0
9686 -7768 -8983 0
-9686 7768 0
-9686 8983 0
9687 -9456 -7765 0
-9687 9456 0
-9687 7765 0
9688 -9456 -8983 0
-9688 9456 0
-9688 8983 0
9689 -7768 -7765 -8987 0
-9689 7768 0
-9689 7765 0
-9689 8987 0
-1917 7786 9686 9687 9688 9689 0
1917 -7786 0
1917 -9686 0
1917 -9687 0
1917 -9688 0
1917 -9689 0
9690 -7768 -8985 0
-9690 7768 0
-9690 8985 0
9691 -9456 -7762 0
-9691 9456 0
-9691 7762 0
9692 -9456 -8985 0
-9692 9456 0
-9692 8985 0
9693 -7768 -7762 -8987 0
-9693 7768 0
-9693 7762 0
-9693 8987 0
-1926 7788 9690 9691 9692 9693 0
1926 -7788 0
1926 -9690 0
1926 -9691 0
1926 -9692 0
1926 -9693 0
9694 -7768 -9456 0
-9694 7768 0
-9694 9456 0
9695 -9456 -9456 0
-9695 9456 0
-9695 9456 0
9696 -9456 -7768 0
-9696 9456 0
-9696 7768 0
9697 -7768 -7768 -8987 0
-9697 7768 0
-9697 7768 0
-9697 8987 0
-1929 7790 9694 9695 9696 9697 0
1929 -7790 0
1929 -9694 0
1929 -9695 0
1929 -9696 0
1929 -9697 0
9698 -7983 -7983 0
-9698 7983 0
-9698 7983 0
-6300 7989 9698 0
6300 -7989 0
6300 -9698 0
9699 -7983 -7994 0
-9699 7983 0
-9699 7994 0
-6296 7996 9699 0
6296 -7996 0
6296 -9699 0
9700 -7983 -8000 0
-9700 7983 0
-9700 8000 0
-6314 8003 9700 0
6314 -8003 0
6314 -9700 0
9701 -8005 -8000 0
-9701 8005 0
-9701 8000 0
-6155 8010 9701 0
6155 -8010 0
6155 -9701 0
9702 -7983 -8015 0
-9702 7983 0
-9702 8015 0
-6303 8017 9702 0
6303 -8017 0
6303 -9702 0
9703 -7983 -8021 0
-9703 7983 0
-9703 8021 0
-6308 8024 9703 0
6308 -8024 0
6308 -9703 0
9704 -8005 -8021 0
-9704 8005 0
-9704 8021 0
-6152 8029 9704 0
6152 -8029 0
6152 -9704 0
9705 -7994 -8005 0
-9705 7994 0
-9705 8005 0
-6145 8034 9705 0
6145 -8034 0
6145 -9705 0
9706 -7994 -7994 0
-9706 7994 0
-9706 7994 0
-6147 8039 9706 0
6147 -8039 0
6147 -9706 0
9707 -7994 -8015 0
-9707 7994 0
-9707 8015 0
-6150 8044 9707 0
6150 -8044 0
6150 -9707 0
9708 -7994 -8021 0
-9708 7994 0
-9708 8021 0
-6153 8049 9708 0
6153 -8049 0
6153 -9708 0
9709 -8000 -8021 0
-9709 8000 0
-9709 8021 0
-6156 8054 9709 0
6156 -8054 0
6156 -9709 0
9710 -8015 -8005 0
-9710 8015 0
-9710 8005 0
-6149 8059 9710 0
6149 -8059 0
6149 -9710 0
9711 -8015 -8000 0
-9711 8015 0
-9711 8000 0
-6158 8064 9711 0
6158 -8064 0
6158 -9711 0
9712 -8015 -8015 0
-9712 8015 0
-9712 8015 0
-6161 8069 9712 0
6161 -8069 0
6161 -9712 0
9713 -7237 -7237 0
-9713 7237 0
-9713 7237 0
-5065 7231 9713 0
5065 -7231 0
5065 -9713 0
9714 -7237 -8160 0
-9714 7237 0
-9714 8160 0
-5061 8162 9714 0
5061 -8162 0
5061 -9714 0
9715 -7237 -7236 0
-9715 7237 0
-9715 7236 0
-5079 7230 9715 0
5079 -7230 0
5079 -9715 0
9716 -7240 -7236 0
-9716 7240 0
-9716 7236 0
-3175 7239 9716 0
3175 -7239 0
3175 -9716 0
9717 -7237 -7262 0
-9717 7237 0
-9717 7262 0
-5068 7243 9717 0
5068 -7243 0
5068 -9717 0
9718 -7237 -7258 0
-9718 7237 0
-9718 7258 0
-5073 7246 9718 0
5073 -7246 0
5073 -9718 0
9719 -7240 -7258 0
-9719 7240 0
-9719 7258 0
-3172 7248 9719 0
3172 -7248 0
3172 -9719 0
9720 -8160 -7240 0
-9720 8160 0
-9720 7240 0
-3165 8187 9720 0
3165 -8187 0
3165 -9720 0
9721 -8160 -8160 0
-9721 8160 0
-9721 8160 0
-3167 8192 9721 0
3167 -8192 0
3167 -9721 0
9722 -8160 -7262 0
-9722 8160 0
-9722 7262 0
-3170 8197 9722 0
3170 -8197 0
3170 -9722 0
9723 -8160 -7258 0
-9723 8160 0
-9723 7258 0
-3173 8202 9723 0
3173 -8202 0
3173 -9723 0
9724 -7236 -7258 0
-9724 7236 0
-9724 7258 0
-3176 7245 9724 0
3176 -7245 0
3176 -9724 0
9725 -7262 -7240 0
-9725 7262 0
-9725 7240 0
-3169 7260 9725 0
3169 -7260 0
3169 -9725 0
9726 -7262 -7236 0
-9726 7262 0
-9726 7236 0
-3178 7242 9726 0
3178 -7242 0
3178 -9726 0
9727 -7262 -7262 0
-9727 7262 0
-9727 7262 0
-3181 7264 9727 0
3181 -7264 0
3181 -9727 0
9728 -6734 -6734 0
-9728 6734 0
-9728 6734 0
-2658 6740 9728 0
2658 -6740 0
2658 -9728 0
9729 -6734 -6745 0
-9729 6734 0
-9729 6745 0
-2654 6747 9729 0
2654 -6747 0
2654 -9729 0
9730 -6734 -6751 0
-9730 6734 0
-9730 6751 0
-2678 6754 9730 0
2678 -6754 0
2678 -9730 0
9731 -6756 -6751 0
-9731 6756 0
-9731 6751 0
-2676 6761 9731 0
2676 -6761 0
2676 -9731 0
9732 -6734 -6766 0
-9732 6734 0
-9732 6766 0
-2662 6768 9732 0
2662 -6768 0
2662 -9732 0
9733 -6734 -6772 0
-9733 6734 0
-9733 6772 0
-2669 6775 9733 0
2669 -6775 0
2669 -9733 0
9734 -6756 -6772 0
-9734 6756 0
-9734 6772 0
-2671 6780 9734 0
2671 -6780 0
2671 -9734 0
9735 -6745 -6756 0
-9735 6745 0
-9735 6756 0
-2653 6785 9735 0
2653 -6785 0
2653 -9735 0
9736 -6745 -6745 0
-9736 6745 0
-9736 6745 0
-2660 6790 9736 0
2660 -6790 0
2660 -9736 0
9737 -6745 -6766 0
-9737 6745 0
-9737 6766 0
-2667 6795 9737 0
2667 -6795 0
2667 -9737 0
9738 -6745 -6772 0
-9738 6745 0
-9738 6772 0
-2674 6800 9738 0
2674 -6800 0
2674 -9738 0
9739 -6751 -6772 0
-9739 6751 0
-9739 6772 0
-2681 6805 9739 0
2681 -6805 0
2681 -9739 0
9740 -6766 -6756 0
-9740 6766 0
-9740 6756 0
-2665 6810 9740 0
2665 -6810 0
2665 -9740 0
9741 -6766 -6751 0
-9741 6766 0
-9741 6751 0
-2686 6815 9741 0
2686 -6815 0
2686 -9741 0
9742 -6766 -6766 0
-9742 6766 0
-9742 6766 0
-2692 6820 9742 0
2692 -6820 0
2692 -9742 0
9743 -9019 -9744 0
-9743 9019 0
-9743 9744 0
9745 -9744 -9744 0
-9745 9744 0
-9745 9744 0
9746 -9744 -9019 0
-9746 9744 0
-9746 9019 0
9747 -9019 -9019 -9748 0
-9747 9019 0
-9747 9019 0
-9747 9748 0
-3757 9020 9743 9745 9746 9747 0
3757 -9020 0
3757 -9743 0
3757 -9745 0
3757 -9746 0
3757 -9747 0
9749 -9019 -9750 0
-9749 9019 0
-9749 9750 0
9751 -9744 -9750 0
-9751 9744 0
-9751 9750 0
9752 -9744 -9022 0
-9752 9744 0
-9752 9022 0
9753 -9019 -9022 -9748 0
-9753 9019 0
-9753 9022 0
-9753 9748 0
-3753 9023 9749 9751 9752 9753 0
3753 -9023 0
3753 -9749 0
3753 -9751 0
3753 -9752 0
3753 -9753 0
9754 -9019 -9755 0
-9754 9019 0
-9754 9755 0
9756 -9744 -9025 0
-9756 9744 0
-9756 9025 0
9757 -9744 -9755 0
-9757 9744 0
-9757 9755 0
9758 -9019 -9025 -9748 0
-9758 9019 0
-9758 9025 0
-9758 9748 0
-3777 9026 9754 9756 9757 9758 0
3777 -9026 0
3777 -9754 0
3777 -9756 0
3777 -9757 0
3777 -9758 0
9759 -9028 -9755 0
-9759 9028 0
-9759 9755 0
9760 -9761 -9755 0
-9760 9761 0
-9760 9755 0
9762 -9761 -9025 0
-9762 9761 0
-9762 9025 0
9763 -9028 -9025 -9748 0
-9763 9028 0
-9763 9025 0
-9763 9748 0
-3775 9029 9759 9760 9762 9763 0
3775 -9029 0
3775 -9759 0
3775 -9760 0
3775 -9762 0
3775 -9763 0
9764 -9019 -9765 0
-9764 9019 0
-9764 9765 0
9766 -9744 -9765 0
-9766 9744 0
-9766 9765 0
9767 -9744 -9031 0
-9767 9744 0
-9767 9031 0
9768 -9019 -9031 -9748 0
-9768 9019 0
-9768 9031 0
-9768 9748 0
-3761 9032 9764 9766 9767 9768 0
3761 -9032 0
3761 -9764 0
3761 -9766 0
3761 -9767 0
3761 -9768 0
9769 -9019 -9770 0
-9769 9019 0
-9769 9770 0
9771 -9744 -9034 0
-9771 9744 0
-9771 9034 0
9772 -9744 -9770 0
-9772 9744 0
-9772 9770 0
9773 -9019 -9034 -9748 0
-9773 9019 0
-9773 9034 0
-9773 9748 0
-3768 9035 9769 9771 9772 9773 0
3768 -9035 0
3768 -9769 0
3768 -9771 0
3768 -9772 0
3768 -9773 0
9774 -9028 -9770 0
-9774 9028 0
-9774 9770 0
9775 -9761 -9770 0
-9775 9761 0
-9775 9770 0
9776 -9761 -9034 0
-9776 9761 0
-9776 9034 0
9777 -9028 -9034 -9748 0
-9777 9028 0
-9777 9034 0
-9777 9748 0
-3770 9037 9774 9775 9776 9777 0
3770 -9037 0
3770 -9774 0
3770 -9775 0
3770 -9776 0
3770 -9777 0
9778 -9022 -9761 0
-9778 9022 0
-9778 9761 0
9779 -9750 -9028 0
-9779 9750 0
-9779 9028 0
9780 -9750 -9761 0
-9780 9750 0
-9780 9761 0
9781 -9022 -9028 -9748 0
-9781 9022 0
-9781 9028 0
-9781 9748 0
-3752 9039 9778 9779 9780 9781 0
3752 -9039 0
3752 -9778 0
3752 -9779 0
3752 -9780 0
3752 -9781 0
9782 -9022 -9750 0
-9782 9022 0
-9782 9750 0
9783 -9750 -9750 0
-9783 9750 0
-9783 9750 0
9784 -9750 -9022 0
-9784 9750 0
-9784 9022 0
9785 -9022 -9022 -9748 0
-9785 9022 0
-9785 9022 0
-9785 9748 0
-3759 9041 9782 9783 9784 9785 0
3759 -9041 0
3759 -9782 0
3759 -9783 0
3759 -9784 0
3759 -9785 0
9786 -9022 -9765 0
-9786 9022 0
-9786 9765 0
9787 -9750 -9765 0
-9787 9750 0
-9787 9765 0
9788 -9750 -9031 0
-9788 9750 0
-9788 9031 0
9789 -9022 -9031 -9748 0
-9789 9022 0
-9789 9031 0
-9789 9748 0
-3766 9043 9786 9787 9788 9789 0
3766 -9043 0
3766 -9786 0
3766 -9787 0
3766 -9788 0
3766 -9789 0
9790 -9022 -9770 0
-9790 9022 0
-9790 9770 0
9791 -9750 -9034 0
-9791 9750 0
-9791 9034 0
9792 -9750 -9770 0
-9792 9750 0
-9792 9770 0
9793 -9022 -9034 -9748 0
-9793 9022 0
-9793 9034 0
-9793 9748 0
-3773 9045 9790 9791 9792 9793 0
3773 -9045 0
3773 -9790 0
3773 -9791 0
3773 -9792 0
3773 -9793 0
9794 -9025 -9770 0
-9794 9025 0
-9794 9770 0
9795 -9755 -9770 0
-9795 9755 0
-9795 9770 0
9796 -9755 -9034 0
-9796 9755 0
-9796 9034 0
9797 -9025 -9034 -9748 0
-9797 9025 0
-9797 9034 0
-9797 9748 0
-3780 9047 9794 9795 9796 9797 0
3780 -9047 0
3780 -9794 0
3780 -9795 0
3780 -9796 0
3780 -9797 0
9798 -9031 -9761 0
-9798 9031 0
-9798 9761 0
9799 -9765 -9028 0
-9799 9765 0
-9799 9028 0
9800 -9765 -9761 0
-9800 9765 0
-9800 9761 0
9801 -9031 -9028 -9748 0
-9801 9031 0
-9801 9028 0
-9801 9748 0
-3764 9049 9798 9799 9800 9801 0
3764 -9049 0
3764 -9798 0
3764 -9799 0
3764 -9800 0
3764 -9801 0
9802 -9031 -9755 0
-9802 9031 0
-9802 9755 0
9803 -9765 -9025 0
-9803 9765 0
-9803 9025 0
9804 -9765 -9755 0
-9804 9765 0
-9804 9755 0
9805 -9031 -9025 -9748 0
-9805 9031 0
-9805 9025 0
-9805 9748 0
-3785 9051 9802 9803 9804 9805 0
3785 -9051 0
3785 -9802 0
3785 -9803 0
3785 -9804 0
3785 -9805 0
9806 -9031 -9765 0
-9806 9031 0
-9806 9765 0
9807 -9765 -9765 0
-9807 9765 0
-9807 9765 0
9808 -9765 -9031 0
-9808 9765 0
-9808 9031 0
9809 -9031 -9031 -9748 0
-9809 9031 0
-9809 9031 0
-9809 9748 0
-3791 9053 9806 9807 9808 9809 0
3791 -9053 0
3791 -9806 0
3791 -9807 0
3791 -9808 0
3791 -9809 0
9810 -6940 -9811 0
-9810 6940 0
-9810 9811 0
9812 -9811 -9811 0
-9812 9811 0
-9812 9811 0
9813 -9811 -6940 0
-9813 9811 0
-9813 6940 0
9814 -6940 -6940 -9815 0
-9814 6940 0
-9814 6940 0
-9814 9815 0
-4222 6941 9810 9812 9813 9814 0
4222 -6941 0
4222 -9810 0
4222 -9812 0
4222 -9813 0
4222 -9814 0
9816 -6940 -9817 0
-9816 6940 0
-9816 9817 0
9818 -9811 -9817 0
-9818 9811 0
-9818 9817 0
9819 -9811 -6943 0
-9819 9811 0
-9819 6943 0
9820 -6940 -6943 -9815 0
-9820 6940 0
-9820 6943 0
-9820 9815 0
-4218 6944 9816 9818 9819 9820 0
4218 -6944 0
4218 -9816 0
4218 -9818 0
4218 -9819 0
4218 -9820 0
9821 -6940 -9822 0
-9821 6940 0
-9821 9822 0
9823 -9811 -6946 0
-9823 9811 0
-9823 6946 0
9824 -9811 -9822 0
-9824 9811 0
-9824 9822 0
9825 -6940 -6946 -9815 0
-9825 6940 0
-9825 6946 0
-9825 9815 0
-4242 6947 9821 9823 9824 9825 0
4242 -6947 0
4242 -9821 0
4242 -9823 0
4242 -9824 0
4242 -9825 0
9826 -6949 -9822 0
-9826 6949 0
-9826 9822 0
9827 -9828 -9822 0
-9827 9828 0
-9827 9822 0
9829 -9828 -6946 0
-9829 9828 0
-9829 6946 0
9830 -6949 -6946 -9815 0
-9830 6949 0
-9830 6946 0
-9830 9815 0
-4240 6950 9826 9827 9829 9830 0
4240 -6950 0
4240 -9826 0
4240 -9827 0
4240 -9829 0
4240 -9830 0
9831 -6940 -9832 0
-9831 6940 0
-9831 9832 0
9833 -9811 -9832 0
-9833 9811 0
-9833 9832 0
9834 -9811 -6952 0
-9834 9811 0
-9834 6952 0
9835 -6940 -6952 -9815 0
-9835 6940 0
-9835 6952 0
-9835 9815 0
-4226 6953 9831 9833 9834 9835 0
4226 -6953 0
4226 -9831 0
4226 -9833 0
4226 -9834 0
4226 -9835 0
9836 -6940 -9837 0
-9836 6940 0
-9836 9837 0
9838 -9811 -6955 0
-9838 9811 0
-9838 6955 0
9839 -9811 -9837 0
-9839 9811 0
-9839 9837 0
9840 -6940 -6955 -9815 0
-9840 6940 0
-9840 6955 0
-9840 9815 0
-4233 6956 9836 9838 9839 9840 0
4233 -6956 0
4233 -9836 0
4233 -9838 0
4233 -9839 0
4233 -9840 0
9841 -6949 -9837 0
-9841 6949 0
-9841 9837 0
9842 -9828 -9837 0
-9842 9828 0
-9842 9837 0
9843 -9828 -6955 0
-9843 9828 0
-9843 6955 0
9844 -6949 -6955 -9815 0
-9844 6949 0
-9844 6955 0
-9844 9815 0
-4235 6958 9841 9842 9843 9844 0
4235 -6958 0
4235 -9841 0
4235 -9842 0
4235 -9843 0
4235 -9844 0
9845 -6943 -9828 0
-9845 6943 0
-9845 9828 0
9846 -9817 -6949 0
-9846 9817 0
-9846 6949 0
9847 -9817 -9828 0
-9847 9817 0
-9847 9828 0
9848 -6943 -6949 -9815 0
-9848 6943 0
-9848 6949 0
-9848 9815 0
-4217 6960 9845 9846 9847 9848 0
4217 -6960 0
4217 -9845 0
4217 -9846 0
4217 -9847 0
4217 -9848 0
9849 -6943 -9817 0
-9849 6943 0
-9849 9817 0
9850 -9817 -9817 0
-9850 9817 0
-9850 9817 0
9851 -9817 -6943 0
-9851 9817 0
-9851 6943 0
9852 -6943 -6943 -9815 0
-9852 6943 0
-9852 6943 0
-9852 9815 0
-4224 6962 9849 9850 9851 9852 0
4224 -6962 0
4224 -9849 0
4224 -9850 0
4224 -9851 0
4224 -9852 0
9853 -6943 -9832 0
-9853 6943 0
-9853 9832 0
9854 -9817 -9832 0
-9854 9817 0
-9854 9832 0
9855 -9817 -6952 0
-9855 9817 0
-9855 6952 0
9856 -6943 -6952 -9815 0
-9856 6943 0
-9856 6952 0
-9856 9815 0
-4231 6964 9853 9854 9855 9856 0
4231 -6964 0
4231 -9853 0
4231 -9854 0
4231 -9855 0
4231 -9856 0
9857 -6943 -9837 0
-9857 6943 0
-9857 9837 0
9858 -9817 -6955 0
-9858 9817 0
-9858 6955 0
9859 -9817 -9837 0
-9859 9817 0
-9859 9837 0
9860 -6943 -6955 -9815 0
-9860 6943 0
-9860 6955 0
-9860 9815 0
-4238 6966 9857 9858 9859 9860 0
4238 -6966 0
4238 -9857 0
4238 -9858 0
4238 -9859 0
4238 -9860 0
9861 -6946 -9837 0
-9861 6946 0
-9861 9837 0
9862 -9822 -9837 0
-9862 9822 0
-9862 9837 0
9863 -9822 -6955 0
-9863 9822 0
-9863 6955 0
9864 -6946 -6955 -9815 0
-9864 6946 0
-9864 6955 0
-9864 9815 0
-4245 6968 9861 9862 9863 9864 0
4245 -6968 0
4245 -9861 0
4245 -9862 0
4245 -9863 0
4245 -9864 0
9865 -6952 -9828 0
-9865 6952 0
-9865 9828 0
9866 -9832 -6949 0
-9866 9832 0
-9866 6949 0
9867 -9832 -9828 0
-9867 9832 0
-9867 9828 0
9868 -6952 -6949 -9815 0
-9868 6952 0
-9868 6949 0
-9868 9815 0
-4229 6970 9865 9866 9867 9868 0
4229 -6970 0
4229 -9865 0
4229 -9866 0
4229 -9867 0
4229 -9868 0
9869 -6952 -9822 0
-9869 6952 0
-9869 9822 0
9870 -9832 -6946 0
-9870 9832 0
-9870 6946 0
9871 -9832 -9822 0
-9871 9832 0
-9871 9822 0
9872 -6952 -6946 -9815 0
-9872 6952 0
-9872 6946 0
-9872 9815 0
-4250 6972 9869 9870 9871 9872 0
4250 -6972 0
4250 -9869 0
4250 -9870 0
4250 -9871 0
4250 -9872 0
9873 -6952 -9832 0
-9873 6952 0
-9873 9832 0
9874 -9832 -9832 0
-9874 9832 0
-9874 9832 0
9875 -9832 -6952 0
-9875 9832 0
-9875 6952 0
9876 -6952 -6952 -9815 0
-9876 6952 0
-9876 6952 0
-9876 9815 0
-4256 6974 9873 9874 9875 9876 0
4256 -6974 0
4256 -9873 0
4256 -9874 0
4256 -9875 0
4256 -9876 0
9877 -7848 -7841 0
-9877 7848 0
-9877 7841 0
9878 -7841 -7841 0
-9878 7841 0
-9878 7841 0
9879 -7841 -7848 0
-9879 7841 0
-9879 7848 0
9880 -7848 -7848 -7884 0
-9880 7848 0
-9880 7848 0
-9880 7884 0
-5351 7834 9877 9878 9879 9880 0
5351 -7834 0
5351 -9877 0
5351 -9878 0
5351 -9879 0
5351 -9880 0
9881 -7848 -7836 0
-9881 7848 0
-9881 7836 0
9882 -7841 -7836 0
-9882 7841 0
-9882 7836 0
9883 -7841 -7843 0
-9883 7841 0
-9883 7843 0
9884 -7848 -7843 -7884 0
-9884 7848 0
-9884 7843 0
-9884 7884 0
-5347 7829 9881 9882 9883 9884 0
5347 -7829 0
5347 -9881 0
5347 -9882 0
5347 -9883 0
5347 -9884 0
9885 -7848 -7839 0
-9885 7848 0
-9885 7839 0
9886 -7841 -7845 0
-9886 7841 0
-9886 7845 0
9887 -7841 -7839 0
-9887 7841 0
-9887 7839 0
9888 -7848 -7845 -7884 0
-9888 7848 0
-9888 7845 0
-9888 7884 0
-5365 7828 9885 9886 9887 9888 0
5365 -7828 0
5365 -9885 0
5365 -9886 0
5365 -9887 0
5365 -9888 0
9889 -7855 -7839 0
-9889 7855 0
-9889 7839 0
9890 -7879 -7839 0
-9890 7879 0
-9890 7839 0
9891 -7879 -7845 0
-9891 7879 0
-9891 7845 0
9892 -7855 -7845 -7884 0
-9892 7855 0
-9892 7845 0
-9892 7884 0
-4546 7850 9889 9890 9891 9892 0
4546 -7850 0
4546 -9889 0
4546 -9890 0
4546 -9891 0
4546 -9892 0
9893 -7848 -7889 0
-9893 7848 0
-9893 7889 0
9894 -7841 -7889 0
-9894 7841 0
-9894 7889 0
9895 -7841 -7909 0
-9895 7841 0
-9895 7909 0
9896 -7848 -7909 -7884 0
-9896 7848 0
-9896 7909 0
-9896 7884 0
-5354 7862 9893 9894 9895 9896 0
5354 -7862 0
5354 -9893 0
5354 -9894 0
5354 -9895 0
5354 -9896 0
9897 -7848 -7894 0
-9897 7848 0
-9897 7894 0
9898 -7841 -7899 0
-9898 7841 0
-9898 7899 0
9899 -7841 -7894 0
-9899 7841 0
-9899 7894 0
9900 -7848 -7899 -7884 0
-9900 7848 0
-9900 7899 0
-9900 7884 0
-5359 7869 9897 9898 9899 9900 0
5359 -7869 0
5359 -9897 0
5359 -9898 0
5359 -9899 0
5359 -9900 0
9901 -7855 -7894 0
-9901 7855 0
-9901 7894 0
9902 -7879 -7894 0
-9902 7879 0
-9902 7894 0
9903 -7879 -7899 0
-9903 7879 0
-9903 7899 0
9904 -7855 -7899 -7884 0
-9904 7855 0
-9904 7899 0
-9904 7884 0
-4543 7874 9901 9902 9903 9904 0
4543 -7874 0
4543 -9901 0
4543 -9902 0
4543 -9903 0
4543 -9904 0
9905 -7843 -7879 0
-9905 7843 0
-9905 7879 0
9906 -7836 -7855 0
-9906 7836 0
-9906 7855 0
9907 -7836 -7879 0
-9907 7836 0
-9907 7879 0
9908 -7843 -7855 -7884 0
-9908 7843 0
-9908 7855 0
-9908 7884 0
-4536 7852 9905 9906 9907 9908 0
4536 -7852 0
4536 -9905 0
4536 -9906 0
4536 -9907 0
4536 -9908 0
9909 -7843 -7836 0
-9909 7843 0
-9909 7836 0
7881 -7836 -7836 0
-7881 7836 0
-7881 7836 0
9910 -7836 -7843 0
-9910 7836 0
-9910 7843 0
9911 -7843 -7843 -7884 0
-9911 7843 0
-9911 7843 0
-9911 7884 0
-4538 7833 9909 7881 9910 9911 0
4538 -7833 0
4538 -9909 0
4538 -7881 0
4538 -9910 0
4538 -9911 0
9912 -7843 -7889 0
-9912 7843 0
-9912 7889 0
9913 -7836 -7889 0
-9913 7836 0
-9913 7889 0
9914 -7836 -7909 0
-9914 7836 0
-9914 7909 0
9915 -7843 -7909 -7884 0
-9915 7843 0
-9915 7909 0
-9915 7884 0
-4541 7857 9912 9913 9914 9915 0
4541 -7857 0
4541 -9912 0
4541 -9913 0
4541 -9914 0
4541 -9915 0
9916 -7843 -7894 0
-9916 7843 0
-9916 7894 0
9917 -7836 -7899 0
-9917 7836 0
-9917 7899 0
9918 -7836 -7894 0
-9918 7836 0
-9918 7894 0
9919 -7843 -7899 -7884 0
-9919 7843 0
-9919 7899 0
-9919 7884 0
-4544 7864 9916 9917 9918 9919 0
4544 -7864 0
4544 -9916 0
4544 -9917 0
4544 -9918 0
4544 -9919 0
9920 -7845 -7894 0
-9920 7845 0
-9920 7894 0
9921 -7839 -7894 0
-9921 7839 0
-9921 7894 0
9922 -7839 -7899 0
-9922 7839 0
-9922 7899 0
9923 -7845 -7899 -7884 0
-9923 7845 0
-9923 7899 0
-9923 7884 0
-4547 7866 9920 9921 9922 9923 0
4547 -7866 0
4547 -9920 0
4547 -9921 0
4547 -9922 0
4547 -9923 0
9924 -7909 -7879 0
-9924 7909 0
-9924 7879 0
9925 -7889 -7855 0
-9925 7889 0
-9925 7855 0
9926 -7889 -7879 0
-9926 7889 0
-9926 7879 0
9927 -7909 -7855 -7884 0
-9927 7909 0
-9927 7855 0
-9927 7884 0
-4540 7904 9924 9925 9926 9927 0
4540 -7904 0
4540 -9924 0
4540 -9925 0
4540 -9926 0
4540 -9927 0
9928 -7909 -7839 0
-9928 7909 0
-9928 7839 0
9929 -7889 -7845 0
-9929 7889 0
-9929 7845 0
9930 -7889 -7839 0
-9930 7889 0
-9930 7839 0
9931 -7909 -7845 -7884 0
-9931 7909 0
-9931 7845 0
-9931 7884 0
-4549 7860 9928 9929 9930 9931 0
4549 -7860 0
4549 -9928 0
4549 -9929 0
4549 -9930 0
4549 -9931 0
9932 -7909 -7889 0
-9932 7909 0
-9932 7889 0
9933 -7889 -7889 0
-9933 7889 0
-9933 7889 0
9934 -7889 -7909 0
-9934 7889 0
-9934 7909 0
9935 -7909 -7909 -7884 0
-9935 7909 0
-9935 7909 0
-9935 7884 0
-4552 7914 9932 9933 9934 9935 0
4552 -7914 0
4552 -9932 0
4552 -9933 0
4552 -9934 0
4552 -9935 0
9936 -6754 -6754 0
-9936 6754 0
-9936 6754 0
-1936 6740 9936 0
1936 -6740 0
1936 -9936 0
9937 -6754 -6749 0
-9937 6754 0
-9937 6749 0
-1932 6735 9937 0
1932 -6735 0
1932 -9937 0
9938 -6754 -6751 0
-9938 6754 0
-9938 6751 0
-1956 6734 9938 0
1956 -6734 0
1956 -9938 0
9939 -6761 -6751 0
-9939 6761 0
-9939 6751 0
-1954 6756 9939 0
1954 -6756 0
1954 -9939 0
9940 -6754 -6815 0
-9940 6754 0
-9940 6815 0
-1940 6768 9940 0
1940 -6768 0
1940 -9940 0
9941 -6754 -6805 0
-9941 6754 0
-9941 6805 0
-1947 6775 9941 0
1947 -6775 0
1947 -9941 0
9942 -6761 -6805 0
-9942 6761 0
-9942 6805 0
-1949 6780 9942 0
1949 -6780 0
1949 -9942 0
9943 -6749 -6761 0
-9943 6749 0
-9943 6761 0
-1931 6758 9943 0
1931 -6758 0
1931 -9943 0
9944 -6749 -6749 0
-9944 6749 0
-9944 6749 0
-1938 6739 9944 0
1938 -6739 0
1938 -9944 0
9945 -6749 -6815 0
-9945 6749 0
-9945 6815 0
-1945 6763 9945 0
1945 -6763 0
1945 -9945 0
9946 -6749 -6805 0
-9946 6749 0
-9946 6805 0
-1952 6770 9946 0
1952 -6770 0
1952 -9946 0
9947 -6751 -6805 0
-9947 6751 0
-9947 6805 0
-1959 6772 9947 0
1959 -6772 0
1959 -9947 0
9948 -6815 -6761 0
-9948 6815 0
-9948 6761 0
-1943 6810 9948 0
1943 -6810 0
1943 -9948 0
9949 -6815 -6751 0
-9949 6815 0
-9949 6751 0
-1964 6766 9949 0
1964 -6766 0
1964 -9949 0
9950 -6815 -6815 0
-9950 6815 0
-9950 6815 0
-1970 6820 9950 0
1970 -6820 0
1970 -9950 0
9951 -7477 -7477 0
-9951 7477 0
-9951 7477 0
-3833 7483 9951 0
3833 -7483 0
3833 -9951 0
9952 -7477 -7488 0
-9952 7477 0
-9952 7488 0
-3829 7490 9952 0
3829 -7490 0
3829 -9952 0
9953 -7477 -7494 0
-9953 7477 0
-9953 7494 0
-3853 7497 9953 0
3853 -7497 0
3853 -9953 0
9954 -7499 -7494 0
-9954 7499 0
-9954 7494 0
-3851 7504 9954 0
3851 -7504 0
3851 -9954 0
9955 -7477 -7509 0
-9955 7477 0
-9955 7509 0
-3837 7511 9955 0
3837 -7511 0
3837 -9955 0
9956 -7477 -7515 0
-9956 7477 0
-9956 7515 0
-3844 7518 9956 0
3844 -7518 0
3844 -9956 0
9957 -7499 -7515 0
-9957 7499 0
-9957 7515 0
-3846 7523 9957 0
3846 -7523 0
3846 -9957 0
9958 -7488 -7499 0
-9958 7488 0
-9958 7499 0
-3828 7528 9958 0
3828 -7528 0
3828 -9958 0
9959 -7488 -7488 0
-9959 7488 0
-9959 7488 0
-3835 7533 9959 0
3835 -7533 0
3835 -9959 0
9960 -7488 -7509 0
-9960 7488 0
-9960 7509 0
-3842 7538 9960 0
3842 -7538 0
3842 -9960 0
9961 -7488 -7515 0
-9961 7488 0
-9961 7515 0
-3849 7543 9961 0
3849 -7543 0
3849 -9961 0
9962 -7494 -7515 0
-9962 7494 0
-9962 7515 0
-3856 7548 9962 0
3856 -7548 0
3856 -9962 0
9963 -7509 -7499 0
-9963 7509 0
-9963 7499 0
-3840 7553 9963 0
3840 -7553 0
3840 -9963 0
9964 -7509 -7494 0
-9964 7509 0
-9964 7494 0
-3861 7558 9964 0
3861 -7558 0
3861 -9964 0
9965 -7509 -7509 0
-9965 7509 0
-9965 7509 0
-3867 7563 9965 0
3867 -7563 0
3867 -9965 0
9966 -7828 -7828 0
-9966 7828 0
-9966 7828 0
-1312 7834 9966 0
1312 -7834 0
1312 -9966 0
9967 -7828 -7839 0
-9967 7828 0
-9967 7839 0
-1306 7841 9967 0
1306 -7841 0
1306 -9967 0
9968 -7828 -7845 0
-9968 7828 0
-9968 7845 0
-1305 7848 9968 0
1305 -7848 0
1305 -9968 0
9969 -7850 -7845 0
-9969 7850 0
-9969 7845 0
-1328 7855 9969 0
1328 -7855 0
1328 -9969 0
9970 -7828 -7860 0
-9970 7828 0
-9970 7860 0
-1319 7862 9970 0
1319 -7862 0
1319 -9970 0
9971 -7828 -7866 0
-9971 7828 0
-9971 7866 0
-1326 7869 9971 0
1326 -7869 0
1326 -9971 0
9972 -7850 -7866 0
-9972 7850 0
-9972 7866 0
-1333 7874 9972 0
1333 -7874 0
1333 -9972 0
9973 -7839 -7850 0
-9973 7839 0
-9973 7850 0
-1330 7879 9973 0
1330 -7879 0
1330 -9973 0
9974 -7839 -7839 0
-9974 7839 0
-9974 7839 0
-1310 7884 9974 0
1310 -7884 0
1310 -9974 0
9975 -7839 -7860 0
-9975 7839 0
-9975 7860 0
-1314 7889 9975 0
1314 -7889 0
1314 -9975 0
9976 -7839 -7866 0
-9976 7839 0
-9976 7866 0
-1321 7894 9976 0
1321 -7894 0
1321 -9976 0
9977 -7845 -7866 0
-9977 7845 0
-9977 7866 0
-1323 7899 9977 0
1323 -7899 0
1323 -9977 0
9978 -7860 -7850 0
-9978 7860 0
-9978 7850 0
-1338 7904 9978 0
1338 -7904 0
1338 -9978 0
9979 -7860 -7845 0
-9979 7860 0
-9979 7845 0
-1317 7909 9979 0
1317 -7909 0
1317 -9979 0
9980 -7860 -7860 0
-9980 7860 0
-9980 7860 0
-1344 7914 9980 0
1344 -7914 0
1344 -9980 0
9981 -7772 -7769 0
-9981 7772 0
-9981 7769 0
9982 -7769 -7769 0
-9982 7769 0
-9982 7769 0
9983 -7769 -7772 0
-9983 7769 0
-9983 7772 0
9984 -7772 -7772 -7790 0
-9984 7772 0
-9984 7772 0
-9984 7790 0
-2866 7757 9981 9982 9983 9984 0
2866 -7757 0
2866 -9981 0
2866 -9982 0
2866 -9983 0
2866 -9984 0
9985 -7772 -7780 0
-9985 7772 0
-9985 7780 0
9986 -7769 -7780 0
-9986 7769 0
-9986 7780 0
9987 -7769 -7782 0
-9987 7769 0
-9987 7782 0
9988 -7772 -7782 -7790 0
-9988 7772 0
-9988 7782 0
-9988 7790 0
-2862 7760 9985 9986 9987 9988 0
2862 -7760 0
2862 -9985 0
2862 -9986 0
2862 -9987 0
2862 -9988 0
9989 -7772 -7788 0
-9989 7772 0
-9989 7788 0
9990 -7769 -7784 0
-9990 7769 0
-9990 7784 0
9991 -7769 -7788 0
-9991 7769 0
-9991 7788 0
9992 -7772 -7784 -7790 0
-9992 7772 0
-9992 7784 0
-9992 7790 0
-2886 7763 9989 9990 9991 9992 0
2886 -7763 0
2886 -9989 0
2886 -9990 0
2886 -9991 0
2886 -9992 0
9993 -7774 -7788 0
-9993 7774 0
-9993 7788 0
9994 -7786 -7788 0
-9994 7786 0
-9994 7788 0
9995 -7786 -7784 0
-9995 7786 0
-9995 7784 0
9996 -7774 -7784 -7790 0
-9996 7774 0
-9996 7784 0
-9996 7790 0
-2884 7766 9993 9994 9995 9996 0
2884 -7766 0
2884 -9993 0
2884 -9994 0
2884 -9995 0
2884 -9996 0
9997 -7772 -9456 0
-9997 7772 0
-9997 9456 0
9998 -7769 -9456 0
-9998 7769 0
-9998 9456 0
9999 -7769 -8972 0
-9999 7769 0
-9999 8972 0
10000 -7772 -8972 -7790 0
-10000 7772 0
-10000 8972 0
-10000 7790 0
-2870 8973 9997 9998 9999 10000 0
2870 -8973 0
2870 -9997 0
2870 -9998 0
2870 -9999 0
2870 -10000 0
10001 -7772 -7768 0
-10001 7772 0
-10001 7768 0
10002 -7769 -7771 0
-10002 7769 0
-10002 7771 0
10003 -7769 -7768 0
-10003 7769 0
-10003 7768 0
10004 -7772 -7771 -7790 0
-10004 7772 0
-10004 7771 0
-10004 7790 0
-2877 7756 10001 10002 10003 10004 0
2877 -7756 0
2877 -10001 0
2877 -10002 0
2877 -10003 0
2877 -10004 0
10005 -7774 -7768 0
-10005 7774 0
-10005 7768 0
10006 -7786 -7768 0
-10006 7786 0
-10006 7768 0
10007 -7786 -7771 0
-10007 7786 0
-10007 7771 0
10008 -7774 -7771 -7790 0
-10008 7774 0
-10008 7771 0
-10008 7790 0
-2879 7765 10005 10006 10007 10008 0
2879 -7765 0
2879 -10005 0
2879 -10006 0
2879 -10007 0
2879 -10008 0
10009 -7782 -7786 0
-10009 7782 0
-10009 7786 0
10010 -7780 -7774 0
-10010 7780 0
-10010 7774 0
10011 -7780 -7786 0
-10011 7780 0
-10011 7786 0
10012 -7782 -7774 -7790 0
-10012 7782 0
-10012 7774 0
-10012 7790 0
-2861 7776 10009 10010 10011 10012 0
2861 -7776 0
2861 -10009 0
2861 -10010 0
2861 -10011 0
2861 -10012 0
10013 -7782 -7780 0
-10013 7782 0
-10013 7780 0
9449 -7780 -7780 0
-9449 7780 0
-9449 7780 0
10014 -7780 -7782 0
-10014 7780 0
-10014 7782 0
10015 -7782 -7782 -7790 0
-10015 7782 0
-10015 7782 0
-10015 7790 0
-2868 7778 10013 9449 10014 10015 0
2868 -7778 0
2868 -10013 0
2868 -9449 0
2868 -10014 0
2868 -10015 0
10016 -7782 -9456 0
-10016 7782 0
-10016 9456 0
10017 -7780 -9456 0
-10017 7780 0
-10017 9456 0
10018 -7780 -8972 0
-10018 7780 0
-10018 8972 0
10019 -7782 -8972 -7790 0
-10019 7782 0
-10019 8972 0
-10019 7790 0
-2875 8979 10016 10017 10018 10019 0
2875 -8979 0
2875 -10016 0
2875 -10017 0
2875 -10018 0
2875 -10019 0
10020 -7782 -7768 0
-10020 7782 0
-10020 7768 0
10021 -7780 -7771 0
-10021 7780 0
-10021 7771 0
10022 -7780 -7768 0
-10022 7780 0
-10022 7768 0
10023 -7782 -7771 -7790 0
-10023 7782 0
-10023 7771 0
-10023 7790 0
-2882 7759 10020 10021 10022 10023 0
2882 -7759 0
2882 -10020 0
2882 -10021 0
2882 -10022 0
2882 -10023 0
10024 -7784 -7768 0
-10024 7784 0
-10024 7768 0
10025 -7788 -7768 0
-10025 7788 0
-10025 7768 0
10026 -7788 -7771 0
-10026 7788 0
-10026 7771 0
10027 -7784 -7771 -7790 0
-10027 7784 0
-10027 7771 0
-10027 7790 0
-2889 7762 10024 10025 10026 10027 0
2889 -7762 0
2889 -10024 0
2889 -10025 0
2889 -10026 0
2889 -10027 0
10028 -8972 -7786 0
-10028 8972 0
-10028 7786 0
10029 -9456 -7774 0
-10029 9456 0
-10029 7774 0
10030 -9456 -7786 0
-10030 9456 0
-10030 7786 0
10031 -8972 -7774 -7790 0
-10031 8972 0
-10031 7774 0
-10031 7790 0
-2873 8983 10028 10029 10030 10031 0
2873 -8983 0
2873 -10028 0
2873 -10029 0
2873 -10030 0
2873 -10031 0
10032 -8972 -7788 0
-10032 8972 0
-10032 7788 0
10033 -9456 -7784 0
-10033 9456 0
-10033 7784 0
10034 -9456 -7788 0
-10034 9456 0
-10034 7788 0
10035 -8972 -7784 -7790 0
-10035 8972 0
-10035 7784 0
-10035 7790 0
-2894 8985 10032 10033 10034 10035 0
2894 -8985 0
2894 -10032 0
2894 -10033 0
2894 -10034 0
2894 -10035 0
10036 -8972 -9456 0
-10036 8972 0
-10036 9456 0
9695 -9456 -9456 0
-9695 9456 0
-9695 9456 0
10037 -9456 -8972 0
-10037 9456 0
-10037 8972 0
10038 -8972 -8972 -7790 0
-10038 8972 0
-10038 8972 0
-10038 7790 0
-2900 8987 10036 9695 10037 10038 0
2900 -8987 0
2900 -10036 0
2900 -9695 0
2900 -10037 0
2900 -10038 0
10039 -7792 -10040 0
-10039 7792 0
-10039 10040 0
10041 -10040 -10040 0
-10041 10040 0
-10041 10040 0
10042 -10040 -7792 0
-10042 10040 0
-10042 7792 0
10043 -7792 -7792 -10044 0
-10043 7792 0
-10043 7792 0
-10043 10044 0
-1433 7793 10039 10041 10042 10043 0
1433 -7793 0
1433 -10039 0
1433 -10041 0
1433 -10042 0
1433 -10043 0
10045 -7792 -10046 0
-10045 7792 0
-10045 10046 0
10047 -10040 -10046 0
-10047 10040 0
-10047 10046 0
10048 -10040 -7795 0
-10048 10040 0
-10048 7795 0
10049 -7792 -7795 -10044 0
-10049 7792 0
-10049 7795 0
-10049 10044 0
-1429 7796 10045 10047 10048 10049 0
1429 -7796 0
1429 -10045 0
1429 -10047 0
1429 -10048 0
1429 -10049 0
10050 -7792 -10051 0
-10050 7792 0
-10050 10051 0
10052 -10040 -7798 0
-10052 10040 0
-10052 7798 0
10053 -10040 -10051 0
-10053 10040 0
-10053 10051 0
10054 -7792 -7798 -10044 0
-10054 7792 0
-10054 7798 0
-10054 10044 0
-1453 7799 10050 10052 10053 10054 0
1453 -7799 0
1453 -10050 0
1453 -10052 0
1453 -10053 0
1453 -10054 0
10055 -7801 -10051 0
-10055 7801 0
-10055 10051 0
10056 -10057 -10051 0
-10056 10057 0
-10056 10051 0
10058 -10057 -7798 0
-10058 10057 0
-10058 7798 0
10059 -7801 -7798 -10044 0
-10059 7801 0
-10059 7798 0
-10059 10044 0
-1451 7802 10055 10056 10058 10059 0
1451 -7802 0
1451 -10055 0
1451 -10056 0
1451 -10058 0
1451 -10059 0
10060 -7792 -10061 0
-10060 7792 0
-10060 10061 0
10062 -10040 -10061 0
-10062 10040 0
-10062 10061 0
10063 -10040 -7804 0
-10063 10040 0
-10063 7804 0
10064 -7792 -7804 -10044 0
-10064 7792 0
-10064 7804 0
-10064 10044 0
-1437 7805 10060 10062 10063 10064 0
1437 -7805 0
1437 -10060 0
1437 -10062 0
1437 -10063 0
1437 -10064 0
10065 -7792 -10066 0
-10065 7792 0
-10065 10066 0
10067 -10040 -7807 0
-10067 10040 0
-10067 7807 0
10068 -10040 -10066 0
-10068 10040 0
-10068 10066 0
10069 -7792 -7807 -10044 0
-10069 7792 0
-10069 7807 0
-10069 10044 0
-1444 7808 10065 10067 10068 10069 0
1444 -7808 0
1444 -10065 0
1444 -10067 0
1444 -10068 0
1444 -10069 0
10070 -7801 -10066 0
-10070 7801 0
-10070 10066 0
10071 -10057 -10066 0
-10071 10057 0
-10071 10066 0
10072 -10057 -7807 0
-10072 10057 0
-10072 7807 0
10073 -7801 -7807 -10044 0
-10073 7801 0
-10073 7807 0
-10073 10044 0
-1446 7810 10070 10071 10072 10073 0
1446 -7810 0
1446 -10070 0
1446 -10071 0
1446 -10072 0
1446 -10073 0
10074 -7795 -10057 0
-10074 7795 0
-10074 10057 0
10075 -10046 -7801 0
-10075 10046 0
-10075 7801 0
10076 -10046 -10057 0
-10076 10046 0
-10076 10057 0
10077 -7795 -7801 -10044 0
-10077 7795 0
-10077 7801 0
-10077 10044 0
-1428 7812 10074 10075 10076 10077 0
1428 -7812 0
1428 -10074 0
1428 -10075 0
1428 -10076 0
1428 -10077 0
10078 -7795 -10046 0
-10078 7795 0
-10078 10046 0
10079 -10046 -10046 0
-10079 10046 0
-10079 10046 0
10080 -10046 -7795 0
-10080 10046 0
-10080 7795 0
10081 -7795 -7795 -10044 0
-10081 7795 0
-10081 7795 0
-10081 10044 0
-1435 7814 10078 10079 10080 10081 0
1435 -7814 0
1435 -10078 0
1435 -10079 0
1435 -10080 0
1435 -10081 0
10082 -7795 -10061 0
-10082 7795 0
-10082 10061 0
10083 -10046 -10061 0
-10083 10046 0
-10083 10061 0
10084 -10046 -7804 0
-10084 10046 0
-10084 7804 0
10085 -7795 -7804 -10044 0
-10085 7795 0
-10085 7804 0
-10085 10044 0
-1442 7816 10082 10083 10084 10085 0
1442 -7816 0
1442 -10082 0
1442 -10083 0
1442 -10084 0
1442 -10085 0
10086 -7795 -10066 0
-10086 7795 0
-10086 10066 0
10087 -10046 -7807 0
-10087 10046 0
-10087 7807 0
10088 -10046 -10066 0
-10088 10046 0
-10088 10066 0
10089 -7795 -7807 -10044 0
-10089 7795 0
-10089 7807 0
-10089 10044 0
-1449 7818 10086 10087 10088 10089 0
1449 -7818 0
1449 -10086 0
1449 -10087 0
1449 -10088 0
1449 -10089 0
10090 -7798 -10066 0
-10090 7798 0
-10090 10066 0
10091 -10051 -10066 0
-10091 10051 0
-10091 10066 0
10092 -10051 -7807 0
-10092 10051 0
-10092 7807 0
10093 -7798 -7807 -10044 0
-10093 7798 0
-10093 7807 0
-10093 10044 0
-1456 7820 10090 10091 10092 10093 0
1456 -7820 0
1456 -10090 0
1456 -10091 0
1456 -10092 0
1456 -10093 0
10094 -7804 -10057 0
-10094 7804 0
-10094 10057 0
10095 -10061 -7801 0
-10095 10061 0
-10095 7801 0
10096 -10061 -10057 0
-10096 10061 0
-10096 10057 0
10097 -7804 -7801 -10044 0
-10097 7804 0
-10097 7801 0
-10097 10044 0
-1440 7822 10094 10095 10096 10097 0
1440 -7822 0
1440 -10094 0
1440 -10095 0
1440 -10096 0
1440 -10097 0
10098 -7804 -10051 0
-10098 7804 0
-10098 10051 0
10099 -10061 -7798 0
-10099 10061 0
-10099 7798 0
10100 -10061 -10051 0
-10100 10061 0
-10100 10051 0
10101 -7804 -7798 -10044 0
-10101 7804 0
-10101 7798 0
-10101 10044 0
-1461 7824 10098 10099 10100 10101 0
1461 -7824 0
1461 -10098 0
1461 -10099 0
1461 -10100 0
1461 -10101 0
10102 -7804 -10061 0
-10102 7804 0
-10102 10061 0
10103 -10061 -10061 0
-10103 10061 0
-10103 10061 0
10104 -10061 -7804 0
-10104 10061 0
-10104 7804 0
10105 -7804 -7804 -10044 0
-10105 7804 0
-10105 7804 0
-10105 10044 0
-1467 7826 10102 10103 10104 10105 0
1467 -7826 0
1467 -10102 0
1467 -10103 0
1467 -10104 0
1467 -10105 0
10106 -10107 -10107 0
-10106 10107 0
-10106 10107 0
-7013 10108 10106 0
7013 -10108 0
7013 -10106 0
10109 -10107 -10110 0
-10109 10107 0
-10109 10110 0
-8651 10111 10109 0
8651 -10111 0
8651 -10109 0
10112 -10107 -10113 0
-10112 10107 0
-10112 10113 0
-7012 10114 10112 0
7012 -10114 0
7012 -10112 0
10115 -10116 -10113 0
-10115 10116 0
-10115 10113 0
-7021 10117 10115 0
7021 -10117 0
7021 -10115 0
10118 -10107 -10119 0
-10118 10107 0
-10118 10119 0
-7016 10120 10118 0
7016 -10120 0
7016 -10118 0
10121 -10107 -10122 0
-10121 10107 0
-10121 10122 0
-7019 10123 10121 0
7019 -10123 0
7019 -10121 0
10124 -10116 -10122 0
-10124 10116 0
-10124 10122 0
-7022 10125 10124 0
7022 -10125 0
7022 -10124 0
10126 -10107 -10127 0
-10126 10107 0
-10126 10127 0
-7025 10128 10126 0
7025 -10128 0
7025 -10126 0
10129 -10107 -10130 0
-10129 10107 0
-10129 10130 0
-7028 10131 10129 0
7028 -10131 0
7028 -10129 0
10132 -10116 -10130 0
-10132 10116 0
-10132 10130 0
-7030 10133 10132 0
7030 -10133 0
7030 -10132 0
10134 -10110 -10116 0
-10134 10110 0
-10134 10116 0
-8668 10135 10134 0
8668 -10135 0
8668 -10134 0
10136 -10110 -10110 0
-10136 10110 0
-10136 10110 0
-8655 10137 10136 0
8655 -10137 0
8655 -10136 0
10138 -10110 -10119 0
-10138 10110 0
-10138 10119 0
-8657 10139 10138 0
8657 -10139 0
8657 -10138 0
10140 -10110 -10122 0
-10140 10110 0
-10140 10122 0
-8662 10141 10140 0
8662 -10141 0
8662 -10140 0
10142 -10113 -10122 0
-10142 10113 0
-10142 10122 0
-7018 10143 10142 0
7018 -10143 0
7018 -10142 0
10144 -10110 -10127 0
-10144 10110 0
-10144 10127 0
-8672 10145 10144 0
8672 -10145 0
8672 -10144 0
10146 -10110 -10130 0
-10146 10110 0
-10146 10130 0
-8677 10147 10146 0
8677 -10147 0
8677 -10146 0
10148 -10113 -10130 0
-10148 10113 0
-10148 10130 0
-7027 10149 10148 0
7027 -10149 0
7027 -10148 0
10150 -10119 -10116 0
-10150 10119 0
-10150 10116 0
-7032 10151 10150 0
7032 -10151 0
7032 -10150 0
10152 -10119 -10113 0
-10152 10119 0
-10152 10113 0
-7015 10153 10152 0
7015 -10153 0
7015 -10152 0
10154 -10119 -10119 0
-10154 10119 0
-10154 10119 0
-7034 10155 10154 0
7034 -10155 0
7034 -10154 0
10156 -10119 -10127 0
-10156 10119 0
-10156 10127 0
-7036 10157 10156 0
7036 -10157 0
7036 -10156 0
10158 -10119 -10130 0
-10158 10119 0
-10158 10130 0
-7038 10159 10158 0
7038 -10159 0
7038 -10158 0
10160 -10122 -10130 0
-10160 10122 0
-10160 10130 0
-7040 10161 10160 0
7040 -10161 0
7040 -10160 0
10162 -10127 -10116 0
-10162 10127 0
-10162 10116 0
-7042 10163 10162 0
7042 -10163 0
7042 -10162 0
10164 -10127 -10113 0
-10164 10127 0
-10164 10113 0
-7024 10165 10164 0
7024 -10165 0
7024 -10164 0
10166 -10127 -10122 0
-10166 10127 0
-10166 10122 0
-7044 10167 10166 0
7044 -10167 0
7044 -10166 0
10168 -10127 -10127 0
-10168 10127 0
-10168 10127 0
-7046 10169 10168 0
7046 -10169 0
7046 -10168 0
10170 -10171 -10172 0
-10170 10171 0
-10170 10172 0
10173 -10172 -10172 0
-10173 10172 0
-10173 10172 0
10174 -10172 -10171 0
-10174 10172 0
-10174 10171 0
10175 -10171 -10171 -10176 0
-10175 10171 0
-10175 10171 0
-10175 10176 0
-7793 10177 10170 10173 10174 10175 0
7793 -10177 0
7793 -10170 0
7793 -10173 0
7793 -10174 0
7793 -10175 0
10178 -10171 -10179 0
-10178 10171 0
-10178 10179 0
10180 -10172 -10179 0
-10180 10172 0
-10180 10179 0
10181 -10172 -10182 0
-10181 10172 0
-10181 10182 0
10183 -10171 -10182 -10176 0
-10183 10171 0
-10183 10182 0
-10183 10176 0
-10040 10184 10178 10180 10181 10183 0
10040 -10184 0
10040 -10178 0
10040 -10180 0
10040 -10181 0
10040 -10183 0
10185 -10171 -10186 0
-10185 10171 0
-10185 10186 0
10187 -10172 -10188 0
-10187 10172 0
-10187 10188 0
10189 -10172 -10186 0
-10189 10172 0
-10189 10186 0
10190 -10171 -10188 -10176 0
-10190 10171 0
-10190 10188 0
-10190 10176 0
-7792 10191 10185 10187 10189 10190 0
7792 -10191 0
7792 -10185 0
7792 -10187 0
7792 -10189 0
7792 -10190 0
10192 -10193 -10186 0
-10192 10193 0
-10192 10186 0
10194 -10195 -10186 0
-10194 10195 0
-10194 10186 0
10196 -10195 -10188 0
-10196 10195 0
-10196 10188 0
10197 -10193 -10188 -10176 0
-10197 10193 0
-10197 10188 0
-10197 10176 0
-7801 10198 10192 10194 10196 10197 0
7801 -10198 0
7801 -10192 0
7801 -10194 0
7801 -10196 0
7801 -10197 0
10199 -10171 -10200 0
-10199 10171 0
-10199 10200 0
10201 -10172 -10200 0
-10201 10172 0
-10201 10200 0
10202 -10172 -10203 0
-10202 10172 0
-10202 10203 0
10204 -10171 -10203 -10176 0
-10204 10171 0
-10204 10203 0
-10204 10176 0
-7796 10205 10199 10201 10202 10204 0
7796 -10205 0
7796 -10199 0
7796 -10201 0
7796 -10202 0
7796 -10204 0
10206 -10171 -10207 0
-10206 10171 0
-10206 10207 0
10208 -10172 -10209 0
-10208 10172 0
-10208 10209 0
10210 -10172 -10207 0
-10210 10172 0
-10210 10207 0
10211 -10171 -10209 -10176 0
-10211 10171 0
-10211 10209 0
-10211 10176 0
-7799 10212 10206 10208 10210 10211 0
7799 -10212 0
7799 -10206 0
7799 -10208 0
7799 -10210 0
7799 -10211 0
10213 -10193 -10207 0
-10213 10193 0
-10213 10207 0
10214 -10195 -10207 0
-10214 10195 0
-10214 10207 0
10215 -10195 -10209 0
-10215 10195 0
-10215 10209 0
10216 -10193 -10209 -10176 0
-10216 10193 0
-10216 10209 0
-10216 10176 0
-7802 10217 10213 10214 10215 10216 0
7802 -10217 0
7802 -10213 0
7802 -10214 0
7802 -10215 0
7802 -10216 0
10218 -10171 -10219 0
-10218 10171 0
-10218 10219 0
10220 -10172 -10219 0
-10220 10172 0
-10220 10219 0
10221 -10172 -10222 0
-10221 10172 0
-10221 10222 0
10223 -10171 -10222 -10176 0
-10223 10171 0
-10223 10222 0
-10223 10176 0
-7805 10224 10218 10220 10221 10223 0
7805 -10224 0
7805 -10218 0
7805 -10220 0
7805 -10221 0
7805 -10223 0
10225 -10171 -10226 0
-10225 10171 0
-10225 10226 0
10227 -10172 -10228 0
-10227 10172 0
-10227 10228 0
10229 -10172 -10226 0
-10229 10172 0
-10229 10226 0
10230 -10171 -10228 -10176 0
-10230 10171 0
-10230 10228 0
-10230 10176 0
-7808 10231 10225 10227 10229 10230 0
7808 -10231 0
7808 -10225 0
7808 -10227 0
7808 -10229 0
7808 -10230 0
10232 -10193 -10226 0
-10232 10193 0
-10232 10226 0
10233 -10195 -10226 0
-10233 10195 0
-10233 10226 0
10234 -10195 -10228 0
-10234 10195 0
-10234 10228 0
10235 -10193 -10228 -10176 0
-10235 10193 0
-10235 10228 0
-10235 10176 0
-7810 10236 10232 10233 10234 10235 0
7810 -10236 0
7810 -10232 0
7810 -10233 0
7810 -10234 0
7810 -10235 0
10237 -10182 -10195 0
-10237 10182 0
-10237 10195 0
10238 -10179 -10193 0
-10238 10179 0
-10238 10193 0
10239 -10179 -10195 0
-10239 10179 0
-10239 10195 0
10240 -10182 -10193 -10176 0
-10240 10182 0
-10240 10193 0
-10240 10176 0
-10057 10241 10237 10238 10239 10240 0
10057 -10241 0
10057 -10237 0
10057 -10238 0
10057 -10239 0
10057 -10240 0
10242 -10182 -10179 0
-10242 10182 0
-10242 10179 0
10243 -10179 -10179 0
-10243 10179 0
-10243 10179 0
10244 -10179 -10182 0
-10244 10179 0
-10244 10182 0
10245 -10182 -10182 -10176 0
-10245 10182 0
-10245 10182 0
-10245 10176 0
-10044 10246 10242 10243 10244 10245 0
10044 -10246 0
10044 -10242 0
10044 -10243 0
10044 -10244 0
10044 -10245 0
10247 -10182 -10200 0
-10247 10182 0
-10247 10200 0
10248 -10179 -10200 0
-10248 10179 0
-10248 10200 0
10249 -10179 -10203 0
-10249 10179 0
-10249 10203 0
10250 -10182 -10203 -10176 0
-10250 10182 0
-10250 10203 0
-10250 10176 0
-10046 10251 10247 10248 10249 10250 0
10046 -10251 0
10046 -10247 0
10046 -10248 0
10046 -10249 0
10046 -10250 0
10252 -10182 -10207 0
-10252 10182 0
-10252 10207 0
10253 -10179 -10209 0
-10253 10179 0
-10253 10209 0
10254 -10179 -10207 0
-10254 10179 0
-10254 10207 0
10255 -10182 -10209 -10176 0
-10255 10182 0
-10255 10209 0
-10255 10176 0
-10051 10256 10252 10253 10254 10255 0
10051 -10256 0
10051 -10252 0
10051 -10253 0
10051 -10254 0
10051 -10255 0
10257 -10188 -10207 0
-10257 10188 0
-10257 10207 0
10258 -10186 -10207 0
-10258 10186 0
-10258 10207 0
10259 -10186 -10209 0
-10259 10186 0
-10259 10209 0
10260 -10188 -10209 -10176 0
-10260 10188 0
-10260 10209 0
-10260 10176 0
-7798 10261 10257 10258 10259 10260 0
7798 -10261 0
7798 -10257 0
7798 -10258 0
7798 -10259 0
7798 -10260 0
10262 -10182 -10219 0
-10262 10182 0
-10262 10219 0
10263 -10179 -10219 0
-10263 10179 0
-10263 10219 0
10264 -10179 -10222 0
-10264 10179 0
-10264 10222 0
10265 -10182 -10222 -10176 0
-10265 10182 0
-10265 10222 0
-10265 10176 0
-10061 10266 10262 10263 10264 10265 0
10061 -10266 0
10061 -10262 0
10061 -10263 0
10061 -10264 0
10061 -10265 0
10267 -10182 -10226 0
-10267 10182 0
-10267 10226 0
10268 -10179 -10228 0
-10268 10179 0
-10268 10228 0
10269 -10179 -10226 0
-10269 10179 0
-10269 10226 0
10270 -10182 -10228 -10176 0
-10270 10182 0
-10270 10228 0
-10270 10176 0
-10066 10271 10267 10268 10269 10270 0
10066 -10271 0
10066 -10267 0
10066 -10268 0
10066 -10269 0
10066 -10270 0
10272 -10188 -10226 0
-10272 10188 0
-10272 10226 0
10273 -10186 -10226 0
-10273 10186 0
-10273 10226 0
10274 -10186 -10228 0
-10274 10186 0
-10274 10228 0
10275 -10188 -10228 -10176 0
-10275 10188 0
-10275 10228 0
-10275 10176 0
-7807 10276 10272 10273 10274 10275 0
7807 -10276 0
7807 -10272 0
7807 -10273 0
7807 -10274 0
7807 -10275 0
10277 -10203 -10195 0
-10277 10203 0
-10277 10195 0
10278 -10200 -10193 0
-10278 10200 0
-10278 10193 0
10279 -10200 -10195 0
-10279 10200 0
-10279 10195 0
10280 -10203 -10193 -10176 0
-10280 10203 0
-10280 10193 0
-10280 10176 0
-7812 10281 10277 10278 10279 10280 0
7812 -10281 0
7812 -10277 0
7812 -10278 0
7812 -10279 0
7812 -10280 0
10282 -10203 -10186 0
-10282 10203 0
-10282 10186 0
10283 -10200 -10188 0
-10283 10200 0
-10283 10188 0
10284 -10200 -10186 0
-10284 10200 0
-10284 10186 0
10285 -10203 -10188 -10176 0
-10285 10203 0
-10285 10188 0
-10285 10176 0
-7795 10286 10282 10283 10284 10285 0
7795 -10286 0
7795 -10282 0
7795 -10283 0
7795 -10284 0
7795 -10285 0
10287 -10203 -10200 0
-10287 10203 0
-10287 10200 0
10288 -10200 -10200 0
-10288 10200 0
-10288 10200 0
10289 -10200 -10203 0
-10289 10200 0
-10289 10203 0
10290 -10203 -10203 -10176 0
-10290 10203 0
-10290 10203 0
-10290 10176 0
-7814 10291 10287 10288 10289 10290 0
7814 -10291 0
7814 -10287 0
7814 -10288 0
7814 -10289 0
7814 -10290 0
10292 -10203 -10219 0
-10292 10203 0
-10292 10219 0
10293 -10200 -10219 0
-10293 10200 0
-10293 10219 0
10294 -10200 -10222 0
-10294 10200 0
-10294 10222 0
10295 -10203 -10222 -10176 0
-10295 10203 0
-10295 10222 0
-10295 10176 0
-7816 10296 10292 10293 10294 10295 0
7816 -10296 0
7816 -10292 0
7816 -10293 0
7816 -10294 0
7816 -10295 0
10297 -10203 -10226 0
-10297 10203 0
-10297 10226 0
10298 -10200 -10228 0
-10298 10200 0
-10298 10228 0
10299 -10200 -10226 0
-10299 10200 0
-10299 10226 0
10300 -10203 -10228 -10176 0
-10300 10203 0
-10300 10228 0
-10300 10176 0
-7818 10301 10297 10298 10299 10300 0
7818 -10301 0
7818 -10297 0
7818 -10298 0
7818 -10299 0
7818 -10300 0
10302 -10209 -10226 0
-10302 10209 0
-10302 10226 0
10303 -10207 -10226 0
-10303 10207 0
-10303 10226 0
10304 -10207 -10228 0
-10304 10207 0
-10304 10228 0
10305 -10209 -10228 -10176 0
-10305 10209 0
-10305 10228 0
-10305 10176 0
-7820 10306 10302 10303 10304 10305 0
7820 -10306 0
7820 -10302 0
7820 -10303 0
7820 -10304 0
7820 -10305 0
10307 -10222 -10195 0
-10307 10222 0
-10307 10195 0
10308 -10219 -10193 0
-10308 10219 0
-10308 10193 0
10309 -10219 -10195 0
-10309 10219 0
-10309 10195 0
10310 -10222 -10193 -10176 0
-10310 10222 0
-10310 10193 0
-10310 10176 0
-7822 10311 10307 10308 10309 10310 0
7822 -10311 0
7822 -10307 0
7822 -10308 0
7822 -10309 0
7822 -10310 0
10312 -10222 -10186 0
-10312 10222 0
-10312 10186 0
10313 -10219 -10188 0
-10313 10219 0
-10313 10188 0
10314 -10219 -10186 0
-10314 10219 0
-10314 10186 0
10315 -10222 -10188 -10176 0
-10315 10222 0
-10315 10188 0
-10315 10176 0
-7804 10316 10312 10313 10314 10315 0
7804 -10316 0
7804 -10312 0
7804 -10313 0
7804 -10314 0
7804 -10315 0
10317 -10222 -10207 0
-10317 10222 0
-10317 10207 0
10318 -10219 -10209 0
-10318 10219 0
-10318 10209 0
10319 -10219 -10207 0
-10319 10219 0
-10319 10207 0
10320 -10222 -10209 -10176 0
-10320 10222 0
-10320 10209 0
-10320 10176 0
-7824 10321 10317 10318 10319 10320 0
7824 -10321 0
7824 -10317 0
7824 -10318 0
7824 -10319 0
7824 -10320 0
10322 -10222 -10219 0
-10322 10222 0
-10322 10219 0
10323 -10219 -10219 0
-10323 10219 0
-10323 10219 0
10324 -10219 -10222 0
-10324 10219 0
-10324 10222 0
10325 -10222 -10222 -10176 0
-10325 10222 0
-10325 10222 0
-10325 10176 0
-7826 10326 10322 10323 10324 10325 0
7826 -10326 0
7826 -10322 0
7826 -10323 0
7826 -10324 0
7826 -10325 0
10327 -10328 -10329 0
-10327 10328 0
-10327 10329 0
10330 -10329 -10329 0
-10330 10329 0
-10330 10329 0
10331 -10329 -10328 0
-10331 10329 0
-10331 10328 0
10332 -10328 -10328 -10333 0
-10332 10328 0
-10332 10328 0
-10332 10333 0
-6740 10334 10327 10330 10331 10332 0
6740 -10334 0
6740 -10327 0
6740 -10330 0
6740 -10331 0
6740 -10332 0
10335 -10328 -10336 0
-10335 10328 0
-10335 10336 0
10337 -10329 -10336 0
-10337 10329 0
-10337 10336 0
10338 -10329 -10339 0
-10338 10329 0
-10338 10339 0
10340 -10328 -10339 -10333 0
-10340 10328 0
-10340 10339 0
-10340 10333 0
-6747 10341 10335 10337 10338 10340 0
6747 -10341 0
6747 -10335 0
6747 -10337 0
6747 -10338 0
6747 -10340 0
10342 -10328 -10343 0
-10342 10328 0
-10342 10343 0
10344 -10329 -10345 0
-10344 10329 0
-10344 10345 0
10346 -10329 -10343 0
-10346 10329 0
-10346 10343 0
10347 -10328 -10345 -10333 0
-10347 10328 0
-10347 10345 0
-10347 10333 0
-6754 10348 10342 10344 10346 10347 0
6754 -10348 0
6754 -10342 0
6754 -10344 0
6754 -10346 0
6754 -10347 0
10349 -10350 -10343 0
-10349 10350 0
-10349 10343 0
10351 -10352 -10343 0
-10351 10352 0
-10351 10343 0
10353 -10352 -10345 0
-10353 10352 0
-10353 10345 0
10354 -10350 -10345 -10333 0
-10354 10350 0
-10354 10345 0
-10354 10333 0
-6761 10355 10349 10351 10353 10354 0
6761 -10355 0
6761 -10349 0
6761 -10351 0
6761 -10353 0
6761 -10354 0
10356 -10328 -10357 0
-10356 10328 0
-10356 10357 0
10358 -10329 -10357 0
-10358 10329 0
-10358 10357 0
10359 -10329 -10360 0
-10359 10329 0
-10359 10360 0
10361 -10328 -10360 -10333 0
-10361 10328 0
-10361 10360 0
-10361 10333 0
-6735 10362 10356 10358 10359 10361 0
6735 -10362 0
6735 -10356 0
6735 -10358 0
6735 -10359 0
6735 -10361 0
10363 -10328 -10364 0
-10363 10328 0
-10363 10364 0
10365 -10329 -10366 0
-10365 10329 0
-10365 10366 0
10367 -10329 -10364 0
-10367 10329 0
-10367 10364 0
10368 -10328 -10366 -10333 0
-10368 10328 0
-10368 10366 0
-10368 10333 0
-6734 10369 10363 10365 10367 10368 0
6734 -10369 0
6734 -10363 0
6734 -10365 0
6734 -10367 0
6734 -10368 0
10370 -10350 -10364 0
-10370 10350 0
-10370 10364 0
10371 -10352 -10364 0
-10371 10352 0
-10371 10364 0
10372 -10352 -10366 0
-10372 10352 0
-10372 10366 0
10373 -10350 -10366 -10333 0
-10373 10350 0
-10373 10366 0
-10373 10333 0
-6756 10374 10370 10371 10372 10373 0
6756 -10374 0
6756 -10370 0
6756 -10371 0
6756 -10372 0
6756 -10373 0
10375 -10328 -10376 0
-10375 10328 0
-10375 10376 0
10377 -10329 -10376 0
-10377 10329 0
-10377 10376 0
10378 -10329 -10379 0
-10378 10329 0
-10378 10379 0
10380 -10328 -10379 -10333 0
-10380 10328 0
-10380 10379 0
-10380 10333 0
-6768 10381 10375 10377 10378 10380 0
6768 -10381 0
6768 -10375 0
6768 -10377 0
6768 -10378 0
6768 -10380 0
10382 -10328 -10383 0
-10382 10328 0
-10382 10383 0
10384 -10329 -10385 0
-10384 10329 0
-10384 10385 0
10386 -10329 -10383 0
-10386 10329 0
-10386 10383 0
10387 -10328 -10385 -10333 0
-10387 10328 0
-10387 10385 0
-10387 10333 0
-6775 10388 10382 10384 10386 10387 0
6775 -10388 0
6775 -10382 0
6775 -10384 0
6775 -10386 0
6775 -10387 0
10389 -10350 -10383 0
-10389 10350 0
-10389 10383 0
10390 -10352 -10383 0
-10390 10352 0
-10390 10383 0
10391 -10352 -10385 0
-10391 10352 0
-10391 10385 0
10392 -10350 -10385 -10333 0
-10392 10350 0
-10392 10385 0
-10392 10333 0
-6780 10393 10389 10390 10391 10392 0
6780 -10393 0
6780 -10389 0
6780 -10390 0
6780 -10391 0
6780 -10392 0
10394 -10339 -10352 0
-10394 10339 0
-10394 10352 0
10395 -10336 -10350 0
-10395 10336 0
-10395 10350 0
10396 -10336 -10352 0
-10396 10336 0
-10396 10352 0
10397 -10339 -10350 -10333 0
-10397 10339 0
-10397 10350 0
-10397 10333 0
-6785 10398 10394 10395 10396 10397 0
6785 -10398 0
6785 -10394 0
6785 -10395 0
6785 -10396 0
6785 -10397 0
10399 -10339 -10336 0
-10399 10339 0
-10399 10336 0
10400 -10336 -10336 0
-10400 10336 0
-10400 10336 0
10401 -10336 -10339 0
-10401 10336 0
-10401 10339 0
10402 -10339 -10339 -10333 0
-10402 10339 0
-10402 10339 0
-10402 10333 0
-6790 10403 10399 10400 10401 10402 0
6790 -10403 0
6790 -10399 0
6790 -10400 0
6790 -10401 0
6790 -10402 0
10404 -10339 -10357 0
-10404 10339 0
-10404 10357 0
10405 -10336 -10357 0
-10405 10336 0
-10405 10357 0
10406 -10336 -10360 0
-10406 10336 0
-10406 10360 0
10407 -10339 -10360 -10333 0
-10407 10339 0
-10407 10360 0
-10407 10333 0
-6742 10408 10404 10405 10406 10407 0
6742 -10408 0
6742 -10404 0
6742 -10405 0
6742 -10406 0
6742 -10407 0
10409 -10339 -10364 0
-10409 10339 0
-10409 10364 0
10410 -10336 -10366 0
-10410 10336 0
-10410 10366 0
10411 -10336 -10364 0
-10411 10336 0
-10411 10364 0
10412 -10339 -10366 -10333 0
-10412 10339 0
-10412 10366 0
-10412 10333 0
-6745 10413 10409 10410 10411 10412 0
6745 -10413 0
6745 -10409 0
6745 -10410 0
6745 -10411 0
6745 -10412 0
10414 -10345 -10364 0
-10414 10345 0
-10414 10364 0
10415 -10343 -10364 0
-10415 10343 0
-10415 10364 0
10416 -10343 -10366 0
-10416 10343 0
-10416 10366 0
10417 -10345 -10366 -10333 0
-10417 10345 0
-10417 10366 0
-10417 10333 0
-6751 10418 10414 10415 10416 10417 0
6751 -10418 0
6751 -10414 0
6751 -10415 0
6751 -10416 0
6751 -10417 0
10419 -10339 -10376 0
-10419 10339 0
-10419 10376 0
10420 -10336 -10376 0
-10420 10336 0
-10420 10376 0
10421 -10336 -10379 0
-10421 10336 0
-10421 10379 0
10422 -10339 -10379 -10333 0
-10422 10339 0
-10422 10379 0
-10422 10333 0
-6795 10423 10419 10420 10421 10422 0
6795 -10423 0
6795 -10419 0
6795 -10420 0
6795 -10421 0
6795 -10422 0
10424 -10339 -10383 0
-10424 10339 0
-10424 10383 0
10425 -10336 -10385 0
-10425 10336 0
-10425 10385 0
10426 -10336 -10383 0
-10426 10336 0
-10426 10383 0
10427 -10339 -10385 -10333 0
-10427 10339 0
-10427 10385 0
-10427 10333 0
-6800 10428 10424 10425 10426 10427 0
6800 -10428 0
6800 -10424 0
6800 -10425 0
6800 -10426 0
6800 -10427 0
10429 -10345 -10383 0
-10429 10345 0
-10429 10383 0
10430 -10343 -10383 0
-10430 10343 0
-10430 10383 0
10431 -10343 -10385 0
-10431 10343 0
-10431 10385 0
10432 -10345 -10385 -10333 0
-10432 10345 0
-10432 10385 0
-10432 10333 0
-6805 10433 10429 10430 10431 10432 0
6805 -10433 0
6805 -10429 0
6805 -10430 0
6805 -10431 0
6805 -10432 0
10434 -10360 -10352 0
-10434 10360 0
-10434 10352 0
10435 -10357 -10350 0
-10435 10357 0
-10435 10350 0
10436 -10357 -10352 0
-10436 10357 0
-10436 10352 0
10437 -10360 -10350 -10333 0
-10437 10360 0
-10437 10350 0
-10437 10333 0
-6758 10438 10434 10435 10436 10437 0
6758 -10438 0
6758 -10434 0
6758 -10435 0
6758 -10436 0
6758 -10437 0
10439 -10360 -10343 0
-10439 10360 0
-10439 10343 0
10440 -10357 -10345 0
-10440 10357 0
-10440 10345 0
10441 -10357 -10343 0
-10441 10357 0
-10441 10343 0
10442 -10360 -10345 -10333 0
-10442 10360 0
-10442 10345 0
-10442 10333 0
-6749 10443 10439 10440 10441 10442 0
6749 -10443 0
6749 -10439 0
6749 -10440 0
6749 -10441 0
6749 -10442 0
10444 -10360 -10357 0
-10444 10360 0
-10444 10357 0
10445 -10357 -10357 0
-10445 10357 0
-10445 10357 0
10446 -10357 -10360 0
-10446 10357 0
-10446 10360 0
10447 -10360 -10360 -10333 0
-10447 10360 0
-10447 10360 0
-10447 10333 0
-6739 10448 10444 10445 10446 10447 0
6739 -10448 0
6739 -10444 0
6739 -10445 0
6739 -10446 0
6739 -10447 0
10449 -10360 -10376 0
-10449 10360 0
-10449 10376 0
10450 -10357 -10376 0
-10450 10357 0
-10450 10376 0
10451 -10357 -10379 0
-10451 10357 0
-10451 10379 0
10452 -10360 -10379 -10333 0
-10452 10360 0
-10452 10379 0
-10452 10333 0
-6763 10453 10449 10450 10451 10452 0
6763 -10453 0
6763 -10449 0
6763 -10450 0
6763 -10451 0
6763 -10452 0
10454 -10360 -10383 0
-10454 10360 0
-10454 10383 0
10455 -10357 -10385 0
-10455 10357 0
-10455 10385 0
10456 -10357 -10383 0
-10456 10357 0
-10456 10383 0
10457 -10360 -10385 -10333 0
-10457 10360 0
-10457 10385 0
-10457 10333 0
-6770 10458 10454 10455 10456 10457 0
6770 -10458 0
6770 -10454 0
6770 -10455 0
6770 -10456 0
6770 -10457 0
10459 -10366 -10383 0
-10459 10366 0
-10459 10383 0
10460 -10364 -10383 0
-10460 10364 0
-10460 10383 0
10461 -10364 -10385 0
-10461 10364 0
-10461 10385 0
10462 -10366 -10385 -10333 0
-10462 10366 0
-10462 10385 0
-10462 10333 0
-6772 10463 10459 10460 10461 10462 0
6772 -10463 0
6772 -10459 0
6772 -10460 0
6772 -10461 0
6772 -10462 0
10464 -10379 -10352 0
-10464 10379 0
-10464 10352 0
10465 -10376 -10350 0
-10465 10376 0
-10465 10350 0
10466 -10376 -10352 0
-10466 10376 0
-10466 10352 0
10467 -10379 -10350 -10333 0
-10467 10379 0
-10467 10350 0
-10467 10333 0
-6810 10468 10464 10465 10466 10467 0
6810 -10468 0
6810 -10464 0
6810 -10465 0
6810 -10466 0
6810 -10467 0
10469 -10379 -10343 0
-10469 10379 0
-10469 10343 0
10470 -10376 -10345 0
-10470 10376 0
-10470 10345 0
10471 -10376 -10343 0
-10471 10376 0
-10471 10343 0
10472 -10379 -10345 -10333 0
-10472 10379 0
-10472 10345 0
-10472 10333 0
-6815 10473 10469 10470 10471 10472 0
6815 -10473 0
6815 -10469 0
6815 -10470 0
6815 -10471 0
6815 -10472 0
10474 -10379 -10364 0
-10474 10379 0
-10474 10364 0
10475 -10376 -10366 0
-10475 10376 0
-10475 10366 0
10476 -10376 -10364 0
-10476 10376 0
-10476 10364 0
10477 -10379 -10366 -10333 0
-10477 10379 0
-10477 10366 0
-10477 10333 0
-6766 10478 10474 10475 10476 10477 0
6766 -10478 0
6766 -10474 0
6766 -10475 0
6766 -10476 0
6766 -10477 0
10479 -10379 -10376 0
-10479 10379 0
-10479 10376 0
10480 -10376 -10376 0
-10480 10376 0
-10480 10376 0
10481 -10376 -10379 0
-10481 10376 0
-10481 10379 0
10482 -10379 -10379 -10333 0
-10482 10379 0
-10482 10379 0
-10482 10333 0
-6820 10483 10479 10480 10481 10482 0
6820 -10483 0
6820 -10479 0
6820 -10480 0
6820 -10481 0
6820 -10482 0
10484 -10388 -10388 0
-10484 10388 0
-10484 10388 0
-6823 10334 10484 0
6823 -10334 0
6823 -10484 0
10485 -10388 -10428 0
-10485 10388 0
-10485 10428 0
-6873 10341 10485 0
6873 -10341 0
6873 -10485 0
10486 -10388 -10433 0
-10486 10388 0
-10486 10433 0
-6822 10348 10486 0
6822 -10348 0
6822 -10486 0
10487 -10393 -10433 0
-10487 10393 0
-10487 10433 0
-6831 10355 10487 0
6831 -10355 0
6831 -10487 0
10488 -10388 -10458 0
-10488 10388 0
-10488 10458 0
-6826 10362 10488 0
6826 -10362 0
6826 -10488 0
10489 -10388 -10463 0
-10489 10388 0
-10489 10463 0
-6829 10369 10489 0
6829 -10369 0
6829 -10489 0
10490 -10393 -10463 0
-10490 10393 0
-10490 10463 0
-6832 10374 10490 0
6832 -10374 0
6832 -10490 0
10491 -10388 -10383 0
-10491 10388 0
-10491 10383 0
-6835 10329 10491 0
6835 -10329 0
6835 -10491 0
10492 -10388 -10385 0
-10492 10388 0
-10492 10385 0
-6838 10328 10492 0
6838 -10328 0
6838 -10492 0
10493 -10393 -10385 0
-10493 10393 0
-10493 10385 0
-6840 10350 10493 0
6840 -10350 0
6840 -10493 0
10494 -10428 -10393 0
-10494 10428 0
-10494 10393 0
-6890 10398 10494 0
6890 -10398 0
6890 -10494 0
10495 -10428 -10428 0
-10495 10428 0
-10495 10428 0
-6877 10403 10495 0
6877 -10403 0
6877 -10495 0
10496 -10428 -10458 0
-10496 10428 0
-10496 10458 0
-6879 10408 10496 0
6879 -10408 0
6879 -10496 0
10497 -10428 -10463 0
-10497 10428 0
-10497 10463 0
-6884 10413 10497 0
6884 -10413 0
6884 -10497 0
10498 -10433 -10463 0
-10498 10433 0
-10498 10463 0
-6828 10418 10498 0
6828 -10418 0
6828 -10498 0
10499 -10428 -10383 0
-10499 10428 0
-10499 10383 0
-6894 10336 10499 0
6894 -10336 0
6894 -10499 0
10500 -10428 -10385 0
-10500 10428 0
-10500 10385 0
-6899 10339 10500 0
6899 -10339 0
6899 -10500 0
10501 -10433 -10385 0
-10501 10433 0
-10501 10385 0
-6837 10345 10501 0
6837 -10345 0
6837 -10501 0
10502 -10458 -10393 0
-10502 10458 0
-10502 10393 0
-6842 10438 10502 0
6842 -10438 0
6842 -10502 0
10503 -10458 -10433 0
-10503 10458 0
-10503 10433 0
-6825 10443 10503 0
6825 -10443 0
6825 -10503 0
10504 -10458 -10458 0
-10504 10458 0
-10504 10458 0
-6844 10448 10504 0
6844 -10448 0
6844 -10504 0
10505 -10458 -10383 0
-10505 10458 0
-10505 10383 0
-6846 10357 10505 0
6846 -10357 0
6846 -10505 0
10506 -10458 -10385 0
-10506 10458 0
-10506 10385 0
-6848 10360 10506 0
6848 -10360 0
6848 -10506 0
10507 -10463 -10385 0
-10507 10463 0
-10507 10385 0
-6850 10366 10507 0
6850 -10366 0
6850 -10507 0
10508 -10383 -10393 0
-10508 10383 0
-10508 10393 0
-6852 10352 10508 0
6852 -10352 0
6852 -10508 0
10509 -10383 -10433 0
-10509 10383 0
-10509 10433 0
-6834 10343 10509 0
6834 -10343 0
6834 -10509 0
10510 -10383 -10463 0
-10510 10383 0
-10510 10463 0
-6854 10364 10510 0
6854 -10364 0
6854 -10510 0
10511 -10383 -10383 0
-10511 10383 0
-10511 10383 0
-6856 10333 10511 0
6856 -10333 0
6856 -10511 0
10512 -10171 -10171 0
-10512 10171 0
-10512 10171 0
-8569 10177 10512 0
8569 -10177 0
8569 -10512 0
10513 -10171 -10182 0
-10513 10171 0
-10513 10182 0
-8564 10184 10513 0
8564 -10184 0
8564 -10513 0
10514 -10171 -10188 0
-10514 10171 0
-10514 10188 0
-8563 10191 10514 0
8563 -10191 0
8563 -10514 0
10515 -10193 -10188 0
-10515 10193 0
-10515 10188 0
-8585 10198 10515 0
8585 -10198 0
8585 -10515 0
10516 -10171 -10203 0
-10516 10171 0
-10516 10203 0
-8576 10205 10516 0
8576 -10205 0
8576 -10516 0
10517 -10171 -10209 0
-10517 10171 0
-10517 10209 0
-8583 10212 10517 0
8583 -10212 0
8583 -10517 0
10518 -10193 -10209 0
-10518 10193 0
-10518 10209 0
-8590 10217 10518 0
8590 -10217 0
8590 -10518 0
10519 -10171 -10222 0
-10519 10171 0
-10519 10222 0
-8597 10224 10519 0
8597 -10224 0
8597 -10519 0
10520 -10171 -10228 0
-10520 10171 0
-10520 10228 0
-8604 10231 10520 0
8604 -10231 0
8604 -10520 0
10521 -10193 -10228 0
-10521 10193 0
-10521 10228 0
-8609 10236 10521 0
8609 -10236 0
8609 -10521 0
10522 -10182 -10193 0
-10522 10182 0
-10522 10193 0
-8587 10241 10522 0
8587 -10241 0
8587 -10522 0
10523 -10182 -10182 0
-10523 10182 0
-10523 10182 0
-8568 10246 10523 0
8568 -10246 0
8568 -10523 0
10524 -10182 -10203 0
-10524 10182 0
-10524 10203 0
-8571 10251 10524 0
8571 -10251 0
8571 -10524 0
10525 -10182 -10209 0
-10525 10182 0
-10525 10209 0
-8578 10256 10525 0
8578 -10256 0
8578 -10525 0
10526 -10188 -10209 0
-10526 10188 0
-10526 10209 0
-8580 10261 10526 0
8580 -10261 0
8580 -10526 0
10527 -10182 -10222 0
-10527 10182 0
-10527 10222 0
-8592 10266 10527 0
8592 -10266 0
8592 -10527 0
10528 -10182 -10228 0
-10528 10182 0
-10528 10228 0
-8599 10271 10528 0
8599 -10271 0
8599 -10528 0
10529 -10188 -10228 0
-10529 10188 0
-10529 10228 0
-8601 10276 10529 0
8601 -10276 0
8601 -10529 0
10530 -10203 -10193 0
-10530 10203 0
-10530 10193 0
-8614 10281 10530 0
8614 -10281 0
8614 -10530 0
10531 -10203 -10188 0
-10531 10203 0
-10531 10188 0
-8574 10286 10531 0
8574 -10286 0
8574 -10531 0
10532 -10203 -10203 0
-10532 10203 0
-10532 10203 0
-8619 10291 10532 0
8619 -10291 0
8619 -10532 0
10533 -10203 -10222 0
-10533 10203 0
-10533 10222 0
-8624 10296 10533 0
8624 -10296 0
8624 -10533 0
10534 -10203 -10228 0
-10534 10203 0
-10534 10228 0
-8629 10301 10534 0
8629 -10301 0
8629 -10534 0
10535 -10209 -10228 0
-10535 10209 0
-10535 10228 0
-8634 10306 10535 0
8634 -10306 0
8634 -10535 0
10536 -10222 -10193 0
-10536 10222 0
-10536 10193 0
-8639 10311 10536 0
8639 -10311 0
8639 -10536 0
10537 -10222 -10188 0
-10537 10222 0
-10537 10188 0
-8595 10316 10537 0
8595 -10316 0
8595 -10537 0
10538 -10222 -10209 0
-10538 10222 0
-10538 10209 0
-8644 10321 10538 0
8644 -10321 0
8644 -10538 0
10539 -10222 -10222 0
-10539 10222 0
-10539 10222 0
-8649 10326 10539 0
8649 -10326 0
8649 -10539 0
10540 -10541 -10541 0
-10540 10541 0
-10540 10541 0
-9020 10542 10540 0
9020 -10542 0
9020 -10540 0
10543 -10541 -10544 0
-10543 10541 0
-10543 10544 0
-9744 10545 10543 0
9744 -10545 0
9744 -10543 0
10546 -10541 -10547 0
-10546 10541 0
-10546 10547 0
-9019 10548 10546 0
9019 -10548 0
9019 -10546 0
10549 -10550 -10547 0
-10549 10550 0
-10549 10547 0
-9028 10551 10549 0
9028 -10551 0
9028 -10549 0
10552 -10541 -10553 0
-10552 10541 0
-10552 10553 0
-9023 10554 10552 0
9023 -10554 0
9023 -10552 0
10555 -10541 -10556 0
-10555 10541 0
-10555 10556 0
-9026 10557 10555 0
9026 -10557 0
9026 -10555 0
10558 -10550 -10556 0
-10558 10550 0
-10558 10556 0
-9029 10559 10558 0
9029 -10559 0
9029 -10558 0
10560 -10541 -10561 0
-10560 10541 0
-10560 10561 0
-9032 10562 10560 0
9032 -10562 0
9032 -10560 0
10563 -10541 -10564 0
-10563 10541 0
-10563 10564 0
-9035 10565 10563 0
9035 -10565 0
9035 -10563 0
10566 -10550 -10564 0
-10566 10550 0
-10566 10564 0
-9037 10567 10566 0
9037 -10567 0
9037 -10566 0
10568 -10544 -10550 0
-10568 10544 0
-10568 10550 0
-9761 10569 10568 0
9761 -10569 0
9761 -10568 0
10570 -10544 -10544 0
-10570 10544 0
-10570 10544 0
-9748 10571 10570 0
9748 -10571 0
9748 -10570 0
10572 -10544 -10553 0
-10572 10544 0
-10572 10553 0
-9750 10573 10572 0
9750 -10573 0
9750 -10572 0
10574 -10544 -10556 0
-10574 10544 0
-10574 10556 0
-9755 10575 10574 0
9755 -10575 0
9755 -10574 0
10576 -10547 -10556 0
-10576 10547 0
-10576 10556 0
-9025 10577 10576 0
9025 -10577 0
9025 -10576 0
10578 -10544 -10561 0
-10578 10544 0
-10578 10561 0
-9765 10579 10578 0
9765 -10579 0
9765 -10578 0
10580 -10544 -10564 0
-10580 10544 0
-10580 10564 0
-9770 10581 10580 0
9770 -10581 0
9770 -10580 0
10582 -10547 -10564 0
-10582 10547 0
-10582 10564 0
-9034 10583 10582 0
9034 -10583 0
9034 -10582 0
10584 -10553 -10550 0
-10584 10553 0
-10584 10550 0
-9039 10585 10584 0
9039 -10585 0
9039 -10584 0
10586 -10553 -10547 0
-10586 10553 0
-10586 10547 0
-9022 10587 10586 0
9022 -10587 0
9022 -10586 0
10588 -10553 -10553 0
-10588 10553 0
-10588 10553 0
-9041 10589 10588 0
9041 -10589 0
9041 -10588 0
10590 -10553 -10561 0
-10590 10553 0
-10590 10561 0
-9043 10591 10590 0
9043 -10591 0
9043 -10590 0
10592 -10553 -10564 0
-10592 10553 0
-10592 10564 0
-9045 10593 10592 0
9045 -10593 0
9045 -10592 0
10594 -10556 -10564 0
-10594 10556 0
-10594 10564 0
-9047 10595 10594 0
9047 -10595 0
9047 -10594 0
10596 -10561 -10550 0
-10596 10561 0
-10596 10550 0
-9049 10597 10596 0
9049 -10597 0
9049 -10596 0
10598 -10561 -10547 0
-10598 10561 0
-10598 10547 0
-9031 10599 10598 0
9031 -10599 0
9031 -10598 0
10600 -10561 -10556 0
-10600 10561 0
-10600 10556 0
-9051 10601 10600 0
9051 -10601 0
9051 -10600 0
10602 -10561 -10561 0
-10602 10561 0
-10602 10561 0
-9053 10603 10602 0
9053 -10603 0
9053 -10602 0
10604 -10369 -10369 0
-10604 10369 0
-10604 10369 0
-7483 10334 10604 0
7483 -10334 0
7483 -10604 0
10605 -10369 -10413 0
-10605 10369 0
-10605 10413 0
-7478 10341 10605 0
7478 -10341 0
7478 -10605 0
10606 -10369 -10418 0
-10606 10369 0
-10606 10418 0
-7477 10348 10606 0
7477 -10348 0
7477 -10606 0
10607 -10374 -10418 0
-10607 10374 0
-10607 10418 0
-7499 10355 10607 0
7499 -10355 0
7499 -10607 0
10608 -10369 -10364 0
-10608 10369 0
-10608 10364 0
-7490 10329 10608 0
7490 -10329 0
7490 -10608 0
10609 -10369 -10366 0
-10609 10369 0
-10609 10366 0
-7497 10328 10609 0
7497 -10328 0
7497 -10609 0
10610 -10374 -10366 0
-10610 10374 0
-10610 10366 0
-7504 10350 10610 0
7504 -10350 0
7504 -10610 0
10611 -10369 -10478 0
-10611 10369 0
-10611 10478 0
-7511 10381 10611 0
7511 -10381 0
7511 -10611 0
10612 -10369 -10463 0
-10612 10369 0
-10612 10463 0
-7518 10388 10612 0
7518 -10388 0
7518 -10612 0
10613 -10374 -10463 0
-10613 10374 0
-10613 10463 0
-7523 10393 10613 0
7523 -10393 0
7523 -10613 0
10614 -10413 -10374 0
-10614 10413 0
-10614 10374 0
-7501 10398 10614 0
7501 -10398 0
7501 -10614 0
10615 -10413 -10413 0
-10615 10413 0
-10615 10413 0
-7482 10403 10615 0
7482 -10403 0
7482 -10615 0
10616 -10413 -10364 0
-10616 10413 0
-10616 10364 0
-7485 10336 10616 0
7485 -10336 0
7485 -10616 0
10617 -10413 -10366 0
-10617 10413 0
-10617 10366 0
-7492 10339 10617 0
7492 -10339 0
7492 -10617 0
10618 -10418 -10366 0
-10618 10418 0
-10618 10366 0
-7494 10345 10618 0
7494 -10345 0
7494 -10618 0
10619 -10413 -10478 0
-10619 10413 0
-10619 10478 0
-7506 10423 10619 0
7506 -10423 0
7506 -10619 0
10620 -10413 -10463 0
-10620 10413 0
-10620 10463 0
-7513 10428 10620 0
7513 -10428 0
7513 -10620 0
10621 -10418 -10463 0
-10621 10418 0
-10621 10463 0
-7515 10433 10621 0
7515 -10433 0
7515 -10621 0
10622 -10364 -10374 0
-10622 10364 0
-10622 10374 0
-7528 10352 10622 0
7528 -10352 0
7528 -10622 0
10623 -10364 -10418 0
-10623 10364 0
-10623 10418 0
-7488 10343 10623 0
7488 -10343 0
7488 -10623 0
10624 -10364 -10364 0
-10624 10364 0
-10624 10364 0
-7533 10333 10624 0
7533 -10333 0
7533 -10624 0
10625 -10364 -10478 0
-10625 10364 0
-10625 10478 0
-7538 10376 10625 0
7538 -10376 0
7538 -10625 0
10626 -10364 -10463 0
-10626 10364 0
-10626 10463 0
-7543 10383 10626 0
7543 -10383 0
7543 -10626 0
10627 -10366 -10463 0
-10627 10366 0
-10627 10463 0
-7548 10385 10627 0
7548 -10385 0
7548 -10627 0
10628 -10478 -10374 0
-10628 10478 0
-10628 10374 0
-7553 10468 10628 0
7553 -10468 0
7553 -10628 0
10629 -10478 -10418 0
-10629 10478 0
-10629 10418 0
-7509 10473 10629 0
7509 -10473 0
7509 -10629 0
10630 -10478 -10366 0
-10630 10478 0
-10630 10366 0
-7558 10379 10630 0
7558 -10379 0
7558 -10630 0
10631 -10478 -10478 0
-10631 10478 0
-10631 10478 0
-7563 10483 10631 0
7563 -10483 0
7563 -10631 0
10632 -10633 -10634 0
-10632 10633 0
-10632 10634 0
10635 -10634 -10634 0
-10635 10634 0
-10635 10634 0
10636 -10634 -10633 0
-10636 10634 0
-10636 10633 0
10637 -10633 -10633 -10638 0
-10637 10633 0
-10637 10633 0
-10637 10638 0
-6977 10639 10632 10635 10636 10637 0
6977 -10639 0
6977 -10632 0
6977 -10635 0
6977 -10636 0
6977 -10637 0
10640 -10633 -10641 0
-10640 10633 0
-10640 10641 0
10642 -10634 -10641 0
-10642 10634 0
-10642 10641 0
10643 -10634 -10644 0
-10643 10634 0
-10643 10644 0
10645 -10633 -10644 -10638 0
-10645 10633 0
-10645 10644 0
-10645 10638 0
-6980 10646 10640 10642 10643 10645 0
6980 -10646 0
6980 -10640 0
6980 -10642 0
6980 -10643 0
6980 -10645 0
10647 -10633 -10648 0
-10647 10633 0
-10647 10648 0
10649 -10634 -10650 0
-10649 10634 0
-10649 10650 0
10651 -10634 -10648 0
-10651 10634 0
-10651 10648 0
10652 -10633 -10650 -10638 0
-10652 10633 0
-10652 10650 0
-10652 10638 0
-6983 10653 10647 10649 10651 10652 0
6983 -10653 0
6983 -10647 0
6983 -10649 0
6983 -10651 0
6983 -10652 0
10654 -10655 -10648 0
-10654 10655 0
-10654 10648 0
10656 -10657 -10648 0
-10656 10657 0
-10656 10648 0
10658 -10657 -10650 0
-10658 10657 0
-10658 10650 0
10659 -10655 -10650 -10638 0
-10659 10655 0
-10659 10650 0
-10659 10638 0
-6986 10660 10654 10656 10658 10659 0
6986 -10660 0
6986 -10654 0
6986 -10656 0
6986 -10658 0
6986 -10659 0
10661 -10633 -10662 0
-10661 10633 0
-10661 10662 0
10663 -10634 -10662 0
-10663 10634 0
-10663 10662 0
10664 -10634 -10665 0
-10664 10634 0
-10664 10665 0
10666 -10633 -10665 -10638 0
-10666 10633 0
-10666 10665 0
-10666 10638 0
-7698 10667 10661 10663 10664 10666 0
7698 -10667 0
7698 -10661 0
7698 -10663 0
7698 -10664 0
7698 -10666 0
10668 -10633 -10669 0
-10668 10633 0
-10668 10669 0
10670 -10634 -10671 0
-10670 10634 0
-10670 10671 0
10672 -10634 -10669 0
-10672 10634 0
-10672 10669 0
10673 -10633 -10671 -10638 0
-10673 10633 0
-10673 10671 0
-10673 10638 0
-6976 10674 10668 10670 10672 10673 0
6976 -10674 0
6976 -10668 0
6976 -10670 0
6976 -10672 0
6976 -10673 0
10675 -10655 -10669 0
-10675 10655 0
-10675 10669 0
10676 -10657 -10669 0
-10676 10657 0
-10676 10669 0
10677 -10657 -10671 0
-10677 10657 0
-10677 10671 0
10678 -10655 -10671 -10638 0
-10678 10655 0
-10678 10671 0
-10678 10638 0
-6985 10679 10675 10676 10677 10678 0
6985 -10679 0
6985 -10675 0
6985 -10676 0
6985 -10677 0
6985 -10678 0
10680 -10633 -10681 0
-10680 10633 0
-10680 10681 0
10682 -10634 -10681 0
-10682 10634 0
-10682 10681 0
10683 -10634 -10684 0
-10683 10634 0
-10683 10684 0
10685 -10633 -10684 -10638 0
-10685 10633 0
-10685 10684 0
-10685 10638 0
-6989 10686 10680 10682 10683 10685 0
6989 -10686 0
6989 -10680 0
6989 -10682 0
6989 -10683 0
6989 -10685 0
10687 -10633 -10688 0
-10687 10633 0
-10687 10688 0
10689 -10634 -10690 0
-10689 10634 0
-10689 10690 0
10691 -10634 -10688 0
-10691 10634 0
-10691 10688 0
10692 -10633 -10690 -10638 0
-10692 10633 0
-10692 10690 0
-10692 10638 0
-6992 10693 10687 10689 10691 10692 0
6992 -10693 0
6992 -10687 0
6992 -10689 0
6992 -10691 0
6992 -10692 0
10694 -10655 -10688 0
-10694 10655 0
-10694 10688 0
10695 -10657 -10688 0
-10695 10657 0
-10695 10688 0
10696 -10657 -10690 0
-10696 10657 0
-10696 10690 0
10697 -10655 -10690 -10638 0
-10697 10655 0
-10697 10690 0
-10697 10638 0
-6994 10698 10694 10695 10696 10697 0
6994 -10698 0
6994 -10694 0
6994 -10695 0
6994 -10696 0
6994 -10697 0
10699 -10644 -10657 0
-10699 10644 0
-10699 10657 0
10700 -10641 -10655 0
-10700 10641 0
-10700 10655 0
10701 -10641 -10657 0
-10701 10641 0
-10701 10657 0
10702 -10644 -10655 -10638 0
-10702 10644 0
-10702 10655 0
-10702 10638 0
-6996 10703 10699 10700 10701 10702 0
6996 -10703 0
6996 -10699 0
6996 -10700 0
6996 -10701 0
6996 -10702 0
10704 -10644 -10641 0
-10704 10644 0
-10704 10641 0
10705 -10641 -10641 0
-10705 10641 0
-10705 10641 0
10706 -10641 -10644 0
-10706 10641 0
-10706 10644 0
10707 -10644 -10644 -10638 0
-10707 10644 0
-10707 10644 0
-10707 10638 0
-6998 10708 10704 10705 10706 10707 0
6998 -10708 0
6998 -10704 0
6998 -10705 0
6998 -10706 0
6998 -10707 0
10709 -10644 -10662 0
-10709 10644 0
-10709 10662 0
10710 -10641 -10662 0
-10710 10641 0
-10710 10662 0
10711 -10641 -10665 0
-10711 10641 0
-10711 10665 0
10712 -10644 -10665 -10638 0
-10712 10644 0
-10712 10665 0
-10712 10638 0
-7693 10713 10709 10710 10711 10712 0
7693 -10713 0
7693 -10709 0
7693 -10710 0
7693 -10711 0
7693 -10712 0
10714 -10644 -10669 0
-10714 10644 0
-10714 10669 0
10715 -10641 -10671 0
-10715 10641 0
-10715 10671 0
10716 -10641 -10669 0
-10716 10641 0
-10716 10669 0
10717 -10644 -10671 -10638 0
-10717 10644 0
-10717 10671 0
-10717 10638 0
-6979 10718 10714 10715 10716 10717 0
6979 -10718 0
6979 -10714 0
6979 -10715 0
6979 -10716 0
6979 -10717 0
10719 -10650 -10669 0
-10719 10650 0
-10719 10669 0
10720 -10648 -10669 0
-10720 10648 0
-10720 10669 0
10721 -10648 -10671 0
-10721 10648 0
-10721 10671 0
10722 -10650 -10671 -10638 0
-10722 10650 0
-10722 10671 0
-10722 10638 0
-6982 10723 10719 10720 10721 10722 0
6982 -10723 0
6982 -10719 0
6982 -10720 0
6982 -10721 0
6982 -10722 0
10724 -10644 -10681 0
-10724 10644 0
-10724 10681 0
10725 -10641 -10681 0
-10725 10641 0
-10725 10681 0
10726 -10641 -10684 0
-10726 10641 0
-10726 10684 0
10727 -10644 -10684 -10638 0
-10727 10644 0
-10727 10684 0
-10727 10638 0
-7000 10728 10724 10725 10726 10727 0
7000 -10728 0
7000 -10724 0
7000 -10725 0
7000 -10726 0
7000 -10727 0
10729 -10644 -10688 0
-10729 10644 0
-10729 10688 0
10730 -10641 -10690 0
-10730 10641 0
-10730 10690 0
10731 -10641 -10688 0
-10731 10641 0
-10731 10688 0
10732 -10644 -10690 -10638 0
-10732 10644 0
-10732 10690 0
-10732 10638 0
-7002 10733 10729 10730 10731 10732 0
7002 -10733 0
7002 -10729 0
7002 -10730 0
7002 -10731 0
7002 -10732 0
10734 -10650 -10688 0
-10734 10650 0
-10734 10688 0
10735 -10648 -10688 0
-10735 10648 0
-10735 10688 0
10736 -10648 -10690 0
-10736 10648 0
-10736 10690 0
10737 -10650 -10690 -10638 0
-10737 10650 0
-10737 10690 0
-10737 10638 0
-7004 10738 10734 10735 10736 10737 0
7004 -10738 0
7004 -10734 0
7004 -10735 0
7004 -10736 0
7004 -10737 0
10739 -10665 -10657 0
-10739 10665 0
-10739 10657 0
10740 -10662 -10655 0
-10740 10662 0
-10740 10655 0
10741 -10662 -10657 0
-10741 10662 0
-10741 10657 0
10742 -10665 -10655 -10638 0
-10742 10665 0
-10742 10655 0
-10742 10638 0
-7723 10743 10739 10740 10741 10742 0
7723 -10743 0
7723 -10739 0
7723 -10740 0
7723 -10741 0
7723 -10742 0
10744 -10665 -10648 0
-10744 10665 0
-10744 10648 0
10745 -10662 -10650 0
-10745 10662 0
-10745 10650 0
10746 -10662 -10648 0
-10746 10662 0
-10746 10648 0
10747 -10665 -10650 -10638 0
-10747 10665 0
-10747 10650 0
-10747 10638 0
-7696 10748 10744 10745 10746 10747 0
7696 -10748 0
7696 -10744 0
7696 -10745 0
7696 -10746 0
7696 -10747 0
10749 -10665 -10662 0
-10749 10665 0
-10749 10662 0
10750 -10662 -10662 0
-10750 10662 0
-10750 10662 0
10751 -10662 -10665 0
-10751 10662 0
-10751 10665 0
10752 -10665 -10665 -10638 0
-10752 10665 0
-10752 10665 0
-10752 10638 0
-7728 10753 10749 10750 10751 10752 0
7728 -10753 0
7728 -10749 0
7728 -10750 0
7728 -10751 0
7728 -10752 0
10754 -10665 -10681 0
-10754 10665 0
-10754 10681 0
10755 -10662 -10681 0
-10755 10662 0
-10755 10681 0
10756 -10662 -10684 0
-10756 10662 0
-10756 10684 0
10757 -10665 -10684 -10638 0
-10757 10665 0
-10757 10684 0
-10757 10638 0
-7733 10758 10754 10755 10756 10757 0
7733 -10758 0
7733 -10754 0
7733 -10755 0
7733 -10756 0
7733 -10757 0
10759 -10665 -10688 0
-10759 10665 0
-10759 10688 0
10760 -10662 -10690 0
-10760 10662 0
-10760 10690 0
10761 -10662 -10688 0
-10761 10662 0
-10761 10688 0
10762 -10665 -10690 -10638 0
-10762 10665 0
-10762 10690 0
-10762 10638 0
-7738 10763 10759 10760 10761 10762 0
7738 -10763 0
7738 -10759 0
7738 -10760 0
7738 -10761 0
7738 -10762 0
10764 -10671 -10688 0
-10764 10671 0
-10764 10688 0
10765 -10669 -10688 0
-10765 10669 0
-10765 10688 0
10766 -10669 -10690 0
-10766 10669 0
-10766 10690 0
10767 -10671 -10690 -10638 0
-10767 10671 0
-10767 10690 0
-10767 10638 0
-6991 10768 10764 10765 10766 10767 0
6991 -10768 0
6991 -10764 0
6991 -10765 0
6991 -10766 0
6991 -10767 0
10769 -10684 -10657 0
-10769 10684 0
-10769 10657 0
10770 -10681 -10655 0
-10770 10681 0
-10770 10655 0
10771 -10681 -10657 0
-10771 10681 0
-10771 10657 0
10772 -10684 -10655 -10638 0
-10772 10684 0
-10772 10655 0
-10772 10638 0
-7006 10773 10769 10770 10771 10772 0
7006 -10773 0
7006 -10769 0
7006 -10770 0
7006 -10771 0
7006 -10772 0
10774 -10684 -10648 0
-10774 10684 0
-10774 10648 0
10775 -10681 -10650 0
-10775 10681 0
-10775 10650 0
10776 -10681 -10648 0
-10776 10681 0
-10776 10648 0
10777 -10684 -10650 -10638 0
-10777 10684 0
-10777 10650 0
-10777 10638 0
-7008 10778 10774 10775 10776 10777 0
7008 -10778 0
7008 -10774 0
7008 -10775 0
7008 -10776 0
7008 -10777 0
10779 -10684 -10669 0
-10779 10684 0
-10779 10669 0
10780 -10681 -10671 0
-10780 10681 0
-10780 10671 0
10781 -10681 -10669 0
-10781 10681 0
-10781 10669 0
10782 -10684 -10671 -10638 0
-10782 10684 0
-10782 10671 0
-10782 10638 0
-6988 10783 10779 10780 10781 10782 0
6988 -10783 0
6988 -10779 0
6988 -10780 0
6988 -10781 0
6988 -10782 0
10784 -10684 -10681 0
-10784 10684 0
-10784 10681 0
10785 -10681 -10681 0
-10785 10681 0
-10785 10681 0
10786 -10681 -10684 0
-10786 10681 0
-10786 10684 0
10787 -10684 -10684 -10638 0
-10787 10684 0
-10787 10684 0
-10787 10638 0
-7010 10788 10784 10785 10786 10787 0
7010 -10788 0
7010 -10784 0
7010 -10785 0
7010 -10786 0
7010 -10787 0
10789 -10557 -10557 0
-10789 10557 0
-10789 10557 0
-7231 10542 10789 0
7231 -10542 0
7231 -10789 0
10790 -10557 -10575 0
-10790 10557 0
-10790 10575 0
-7234 10545 10790 0
7234 -10545 0
7234 -10790 0
10791 -10557 -10577 0
-10791 10557 0
-10791 10577 0
-7237 10548 10791 0
7237 -10548 0
7237 -10791 0
10792 -10559 -10577 0
-10792 10559 0
-10792 10577 0
-7240 10551 10792 0
7240 -10551 0
7240 -10792 0
10793 -10557 -10794 0
-10793 10557 0
-10793 10794 0
-8162 10795 10793 0
8162 -10795 0
8162 -10793 0
10796 -10557 -10556 0
-10796 10557 0
-10796 10556 0
-7230 10541 10796 0
7230 -10541 0
7230 -10796 0
10797 -10559 -10556 0
-10797 10559 0
-10797 10556 0
-7239 10550 10797 0
7239 -10550 0
7239 -10797 0
10798 -10557 -10601 0
-10798 10557 0
-10798 10601 0
-7243 10562 10798 0
7243 -10562 0
7243 -10798 0
10799 -10557 -10595 0
-10799 10557 0
-10799 10595 0
-7246 10565 10799 0
7246 -10565 0
7246 -10799 0
10800 -10559 -10595 0
-10800 10559 0
-10800 10595 0
-7248 10567 10800 0
7248 -10567 0
7248 -10800 0
10801 -10575 -10559 0
-10801 10575 0
-10801 10559 0
-7250 10569 10801 0
7250 -10569 0
7250 -10801 0
10802 -10575 -10575 0
-10802 10575 0
-10802 10575 0
-7252 10571 10802 0
7252 -10571 0
7252 -10802 0
10803 -10575 -10794 0
-10803 10575 0
-10803 10794 0
-8157 10804 10803 0
8157 -10804 0
8157 -10803 0
10805 -10575 -10556 0
-10805 10575 0
-10805 10556 0
-7233 10544 10805 0
7233 -10544 0
7233 -10805 0
10806 -10577 -10556 0
-10806 10577 0
-10806 10556 0
-7236 10547 10806 0
7236 -10547 0
7236 -10806 0
10807 -10575 -10601 0
-10807 10575 0
-10807 10601 0
-7254 10579 10807 0
7254 -10579 0
7254 -10807 0
10808 -10575 -10595 0
-10808 10575 0
-10808 10595 0
-7256 10581 10808 0
7256 -10581 0
7256 -10808 0
10809 -10577 -10595 0
-10809 10577 0
-10809 10595 0
-7258 10583 10809 0
7258 -10583 0
7258 -10809 0
10810 -10794 -10559 0
-10810 10794 0
-10810 10559 0
-8187 10811 10810 0
8187 -10811 0
8187 -10810 0
10812 -10794 -10577 0
-10812 10794 0
-10812 10577 0
-8160 10813 10812 0
8160 -10813 0
8160 -10812 0
10814 -10794 -10794 0
-10814 10794 0
-10814 10794 0
-8192 10815 10814 0
8192 -10815 0
8192 -10814 0
10816 -10794 -10601 0
-10816 10794 0
-10816 10601 0
-8197 10817 10816 0
8197 -10817 0
8197 -10816 0
10818 -10794 -10595 0
-10818 10794 0
-10818 10595 0
-8202 10819 10818 0
8202 -10819 0
8202 -10818 0
10820 -10556 -10595 0
-10820 10556 0
-10820 10595 0
-7245 10564 10820 0
7245 -10564 0
7245 -10820 0
10821 -10601 -10559 0
-10821 10601 0
-10821 10559 0
-7260 10597 10821 0
7260 -10597 0
7260 -10821 0
10822 -10601 -10577 0
-10822 10601 0
-10822 10577 0
-7262 10599 10822 0
7262 -10599 0
7262 -10822 0
10823 -10601 -10556 0
-10823 10601 0
-10823 10556 0
-7242 10561 10823 0
7242 -10561 0
7242 -10823 0
10824 -10601 -10601 0
-10824 10601 0
-10824 10601 0
-7264 10603 10824 0
7264 -10603 0
7264 -10824 0
10825 -10212 -10205 0
-10825 10212 0
-10825 10205 0
10826 -10205 -10205 0
-10826 10205 0
-10826 10205 0
10827 -10205 -10212 0
-10827 10205 0
-10827 10212 0
10828 -10212 -10212 -10291 0
-10828 10212 0
-10828 10212 0
-10828 10291 0
-7136 10177 10825 10826 10827 10828 0
7136 -10177 0
7136 -10825 0
7136 -10826 0
7136 -10827 0
7136 -10828 0
10829 -10212 -10251 0
-10829 10212 0
-10829 10251 0
10830 -10205 -10251 0
-10830 10205 0
-10830 10251 0
10831 -10205 -10256 0
-10831 10205 0
-10831 10256 0
10832 -10212 -10256 -10291 0
-10832 10212 0
-10832 10256 0
-10832 10291 0
-7139 10184 10829 10830 10831 10832 0
7139 -10184 0
7139 -10829 0
7139 -10830 0
7139 -10831 0
7139 -10832 0
10833 -10212 -10286 0
-10833 10212 0
-10833 10286 0
10834 -10205 -10261 0
-10834 10205 0
-10834 10261 0
10835 -10205 -10286 0
-10835 10205 0
-10835 10286 0
10836 -10212 -10261 -10291 0
-10836 10212 0
-10836 10261 0
-10836 10291 0
-7142 10191 10833 10834 10835 10836 0
7142 -10191 0
7142 -10833 0
7142 -10834 0
7142 -10835 0
7142 -10836 0
10837 -10217 -10286 0
-10837 10217 0
-10837 10286 0
10838 -10281 -10286 0
-10838 10281 0
-10838 10286 0
10839 -10281 -10261 0
-10839 10281 0
-10839 10261 0
10840 -10217 -10261 -10291 0
-10840 10217 0
-10840 10261 0
-10840 10291 0
-7145 10198 10837 10838 10839 10840 0
7145 -10198 0
7145 -10837 0
7145 -10838 0
7145 -10839 0
7145 -10840 0
10841 -10212 -10200 0
-10841 10212 0
-10841 10200 0
10842 -10205 -10200 0
-10842 10205 0
-10842 10200 0
10843 -10205 -10207 0
-10843 10205 0
-10843 10207 0
10844 -10212 -10207 -10291 0
-10844 10212 0
-10844 10207 0
-10844 10291 0
-8290 10172 10841 10842 10843 10844 0
8290 -10172 0
8290 -10841 0
8290 -10842 0
8290 -10843 0
8290 -10844 0
10845 -10212 -10203 0
-10845 10212 0
-10845 10203 0
10846 -10205 -10209 0
-10846 10205 0
-10846 10209 0
10847 -10205 -10203 0
-10847 10205 0
-10847 10203 0
10848 -10212 -10209 -10291 0
-10848 10212 0
-10848 10209 0
-10848 10291 0
-7135 10171 10845 10846 10847 10848 0
7135 -10171 0
7135 -10845 0
7135 -10846 0
7135 -10847 0
7135 -10848 0
10849 -10217 -10203 0
-10849 10217 0
-10849 10203 0
10850 -10281 -10203 0
-10850 10281 0
-10850 10203 0
10851 -10281 -10209 0
-10851 10281 0
-10851 10209 0
10852 -10217 -10209 -10291 0
-10852 10217 0
-10852 10209 0
-10852 10291 0
-7144 10193 10849 10850 10851 10852 0
7144 -10193 0
7144 -10849 0
7144 -10850 0
7144 -10851 0
7144 -10852 0
10853 -10212 -10296 0
-10853 10212 0
-10853 10296 0
10854 -10205 -10296 0
-10854 10205 0
-10854 10296 0
10855 -10205 -10321 0
-10855 10205 0
-10855 10321 0
10856 -10212 -10321 -10291 0
-10856 10212 0
-10856 10321 0
-10856 10291 0
-7148 10224 10853 10854 10855 10856 0
7148 -10224 0
7148 -10853 0
7148 -10854 0
7148 -10855 0
7148 -10856 0
10857 -10212 -10301 0
-10857 10212 0
-10857 10301 0
10858 -10205 -10306 0
-10858 10205 0
-10858 10306 0
10859 -10205 -10301 0
-10859 10205 0
-10859 10301 0
10860 -10212 -10306 -10291 0
-10860 10212 0
-10860 10306 0
-10860 10291 0
-7151 10231 10857 10858 10859 10860 0
7151 -10231 0
7151 -10857 0
7151 -10858 0
7151 -10859 0
7151 -10860 0
10861 -10217 -10301 0
-10861 10217 0
-10861 10301 0
10862 -10281 -10301 0
-10862 10281 0
-10862 10301 0
10863 -10281 -10306 0
-10863 10281 0
-10863 10306 0
10864 -10217 -10306 -10291 0
-10864 10217 0
-10864 10306 0
-10864 10291 0
-7153 10236 10861 10862 10863 10864 0
7153 -10236 0
7153 -10861 0
7153 -10862 0
7153 -10863 0
7153 -10864 0
10865 -10256 -10281 0
-10865 10256 0
-10865 10281 0
10866 -10251 -10217 0
-10866 10251 0
-10866 10217 0
10867 -10251 -10281 0
-10867 10251 0
-10867 10281 0
10868 -10256 -10217 -10291 0
-10868 10256 0
-10868 10217 0
-10868 10291 0
-7155 10241 10865 10866 10867 10868 0
7155 -10241 0
7155 -10865 0
7155 -10866 0
7155 -10867 0
7155 -10868 0
10869 -10256 -10251 0
-10869 10256 0
-10869 10251 0
10870 -10251 -10251 0
-10870 10251 0
-10870 10251 0
10871 -10251 -10256 0
-10871 10251 0
-10871 10256 0
10872 -10256 -10256 -10291 0
-10872 10256 0
-10872 10256 0
-10872 10291 0
-7157 10246 10869 10870 10871 10872 0
7157 -10246 0
7157 -10869 0
7157 -10870 0
7157 -10871 0
7157 -10872 0
10873 -10256 -10200 0
-10873 10256 0
-10873 10200 0
10874 -10251 -10200 0
-10874 10251 0
-10874 10200 0
10875 -10251 -10207 0
-10875 10251 0
-10875 10207 0
10876 -10256 -10207 -10291 0
-10876 10256 0
-10876 10207 0
-10876 10291 0
-8285 10179 10873 10874 10875 10876 0
8285 -10179 0
8285 -10873 0
8285 -10874 0
8285 -10875 0
8285 -10876 0
10877 -10256 -10203 0
-10877 10256 0
-10877 10203 0
10878 -10251 -10209 0
-10878 10251 0
-10878 10209 0
10879 -10251 -10203 0
-10879 10251 0
-10879 10203 0
10880 -10256 -10209 -10291 0
-10880 10256 0
-10880 10209 0
-10880 10291 0
-7138 10182 10877 10878 10879 10880 0
7138 -10182 0
7138 -10877 0
7138 -10878 0
7138 -10879 0
7138 -10880 0
10881 -10261 -10203 0
-10881 10261 0
-10881 10203 0
10882 -10286 -10203 0
-10882 10286 0
-10882 10203 0
10883 -10286 -10209 0
-10883 10286 0
-10883 10209 0
10884 -10261 -10209 -10291 0
-10884 10261 0
-10884 10209 0
-10884 10291 0
-7141 10188 10881 10882 10883 10884 0
7141 -10188 0
7141 -10881 0
7141 -10882 0
7141 -10883 0
7141 -10884 0
10885 -10256 -10296 0
-10885 10256 0
-10885 10296 0
10886 -10251 -10296 0
-10886 10251 0
-10886 10296 0
10887 -10251 -10321 0
-10887 10251 0
-10887 10321 0
10888 -10256 -10321 -10291 0
-10888 10256 0
-10888 10321 0
-10888 10291 0
-7159 10266 10885 10886 10887 10888 0
7159 -10266 0
7159 -10885 0
7159 -10886 0
7159 -10887 0
7159 -10888 0
10889 -10256 -10301 0
-10889 10256 0
-10889 10301 0
10890 -10251 -10306 0
-10890 10251 0
-10890 10306 0
10891 -10251 -10301 0
-10891 10251 0
-10891 10301 0
10892 -10256 -10306 -10291 0
-10892 10256 0
-10892 10306 0
-10892 10291 0
-7161 10271 10889 10890 10891 10892 0
7161 -10271 0
7161 -10889 0
7161 -10890 0
7161 -10891 0
7161 -10892 0
10893 -10261 -10301 0
-10893 10261 0
-10893 10301 0
10894 -10286 -10301 0
-10894 10286 0
-10894 10301 0
10895 -10286 -10306 0
-10895 10286 0
-10895 10306 0
10896 -10261 -10306 -10291 0
-10896 10261 0
-10896 10306 0
-10896 10291 0
-7163 10276 10893 10894 10895 10896 0
7163 -10276 0
7163 -10893 0
7163 -10894 0
7163 -10895 0
7163 -10896 0
10897 -10207 -10281 0
-10897 10207 0
-10897 10281 0
10898 -10200 -10217 0
-10898 10200 0
-10898 10217 0
10899 -10200 -10281 0
-10899 10200 0
-10899 10281 0
10900 -10207 -10217 -10291 0
-10900 10207 0
-10900 10217 0
-10900 10291 0
-8315 10195 10897 10898 10899 10900 0
8315 -10195 0
8315 -10897 0
8315 -10898 0
8315 -10899 0
8315 -10900 0
10901 -10207 -10286 0
-10901 10207 0
-10901 10286 0
10902 -10200 -10261 0
-10902 10200 0
-10902 10261 0
10903 -10200 -10286 0
-10903 10200 0
-10903 10286 0
10904 -10207 -10261 -10291 0
-10904 10207 0
-10904 10261 0
-10904 10291 0
-8288 10186 10901 10902 10903 10904 0
8288 -10186 0
8288 -10901 0
8288 -10902 0
8288 -10903 0
8288 -10904 0
10905 -10207 -10200 0
-10905 10207 0
-10905 10200 0
10288 -10200 -10200 0
-10288 10200 0
-10288 10200 0
10906 -10200 -10207 0
-10906 10200 0
-10906 10207 0
10907 -10207 -10207 -10291 0
-10907 10207 0
-10907 10207 0
-10907 10291 0
-8320 10176 10905 10288 10906 10907 0
8320 -10176 0
8320 -10905 0
8320 -10288 0
8320 -10906 0
8320 -10907 0
10908 -10207 -10296 0
-10908 10207 0
-10908 10296 0
10909 -10200 -10296 0
-10909 10200 0
-10909 10296 0
10910 -10200 -10321 0
-10910 10200 0
-10910 10321 0
10911 -10207 -10321 -10291 0
-10911 10207 0
-10911 10321 0
-10911 10291 0
-8325 10219 10908 10909 10910 10911 0
8325 -10219 0
8325 -10908 0
8325 -10909 0
8325 -10910 0
8325 -10911 0
10912 -10207 -10301 0
-10912 10207 0
-10912 10301 0
10913 -10200 -10306 0
-10913 10200 0
-10913 10306 0
10914 -10200 -10301 0
-10914 10200 0
-10914 10301 0
10915 -10207 -10306 -10291 0
-10915 10207 0
-10915 10306 0
-10915 10291 0
-8330 10226 10912 10913 10914 10915 0
8330 -10226 0
8330 -10912 0
8330 -10913 0
8330 -10914 0
8330 -10915 0
10916 -10209 -10301 0
-10916 10209 0
-10916 10301 0
10917 -10203 -10301 0
-10917 10203 0
-10917 10301 0
10918 -10203 -10306 0
-10918 10203 0
-10918 10306 0
10919 -10209 -10306 -10291 0
-10919 10209 0
-10919 10306 0
-10919 10291 0
-7150 10228 10916 10917 10918 10919 0
7150 -10228 0
7150 -10916 0
7150 -10917 0
7150 -10918 0
7150 -10919 0
10920 -10321 -10281 0
-10920 10321 0
-10920 10281 0
10921 -10296 -10217 0
-10921 10296 0
-10921 10217 0
10922 -10296 -10281 0
-10922 10296 0
-10922 10281 0
10923 -10321 -10217 -10291 0
-10923 10321 0
-10923 10217 0
-10923 10291 0
-7165 10311 10920 10921 10922 10923 0
7165 -10311 0
7165 -10920 0
7165 -10921 0
7165 -10922 0
7165 -10923 0
10924 -10321 -10286 0
-10924 10321 0
-10924 10286 0
10925 -10296 -10261 0
-10925 10296 0
-10925 10261 0
10926 -10296 -10286 0
-10926 10296 0
-10926 10286 0
10927 -10321 -10261 -10291 0
-10927 10321 0
-10927 10261 0
-10927 10291 0
-7167 10316 10924 10925 10926 10927 0
7167 -10316 0
7167 -10924 0
7167 -10925 0
7167 -10926 0
7167 -10927 0
10928 -10321 -10203 0
-10928 10321 0
-10928 10203 0
10929 -10296 -10209 0
-10929 10296 0
-10929 10209 0
10930 -10296 -10203 0
-10930 10296 0
-10930 10203 0
10931 -10321 -10209 -10291 0
-10931 10321 0
-10931 10209 0
-10931 10291 0
-7147 10222 10928 10929 10930 10931 0
7147 -10222 0
7147 -10928 0
7147 -10929 0
7147 -10930 0
7147 -10931 0
10932 -10321 -10296 0
-10932 10321 0
-10932 10296 0
10933 -10296 -10296 0
-10933 10296 0
-10933 10296 0
10934 -10296 -10321 0
-10934 10296 0
-10934 10321 0
10935 -10321 -10321 -10291 0
-10935 10321 0
-10935 10321 0
-10935 10291 0
-7169 10326 10932 10933 10934 10935 0
7169 -10326 0
7169 -10932 0
7169 -10933 0
7169 -10934 0
7169 -10935 0
10936 -10388 -10381 0
-10936 10388 0
-10936 10381 0
10937 -10381 -10381 0
-10937 10381 0
-10937 10381 0
10938 -10381 -10388 0
-10938 10381 0
-10938 10388 0
10939 -10388 -10388 -10483 0
-10939 10388 0
-10939 10388 0
-10939 10483 0
-6652 10334 10936 10937 10938 10939 0
6652 -10334 0
6652 -10936 0
6652 -10937 0
6652 -10938 0
6652 -10939 0
10940 -10388 -10423 0
-10940 10388 0
-10940 10423 0
10941 -10381 -10423 0
-10941 10381 0
-10941 10423 0
10942 -10381 -10428 0
-10942 10381 0
-10942 10428 0
10943 -10388 -10428 -10483 0
-10943 10388 0
-10943 10428 0
-10943 10483 0
-6647 10341 10940 10941 10942 10943 0
6647 -10341 0
6647 -10940 0
6647 -10941 0
6647 -10942 0
6647 -10943 0
10944 -10388 -10473 0
-10944 10388 0
-10944 10473 0
10945 -10381 -10433 0
-10945 10381 0
-10945 10433 0
10946 -10381 -10473 0
-10946 10381 0
-10946 10473 0
10947 -10388 -10433 -10483 0
-10947 10388 0
-10947 10433 0
-10947 10483 0
-6646 10348 10944 10945 10946 10947 0
6646 -10348 0
6646 -10944 0
6646 -10945 0
6646 -10946 0
6646 -10947 0
10948 -10393 -10473 0
-10948 10393 0
-10948 10473 0
10949 -10468 -10473 0
-10949 10468 0
-10949 10473 0
10950 -10468 -10433 0
-10950 10468 0
-10950 10433 0
10951 -10393 -10433 -10483 0
-10951 10393 0
-10951 10433 0
-10951 10483 0
-6668 10355 10948 10949 10950 10951 0
6668 -10355 0
6668 -10948 0
6668 -10949 0
6668 -10950 0
6668 -10951 0
10952 -10388 -10453 0
-10952 10388 0
-10952 10453 0
10953 -10381 -10453 0
-10953 10381 0
-10953 10453 0
10954 -10381 -10458 0
-10954 10381 0
-10954 10458 0
10955 -10388 -10458 -10483 0
-10955 10388 0
-10955 10458 0
-10955 10483 0
-6659 10362 10952 10953 10954 10955 0
6659 -10362 0
6659 -10952 0
6659 -10953 0
6659 -10954 0
6659 -10955 0
10956 -10388 -10478 0
-10956 10388 0
-10956 10478 0
10957 -10381 -10463 0
-10957 10381 0
-10957 10463 0
10958 -10381 -10478 0
-10958 10381 0
-10958 10478 0
10959 -10388 -10463 -10483 0
-10959 10388 0
-10959 10463 0
-10959 10483 0
-6666 10369 10956 10957 10958 10959 0
6666 -10369 0
6666 -10956 0
6666 -10957 0
6666 -10958 0
6666 -10959 0
10960 -10393 -10478 0
-10960 10393 0
-10960 10478 0
10961 -10468 -10478 0
-10961 10468 0
-10961 10478 0
10962 -10468 -10463 0
-10962 10468 0
-10962 10463 0
10963 -10393 -10463 -10483 0
-10963 10393 0
-10963 10463 0
-10963 10483 0
-6673 10374 10960 10961 10962 10963 0
6673 -10374 0
6673 -10960 0
6673 -10961 0
6673 -10962 0
6673 -10963 0
10964 -10388 -10376 0
-10964 10388 0
-10964 10376 0
10965 -10381 -10376 0
-10965 10381 0
-10965 10376 0
10966 -10381 -10383 0
-10966 10381 0
-10966 10383 0
10967 -10388 -10383 -10483 0
-10967 10388 0
-10967 10383 0
-10967 10483 0
-6680 10329 10964 10965 10966 10967 0
6680 -10329 0
6680 -10964 0
6680 -10965 0
6680 -10966 0
6680 -10967 0
10968 -10388 -10379 0
-10968 10388 0
-10968 10379 0
10969 -10381 -10385 0
-10969 10381 0
-10969 10385 0
10970 -10381 -10379 0
-10970 10381 0
-10970 10379 0
10971 -10388 -10385 -10483 0
-10971 10388 0
-10971 10385 0
-10971 10483 0
-6687 10328 10968 10969 10970 10971 0
6687 -10328 0
6687 -10968 0
6687 -10969 0
6687 -10970 0
6687 -10971 0
10972 -10393 -10379 0
-10972 10393 0
-10972 10379 0
10973 -10468 -10379 0
-10973 10468 0
-10973 10379 0
10974 -10468 -10385 0
-10974 10468 0
-10974 10385 0
10975 -10393 -10385 -10483 0
-10975 10393 0
-10975 10385 0
-10975 10483 0
-6692 10350 10972 10973 10974 10975 0
6692 -10350 0
6692 -10972 0
6692 -10973 0
6692 -10974 0
6692 -10975 0
10976 -10428 -10468 0
-10976 10428 0
-10976 10468 0
10977 -10423 -10393 0
-10977 10423 0
-10977 10393 0
10978 -10423 -10468 0
-10978 10423 0
-10978 10468 0
10979 -10428 -10393 -10483 0
-10979 10428 0
-10979 10393 0
-10979 10483 0
-6670 10398 10976 10977 10978 10979 0
6670 -10398 0
6670 -10976 0
6670 -10977 0
6670 -10978 0
6670 -10979 0
10980 -10428 -10423 0
-10980 10428 0
-10980 10423 0
10981 -10423 -10423 0
-10981 10423 0
-10981 10423 0
10982 -10423 -10428 0
-10982 10423 0
-10982 10428 0
10983 -10428 -10428 -10483 0
-10983 10428 0
-10983 10428 0
-10983 10483 0
-6651 10403 10980 10981 10982 10983 0
6651 -10403 0
6651 -10980 0
6651 -10981 0
6651 -10982 0
6651 -10983 0
10984 -10428 -10453 0
-10984 10428 0
-10984 10453 0
10985 -10423 -10453 0
-10985 10423 0
-10985 10453 0
10986 -10423 -10458 0
-10986 10423 0
-10986 10458 0
10987 -10428 -10458 -10483 0
-10987 10428 0
-10987 10458 0
-10987 10483 0
-6654 10408 10984 10985 10986 10987 0
6654 -10408 0
6654 -10984 0
6654 -10985 0
6654 -10986 0
6654 -10987 0
10988 -10428 -10478 0
-10988 10428 0
-10988 10478 0
10989 -10423 -10463 0
-10989 10423 0
-10989 10463 0
10990 -10423 -10478 0
-10990 10423 0
-10990 10478 0
10991 -10428 -10463 -10483 0
-10991 10428 0
-10991 10463 0
-10991 10483 0
-6661 10413 10988 10989 10990 10991 0
6661 -10413 0
6661 -10988 0
6661 -10989 0
6661 -10990 0
6661 -10991 0
10992 -10433 -10478 0
-10992 10433 0
-10992 10478 0
10993 -10473 -10478 0
-10993 10473 0
-10993 10478 0
10994 -10473 -10463 0
-10994 10473 0
-10994 10463 0
10995 -10433 -10463 -10483 0
-10995 10433 0
-10995 10463 0
-10995 10483 0
-6663 10418 10992 10993 10994 10995 0
6663 -10418 0
6663 -10992 0
6663 -10993 0
6663 -10994 0
6663 -10995 0
10996 -10428 -10376 0
-10996 10428 0
-10996 10376 0
10997 -10423 -10376 0
-10997 10423 0
-10997 10376 0
10998 -10423 -10383 0
-10998 10423 0
-10998 10383 0
10999 -10428 -10383 -10483 0
-10999 10428 0
-10999 10383 0
-10999 10483 0
-6675 10336 10996 10997 10998 10999 0
6675 -10336 0
6675 -10996 0
6675 -10997 0
6675 -10998 0
6675 -10999 0
11000 -10428 -10379 0
-11000 10428 0
-11000 10379 0
11001 -10423 -10385 0
-11001 10423 0
-11001 10385 0
11002 -10423 -10379 0
-11002 10423 0
-11002 10379 0
11003 -10428 -10385 -10483 0
-11003 10428 0
-11003 10385 0
-11003 10483 0
-6682 10339 11000 11001 11002 11003 0
6682 -10339 0
6682 -11000 0
6682 -11001 0
6682 -11002 0
6682 -11003 0
11004 -10433 -10379 0
-11004 10433 0
-11004 10379 0
11005 -10473 -10379 0
-11005 10473 0
-11005 10379 0
11006 -10473 -10385 0
-11006 10473 0
-11006 10385 0
11007 -10433 -10385 -10483 0
-11007 10433 0
-11007 10385 0
-11007 10483 0
-6684 10345 11004 11005 11006 11007 0
6684 -10345 0
6684 -11004 0
6684 -11005 0
6684 -11006 0
6684 -11007 0
11008 -10458 -10468 0
-11008 10458 0
-11008 10468 0
11009 -10453 -10393 0
-11009 10453 0
-11009 10393 0
11010 -10453 -10468 0
-11010 10453 0
-11010 10468 0
11011 -10458 -10393 -10483 0
-11011 10458 0
-11011 10393 0
-11011 10483 0
-6697 10438 11008 11009 11010 11011 0
6697 -10438 0
6697 -11008 0
6697 -11009 0
6697 -11010 0
6697 -11011 0
11012 -10458 -10473 0
-11012 10458 0
-11012 10473 0
11013 -10453 -10433 0
-11013 10453 0
-11013 10433 0
11014 -10453 -10473 0
-11014 10453 0
-11014 10473 0
11015 -10458 -10433 -10483 0
-11015 10458 0
-11015 10433 0
-11015 10483 0
-6657 10443 11012 11013 11014 11015 0
6657 -10443 0
6657 -11012 0
6657 -11013 0
6657 -11014 0
6657 -11015 0
11016 -10458 -10453 0
-11016 10458 0
-11016 10453 0
11017 -10453 -10453 0
-11017 10453 0
-11017 10453 0
11018 -10453 -10458 0
-11018 10453 0
-11018 10458 0
11019 -10458 -10458 -10483 0
-11019 10458 0
-11019 10458 0
-11019 10483 0
-6702 10448 11016 11017 11018 11019 0
6702 -10448 0
6702 -11016 0
6702 -11017 0
6702 -11018 0
6702 -11019 0
11020 -10458 -10376 0
-11020 10458 0
-11020 10376 0
11021 -10453 -10376 0
-11021 10453 0
-11021 10376 0
11022 -10453 -10383 0
-11022 10453 0
-11022 10383 0
11023 -10458 -10383 -10483 0
-11023 10458 0
-11023 10383 0
-11023 10483 0
-6707 10357 11020 11021 11022 11023 0
6707 -10357 0
6707 -11020 0
6707 -11021 0
6707 -11022 0
6707 -11023 0
11024 -10458 -10379 0
-11024 10458 0
-11024 10379 0
11025 -10453 -10385 0
-11025 10453 0
-11025 10385 0
11026 -10453 -10379 0
-11026 10453 0
-11026 10379 0
11027 -10458 -10385 -10483 0
-11027 10458 0
-11027 10385 0
-11027 10483 0
-6712 10360 11024 11025 11026 11027 0
6712 -10360 0
6712 -11024 0
6712 -11025 0
6712 -11026 0
6712 -11027 0
11028 -10463 -10379 0
-11028 10463 0
-11028 10379 0
11029 -10478 -10379 0
-11029 10478 0
-11029 10379 0
11030 -10478 -10385 0
-11030 10478 0
-11030 10385 0
11031 -10463 -10385 -10483 0
-11031 10463 0
-11031 10385 0
-11031 10483 0
-6717 10366 11028 11029 11030 11031 0
6717 -10366 0
6717 -11028 0
6717 -11029 0
6717 -11030 0
6717 -11031 0
11032 -10383 -10468 0
-11032 10383 0
-11032 10468 0
11033 -10376 -10393 0
-11033 10376 0
-11033 10393 0
11034 -10376 -10468 0
-11034 10376 0
-11034 10468 0
11035 -10383 -10393 -10483 0
-11035 10383 0
-11035 10393 0
-11035 10483 0
-6722 10352 11032 11033 11034 11035 0
6722 -10352 0
6722 -11032 0
6722 -11033 0
6722 -11034 0
6722 -11035 0
11036 -10383 -10473 0
-11036 10383 0
-11036 10473 0
11037 -10376 -10433 0
-11037 10376 0
-11037 10433 0
11038 -10376 -10473 0
-11038 10376 0
-11038 10473 0
11039 -10383 -10433 -10483 0
-11039 10383 0
-11039 10433 0
-11039 10483 0
-6678 10343 11036 11037 11038 11039 0
6678 -10343 0
6678 -11036 0
6678 -11037 0
6678 -11038 0
6678 -11039 0
11040 -10383 -10478 0
-11040 10383 0
-11040 10478 0
11041 -10376 -10463 0
-11041 10376 0
-11041 10463 0
11042 -10376 -10478 0
-11042 10376 0
-11042 10478 0
11043 -10383 -10463 -10483 0
-11043 10383 0
-11043 10463 0
-11043 10483 0
-6727 10364 11040 11041 11042 11043 0
6727 -10364 0
6727 -11040 0
6727 -11041 0
6727 -11042 0
6727 -11043 0
11044 -10383 -10376 0
-11044 10383 0
-11044 10376 0
10480 -10376 -10376 0
-10480 10376 0
-10480 10376 0
11045 -10376 -10383 0
-11045 10376 0
-11045 10383 0
11046 -10383 -10383 -10483 0
-11046 10383 0
-11046 10383 0
-11046 10483 0
-6732 10333 11044 10480 11045 11046 0
6732 -10333 0
6732 -11044 0
6732 -10480 0
6732 -11045 0
6732 -11046 0
11047 -10674 -10667 0
-11047 10674 0
-11047 10667 0
11048 -10667 -10667 0
-11048 10667 0
-11048 10667 0
11049 -10667 -10674 0
-11049 10667 0
-11049 10674 0
11050 -10674 -10674 -10753 0
-11050 10674 0
-11050 10674 0
-11050 10753 0
-7566 10639 11047 11048 11049 11050 0
7566 -10639 0
7566 -11047 0
7566 -11048 0
7566 -11049 0
7566 -11050 0
11051 -10674 -10713 0
-11051 10674 0
-11051 10713 0
11052 -10667 -10713 0
-11052 10667 0
-11052 10713 0
11053 -10667 -10718 0
-11053 10667 0
-11053 10718 0
11054 -10674 -10718 -10753 0
-11054 10674 0
-11054 10718 0
-11054 10753 0
-8071 10646 11051 11052 11053 11054 0
8071 -10646 0
8071 -11051 0
8071 -11052 0
8071 -11053 0
8071 -11054 0
11055 -10674 -10748 0
-11055 10674 0
-11055 10748 0
11056 -10667 -10723 0
-11056 10667 0
-11056 10723 0
11057 -10667 -10748 0
-11057 10667 0
-11057 10748 0
11058 -10674 -10723 -10753 0
-11058 10674 0
-11058 10723 0
-11058 10753 0
-7565 10653 11055 11056 11057 11058 0
7565 -10653 0
7565 -11055 0
7565 -11056 0
7565 -11057 0
7565 -11058 0
11059 -10679 -10748 0
-11059 10679 0
-11059 10748 0
11060 -10743 -10748 0
-11060 10743 0
-11060 10748 0
11061 -10743 -10723 0
-11061 10743 0
-11061 10723 0
11062 -10679 -10723 -10753 0
-11062 10679 0
-11062 10723 0
-11062 10753 0
-7574 10660 11059 11060 11061 11062 0
7574 -10660 0
7574 -11059 0
7574 -11060 0
7574 -11061 0
7574 -11062 0
11063 -10674 -10662 0
-11063 10674 0
-11063 10662 0
11064 -10667 -10662 0
-11064 10667 0
-11064 10662 0
11065 -10667 -10669 0
-11065 10667 0
-11065 10669 0
11066 -10674 -10669 -10753 0
-11066 10674 0
-11066 10669 0
-11066 10753 0
-7569 10634 11063 11064 11065 11066 0
7569 -10634 0
7569 -11063 0
7569 -11064 0
7569 -11065 0
7569 -11066 0
11067 -10674 -10665 0
-11067 10674 0
-11067 10665 0
11068 -10667 -10671 0
-11068 10667 0
-11068 10671 0
11069 -10667 -10665 0
-11069 10667 0
-11069 10665 0
11070 -10674 -10671 -10753 0
-11070 10674 0
-11070 10671 0
-11070 10753 0
-7572 10633 11067 11068 11069 11070 0
7572 -10633 0
7572 -11067 0
7572 -11068 0
7572 -11069 0
7572 -11070 0
11071 -10679 -10665 0
-11071 10679 0
-11071 10665 0
11072 -10743 -10665 0
-11072 10743 0
-11072 10665 0
11073 -10743 -10671 0
-11073 10743 0
-11073 10671 0
11074 -10679 -10671 -10753 0
-11074 10679 0
-11074 10671 0
-11074 10753 0
-7575 10655 11071 11072 11073 11074 0
7575 -10655 0
7575 -11071 0
7575 -11072 0
7575 -11073 0
7575 -11074 0
11075 -10674 -10758 0
-11075 10674 0
-11075 10758 0
11076 -10667 -10758 0
-11076 10667 0
-11076 10758 0
11077 -10667 -10783 0
-11077 10667 0
-11077 10783 0
11078 -10674 -10783 -10753 0
-11078 10674 0
-11078 10783 0
-11078 10753 0
-7578 10686 11075 11076 11077 11078 0
7578 -10686 0
7578 -11075 0
7578 -11076 0
7578 -11077 0
7578 -11078 0
11079 -10674 -10763 0
-11079 10674 0
-11079 10763 0
11080 -10667 -10768 0
-11080 10667 0
-11080 10768 0
11081 -10667 -10763 0
-11081 10667 0
-11081 10763 0
11082 -10674 -10768 -10753 0
-11082 10674 0
-11082 10768 0
-11082 10753 0
-7581 10693 11079 11080 11081 11082 0
7581 -10693 0
7581 -11079 0
7581 -11080 0
7581 -11081 0
7581 -11082 0
11083 -10679 -10763 0
-11083 10679 0
-11083 10763 0
11084 -10743 -10763 0
-11084 10743 0
-11084 10763 0
11085 -10743 -10768 0
-11085 10743 0
-11085 10768 0
11086 -10679 -10768 -10753 0
-11086 10679 0
-11086 10768 0
-11086 10753 0
-7583 10698 11083 11084 11085 11086 0
7583 -10698 0
7583 -11083 0
7583 -11084 0
7583 -11085 0
7583 -11086 0
11087 -10718 -10743 0
-11087 10718 0
-11087 10743 0
11088 -10713 -10679 0
-11088 10713 0
-11088 10679 0
11089 -10713 -10743 0
-11089 10713 0
-11089 10743 0
11090 -10718 -10679 -10753 0
-11090 10718 0
-11090 10679 0
-11090 10753 0
-8088 10703 11087 11088 11089 11090 0
8088 -10703 0
8088 -11087 0
8088 -11088 0
8088 -11089 0
8088 -11090 0
11091 -10718 -10713 0
-11091 10718 0
-11091 10713 0
11092 -10713 -10713 0
-11092 10713 0
-11092 10713 0
11093 -10713 -10718 0
-11093 10713 0
-11093 10718 0
11094 -10718 -10718 -10753 0
-11094 10718 0
-11094 10718 0
-11094 10753 0
-8075 10708 11091 11092 11093 11094 0
8075 -10708 0
8075 -11091 0
8075 -11092 0
8075 -11093 0
8075 -11094 0
11095 -10718 -10662 0
-11095 10718 0
-11095 10662 0
11096 -10713 -10662 0
-11096 10713 0
-11096 10662 0
11097 -10713 -10669 0
-11097 10713 0
-11097 10669 0
11098 -10718 -10669 -10753 0
-11098 10718 0
-11098 10669 0
-11098 10753 0
-8077 10641 11095 11096 11097 11098 0
8077 -10641 0
8077 -11095 0
8077 -11096 0
8077 -11097 0
8077 -11098 0
11099 -10718 -10665 0
-11099 10718 0
-11099 10665 0
11100 -10713 -10671 0
-11100 10713 0
-11100 10671 0
11101 -10713 -10665 0
-11101 10713 0
-11101 10665 0
11102 -10718 -10671 -10753 0
-11102 10718 0
-11102 10671 0
-11102 10753 0
-8082 10644 11099 11100 11101 11102 0
8082 -10644 0
8082 -11099 0
8082 -11100 0
8082 -11101 0
8082 -11102 0
11103 -10723 -10665 0
-11103 10723 0
-11103 10665 0
11104 -10748 -10665 0
-11104 10748 0
-11104 10665 0
11105 -10748 -10671 0
-11105 10748 0
-11105 10671 0
11106 -10723 -10671 -10753 0
-11106 10723 0
-11106 10671 0
-11106 10753 0
-7571 10650 11103 11104 11105 11106 0
7571 -10650 0
7571 -11103 0
7571 -11104 0
7571 -11105 0
7571 -11106 0
11107 -10718 -10758 0
-11107 10718 0
-11107 10758 0
11108 -10713 -10758 0
-11108 10713 0
-11108 10758 0
11109 -10713 -10783 0
-11109 10713 0
-11109 10783 0
11110 -10718 -10783 -10753 0
-11110 10718 0
-11110 10783 0
-11110 10753 0
-8092 10728 11107 11108 11109 11110 0
8092 -10728 0
8092 -11107 0
8092 -11108 0
8092 -11109 0
8092 -11110 0
11111 -10718 -10763 0
-11111 10718 0
-11111 10763 0
11112 -10713 -10768 0
-11112 10713 0
-11112 10768 0
11113 -10713 -10763 0
-11113 10713 0
-11113 10763 0
11114 -10718 -10768 -10753 0
-11114 10718 0
-11114 10768 0
-11114 10753 0
-8097 10733 11111 11112 11113 11114 0
8097 -10733 0
8097 -11111 0
8097 -11112 0
8097 -11113 0
8097 -11114 0
11115 -10723 -10763 0
-11115 10723 0
-11115 10763 0
11116 -10748 -10763 0
-11116 10748 0
-11116 10763 0
11117 -10748 -10768 0
-11117 10748 0
-11117 10768 0
11118 -10723 -10768 -10753 0
-11118 10723 0
-11118 10768 0
-11118 10753 0
-7580 10738 11115 11116 11117 11118 0
7580 -10738 0
7580 -11115 0
7580 -11116 0
7580 -11117 0
7580 -11118 0
11119 -10669 -10743 0
-11119 10669 0
-11119 10743 0
11120 -10662 -10679 0
-11120 10662 0
-11120 10679 0
11121 -10662 -10743 0
-11121 10662 0
-11121 10743 0
11122 -10669 -10679 -10753 0
-11122 10669 0
-11122 10679 0
-11122 10753 0
-7585 10657 11119 11120 11121 11122 0
7585 -10657 0
7585 -11119 0
7585 -11120 0
7585 -11121 0
7585 -11122 0
11123 -10669 -10748 0
-11123 10669 0
-11123 10748 0
11124 -10662 -10723 0
-11124 10662 0
-11124 10723 0
11125 -10662 -10748 0
-11125 10662 0
-11125 10748 0
11126 -10669 -10723 -10753 0
-11126 10669 0
-11126 10723 0
-11126 10753 0
-7568 10648 11123 11124 11125 11126 0
7568 -10648 0
7568 -11123 0
7568 -11124 0
7568 -11125 0
7568 -11126 0
11127 -10669 -10662 0
-11127 10669 0
-11127 10662 0
10750 -10662 -10662 0
-10750 10662 0
-10750 10662 0
11128 -10662 -10669 0
-11128 10662 0
-11128 10669 0
11129 -10669 -10669 -10753 0
-11129 10669 0
-11129 10669 0
-11129 10753 0
-7587 10638 11127 10750 11128 11129 0
7587 -10638 0
7587 -11127 0
7587 -10750 0
7587 -11128 0
7587 -11129 0
11130 -10669 -10758 0
-11130 10669 0
-11130 10758 0
11131 -10662 -10758 0
-11131 10662 0
-11131 10758 0
11132 -10662 -10783 0
-11132 10662 0
-11132 10783 0
11133 -10669 -10783 -10753 0
-11133 10669 0
-11133 10783 0
-11133 10753 0
-7589 10681 11130 11131 11132 11133 0
7589 -10681 0
7589 -11130 0
7589 -11131 0
7589 -11132 0
7589 -11133 0
11134 -10669 -10763 0
-11134 10669 0
-11134 10763 0
11135 -10662 -10768 0
-11135 10662 0
-11135 10768 0
11136 -10662 -10763 0
-11136 10662 0
-11136 10763 0
11137 -10669 -10768 -10753 0
-11137 10669 0
-11137 10768 0
-11137 10753 0
-7591 10688 11134 11135 11136 11137 0
7591 -10688 0
7591 -11134 0
7591 -11135 0
7591 -11136 0
7591 -11137 0
11138 -10671 -10763 0
-11138 10671 0
-11138 10763 0
11139 -10665 -10763 0
-11139 10665 0
-11139 10763 0
11140 -10665 -10768 0
-11140 10665 0
-11140 10768 0
11141 -10671 -10768 -10753 0
-11141 10671 0
-11141 10768 0
-11141 10753 0
-7593 10690 11138 11139 11140 11141 0
7593 -10690 0
7593 -11138 0
7593 -11139 0
7593 -11140 0
7593 -11141 0
11142 -10783 -10743 0
-11142 10783 0
-11142 10743 0
11143 -10758 -10679 0
-11143 10758 0
-11143 10679 0
11144 -10758 -10743 0
-11144 10758 0
-11144 10743 0
11145 -10783 -10679 -10753 0
-11145 10783 0
-11145 10679 0
-11145 10753 0
-7595 10773 11142 11143 11144 11145 0
7595 -10773 0
7595 -11142 0
7595 -11143 0
7595 -11144 0
7595 -11145 0
11146 -10783 -10748 0
-11146 10783 0
-11146 10748 0
11147 -10758 -10723 0
-11147 10758 0
-11147 10723 0
11148 -10758 -10748 0
-11148 10758 0
-11148 10748 0
11149 -10783 -10723 -10753 0
-11149 10783 0
-11149 10723 0
-11149 10753 0
-7577 10778 11146 11147 11148 11149 0
7577 -10778 0
7577 -11146 0
7577 -11147 0
7577 -11148 0
7577 -11149 0
11150 -10783 -10665 0
-11150 10783 0
-11150 10665 0
11151 -10758 -10671 0
-11151 10758 0
-11151 10671 0
11152 -10758 -10665 0
-11152 10758 0
-11152 10665 0
11153 -10783 -10671 -10753 0
-11153 10783 0
-11153 10671 0
-11153 10753 0
-7597 10684 11150 11151 11152 11153 0
7597 -10684 0
7597 -11150 0
7597 -11151 0
7597 -11152 0
7597 -11153 0
11154 -10783 -10758 0
-11154 10783 0
-11154 10758 0
11155 -10758 -10758 0
-11155 10758 0
-11155 10758 0
11156 -10758 -10783 0
-11156 10758 0
-11156 10783 0
11157 -10783 -10783 -10753 0
-11157 10783 0
-11157 10783 0
-11157 10753 0
-7599 10788 11154 11155 11156 11157 0
7599 -10788 0
7599 -11154 0
7599 -11155 0
7599 -11156 0
7599 -11157 0
11158 -10565 -10562 0
-11158 10565 0
-11158 10562 0
11159 -10562 -10562 0
-11159 10562 0
-11159 10562 0
11160 -10562 -10565 0
-11160 10562 0
-11160 10565 0
11161 -10565 -10565 -10603 0
-11161 10565 0
-11161 10565 0
-11161 10603 0
-7757 10542 11158 11159 11160 11161 0
7757 -10542 0
7757 -11158 0
7757 -11159 0
7757 -11160 0
7757 -11161 0
11162 -10565 -10579 0
-11162 10565 0
-11162 10579 0
11163 -10562 -10579 0
-11163 10562 0
-11163 10579 0
11164 -10562 -10581 0
-11164 10562 0
-11164 10581 0
11165 -10565 -10581 -10603 0
-11165 10565 0
-11165 10581 0
-11165 10603 0
-7760 10545 11162 11163 11164 11165 0
7760 -10545 0
7760 -11162 0
7760 -11163 0
7760 -11164 0
7760 -11165 0
11166 -10565 -10599 0
-11166 10565 0
-11166 10599 0
11167 -10562 -10583 0
-11167 10562 0
-11167 10583 0
11168 -10562 -10599 0
-11168 10562 0
-11168 10599 0
11169 -10565 -10583 -10603 0
-11169 10565 0
-11169 10583 0
-11169 10603 0
-7763 10548 11166 11167 11168 11169 0
7763 -10548 0
7763 -11166 0
7763 -11167 0
7763 -11168 0
7763 -11169 0
11170 -10567 -10599 0
-11170 10567 0
-11170 10599 0
11171 -10597 -10599 0
-11171 10597 0
-11171 10599 0
11172 -10597 -10583 0
-11172 10597 0
-11172 10583 0
11173 -10567 -10583 -10603 0
-11173 10567 0
-11173 10583 0
-11173 10603 0
-7766 10551 11170 11171 11172 11173 0
7766 -10551 0
7766 -11170 0
7766 -11171 0
7766 -11172 0
7766 -11173 0
11174 -10565 -10817 0
-11174 10565 0
-11174 10817 0
11175 -10562 -10817 0
-11175 10562 0
-11175 10817 0
11176 -10562 -10819 0
-11176 10562 0
-11176 10819 0
11177 -10565 -10819 -10603 0
-11177 10565 0
-11177 10819 0
-11177 10603 0
-7769 10795 11174 11175 11176 11177 0
7769 -10795 0
7769 -11174 0
7769 -11175 0
7769 -11176 0
7769 -11177 0
11178 -10565 -10561 0
-11178 10565 0
-11178 10561 0
11179 -10562 -10564 0
-11179 10562 0
-11179 10564 0
11180 -10562 -10561 0
-11180 10562 0
-11180 10561 0
11181 -10565 -10564 -10603 0
-11181 10565 0
-11181 10564 0
-11181 10603 0
-7772 10541 11178 11179 11180 11181 0
7772 -10541 0
7772 -11178 0
7772 -11179 0
7772 -11180 0
7772 -11181 0
11182 -10567 -10561 0
-11182 10567 0
-11182 10561 0
11183 -10597 -10561 0
-11183 10597 0
-11183 10561 0
11184 -10597 -10564 0
-11184 10597 0
-11184 10564 0
11185 -10567 -10564 -10603 0
-11185 10567 0
-11185 10564 0
-11185 10603 0
-7774 10550 11182 11183 11184 11185 0
7774 -10550 0
7774 -11182 0
7774 -11183 0
7774 -11184 0
7774 -11185 0
11186 -10565 -10591 0
-11186 10565 0
-11186 10591 0
11187 -10562 -10591 0
-11187 10562 0
-11187 10591 0
11188 -10562 -10593 0
-11188 10562 0
-11188 10593 0
11189 -10565 -10593 -10603 0
-11189 10565 0
-11189 10593 0
-11189 10603 0
-8973 10554 11186 11187 11188 11189 0
8973 -10554 0
8973 -11186 0
8973 -11187 0
8973 -11188 0
8973 -11189 0
11190 -10565 -10601 0
-11190 10565 0
-11190 10601 0
11191 -10562 -10595 0
-11191 10562 0
-11191 10595 0
11192 -10562 -10601 0
-11192 10562 0
-11192 10601 0
11193 -10565 -10595 -10603 0
-11193 10565 0
-11193 10595 0
-11193 10603 0
-7756 10557 11190 11191 11192 11193 0
7756 -10557 0
7756 -11190 0
7756 -11191 0
7756 -11192 0
7756 -11193 0
11194 -10567 -10601 0
-11194 10567 0
-11194 10601 0
11195 -10597 -10601 0
-11195 10597 0
-11195 10601 0
11196 -10597 -10595 0
-11196 10597 0
-11196 10595 0
11197 -10567 -10595 -10603 0
-11197 10567 0
-11197 10595 0
-11197 10603 0
-7765 10559 11194 11195 11196 11197 0
7765 -10559 0
7765 -11194 0
7765 -11195 0
7765 -11196 0
7765 -11197 0
11198 -10581 -10597 0
-11198 10581 0
-11198 10597 0
11199 -10579 -10567 0
-11199 10579 0
-11199 10567 0
11200 -10579 -10597 0
-11200 10579 0
-11200 10597 0
11201 -10581 -10567 -10603 0
-11201 10581 0
-11201 10567 0
-11201 10603 0
-7776 10569 11198 11199 11200 11201 0
7776 -10569 0
7776 -11198 0
7776 -11199 0
7776 -11200 0
7776 -11201 0
11202 -10581 -10579 0
-11202 10581 0
-11202 10579 0
11203 -10579 -10579 0
-11203 10579 0
-11203 10579 0
11204 -10579 -10581 0
-11204 10579 0
-11204 10581 0
11205 -10581 -10581 -10603 0
-11205 10581 0
-11205 10581 0
-11205 10603 0
-7778 10571 11202 11203 11204 11205 0
7778 -10571 0
7778 -11202 0
7778 -11203 0
7778 -11204 0
7778 -11205 0
11206 -10581 -10817 0
-11206 10581 0
-11206 10817 0
11207 -10579 -10817 0
-11207 10579 0
-11207 10817 0
11208 -10579 -10819 0
-11208 10579 0
-11208 10819 0
11209 -10581 -10819 -10603 0
-11209 10581 0
-11209 10819 0
-11209 10603 0
-7780 10804 11206 11207 11208 11209 0
7780 -10804 0
7780 -11206 0
7780 -11207 0
7780 -11208 0
7780 -11209 0
11210 -10581 -10561 0
-11210 10581 0
-11210 10561 0
11211 -10579 -10564 0
-11211 10579 0
-11211 10564 0
11212 -10579 -10561 0
-11212 10579 0
-11212 10561 0
11213 -10581 -10564 -10603 0
-11213 10581 0
-11213 10564 0
-11213 10603 0
-7782 10544 11210 11211 11212 11213 0
7782 -10544 0
7782 -11210 0
7782 -11211 0
7782 -11212 0
7782 -11213 0
11214 -10583 -10561 0
-11214 10583 0
-11214 10561 0
11215 -10599 -10561 0
-11215 10599 0
-11215 10561 0
11216 -10599 -10564 0
-11216 10599 0
-11216 10564 0
11217 -10583 -10564 -10603 0
-11217 10583 0
-11217 10564 0
-11217 10603 0
-7784 10547 11214 11215 11216 11217 0
7784 -10547 0
7784 -11214 0
7784 -11215 0
7784 -11216 0
7784 -11217 0
11218 -10581 -10591 0
-11218 10581 0
-11218 10591 0
11219 -10579 -10591 0
-11219 10579 0
-11219 10591 0
11220 -10579 -10593 0
-11220 10579 0
-11220 10593 0
11221 -10581 -10593 -10603 0
-11221 10581 0
-11221 10593 0
-11221 10603 0
-8979 10573 11218 11219 11220 11221 0
8979 -10573 0
8979 -11218 0
8979 -11219 0
8979 -11220 0
8979 -11221 0
11222 -10581 -10601 0
-11222 10581 0
-11222 10601 0
11223 -10579 -10595 0
-11223 10579 0
-11223 10595 0
11224 -10579 -10601 0
-11224 10579 0
-11224 10601 0
11225 -10581 -10595 -10603 0
-11225 10581 0
-11225 10595 0
-11225 10603 0
-7759 10575 11222 11223 11224 11225 0
7759 -10575 0
7759 -11222 0
7759 -11223 0
7759 -11224 0
7759 -11225 0
11226 -10583 -10601 0
-11226 10583 0
-11226 10601 0
11227 -10599 -10601 0
-11227 10599 0
-11227 10601 0
11228 -10599 -10595 0
-11228 10599 0
-11228 10595 0
11229 -10583 -10595 -10603 0
-11229 10583 0
-11229 10595 0
-11229 10603 0
-7762 10577 11226 11227 11228 11229 0
7762 -10577 0
7762 -11226 0
7762 -11227 0
7762 -11228 0
7762 -11229 0
11230 -10819 -10597 0
-11230 10819 0
-11230 10597 0
11231 -10817 -10567 0
-11231 10817 0
-11231 10567 0
11232 -10817 -10597 0
-11232 10817 0
-11232 10597 0
11233 -10819 -10567 -10603 0
-11233 10819 0
-11233 10567 0
-11233 10603 0
-7786 10811 11230 11231 11232 11233 0
7786 -10811 0
7786 -11230 0
7786 -11231 0
7786 -11232 0
7786 -11233 0
11234 -10819 -10599 0
-11234 10819 0
-11234 10599 0
11235 -10817 -10583 0
-11235 10817 0
-11235 10583 0
11236 -10817 -10599 0
-11236 10817 0
-11236 10599 0
11237 -10819 -10583 -10603 0
-11237 10819 0
-11237 10583 0
-11237 10603 0
-7788 10813 11234 11235 11236 11237 0
7788 -10813 0
7788 -11234 0
7788 -11235 0
7788 -11236 0
7788 -11237 0
11238 -10819 -10817 0
-11238 10819 0
-11238 10817 0
11239 -10817 -10817 0
-11239 10817 0
-11239 10817 0
11240 -10817 -10819 0
-11240 10817 0
-11240 10819 0
11241 -10819 -10819 -10603 0
-11241 10819 0
-11241 10819 0
-11241 10603 0
-7790 10815 11238 11239 11240 11241 0
7790 -10815 0
7790 -11238 0
7790 -11239 0
7790 -11240 0
7790 -11241 0
11242 -10819 -10591 0
-11242 10819 0
-11242 10591 0
11243 -10817 -10591 0
-11243 10817 0
-11243 10591 0
11244 -10817 -10593 0
-11244 10817 0
-11244 10593 0
11245 -10819 -10593 -10603 0
-11245 10819 0
-11245 10593 0
-11245 10603 0
-9456 11246 11242 11243 11244 11245 0
9456 -11246 0
9456 -11242 0
9456 -11243 0
9456 -11244 0
9456 -11245 0
11247 -10819 -10601 0
-11247 10819 0
-11247 10601 0
11248 -10817 -10595 0
-11248 10817 0
-11248 10595 0
11249 -10817 -10601 0
-11249 10817 0
-11249 10601 0
11250 -10819 -10595 -10603 0
-11250 10819 0
-11250 10595 0
-11250 10603 0
-7768 10794 11247 11248 11249 11250 0
7768 -10794 0
7768 -11247 0
7768 -11248 0
7768 -11249 0
7768 -11250 0
11251 -10564 -10601 0
-11251 10564 0
-11251 10601 0
11252 -10561 -10601 0
-11252 10561 0
-11252 10601 0
11253 -10561 -10595 0
-11253 10561 0
-11253 10595 0
11254 -10564 -10595 -10603 0
-11254 10564 0
-11254 10595 0
-11254 10603 0
-7771 10556 11251 11252 11253 11254 0
7771 -10556 0
7771 -11251 0
7771 -11252 0
7771 -11253 0
7771 -11254 0
11255 -10593 -10597 0
-11255 10593 0
-11255 10597 0
11256 -10591 -10567 0
-11256 10591 0
-11256 10567 0
11257 -10591 -10597 0
-11257 10591 0
-11257 10597 0
11258 -10593 -10567 -10603 0
-11258 10593 0
-11258 10567 0
-11258 10603 0
-8983 10585 11255 11256 11257 11258 0
8983 -10585 0
8983 -11255 0
8983 -11256 0
8983 -11257 0
8983 -11258 0
11259 -10593 -10599 0
-11259 10593 0
-11259 10599 0
11260 -10591 -10583 0
-11260 10591 0
-11260 10583 0
11261 -10591 -10599 0
-11261 10591 0
-11261 10599 0
11262 -10593 -10583 -10603 0
-11262 10593 0
-11262 10583 0
-11262 10603 0
-8985 10587 11259 11260 11261 11262 0
8985 -10587 0
8985 -11259 0
8985 -11260 0
8985 -11261 0
8985 -11262 0
11263 -10593 -10561 0
-11263 10593 0
-11263 10561 0
11264 -10591 -10564 0
-11264 10591 0
-11264 10564 0
11265 -10591 -10561 0
-11265 10591 0
-11265 10561 0
11266 -10593 -10564 -10603 0
-11266 10593 0
-11266 10564 0
-11266 10603 0
-8972 10553 11263 11264 11265 11266 0
8972 -10553 0
8972 -11263 0
8972 -11264 0
8972 -11265 0
8972 -11266 0
11267 -10593 -10591 0
-11267 10593 0
-11267 10591 0
11268 -10591 -10591 0
-11268 10591 0
-11268 10591 0
11269 -10591 -10593 0
-11269 10591 0
-11269 10593 0
11270 -10593 -10593 -10603 0
-11270 10593 0
-11270 10593 0
-11270 10603 0
-8987 10589 11267 11268 11269 11270 0
8987 -10589 0
8987 -11267 0
8987 -11268 0
8987 -11269 0
8987 -11270 0
11271 -10565 -10565 0
-11271 10565 0
-11271 10565 0
-7085 10542 11271 0
7085 -10542 0
7085 -11271 0
11272 -10565 -10581 0
-11272 10565 0
-11272 10581 0
-7088 10545 11272 0
7088 -10545 0
7088 -11272 0
11273 -10565 -10583 0
-11273 10565 0
-11273 10583 0
-7091 10548 11273 0
7091 -10548 0
7091 -11273 0
11274 -10567 -10583 0
-11274 10567 0
-11274 10583 0
-7094 10551 11274 0
7094 -10551 0
7094 -11274 0
11275 -10565 -10819 0
-11275 10565 0
-11275 10819 0
-7343 10795 11275 0
7343 -10795 0
7343 -11275 0
11276 -10565 -10564 0
-11276 10565 0
-11276 10564 0
-7084 10541 11276 0
7084 -10541 0
7084 -11276 0
11277 -10567 -10564 0
-11277 10567 0
-11277 10564 0
-7093 10550 11277 0
7093 -10550 0
7093 -11277 0
11278 -10565 -10593 0
-11278 10565 0
-11278 10593 0
-7097 10554 11278 0
7097 -10554 0
7097 -11278 0
11279 -10565 -10595 0
-11279 10565 0
-11279 10595 0
-7100 10557 11279 0
7100 -10557 0
7100 -11279 0
11280 -10567 -10595 0
-11280 10567 0
-11280 10595 0
-7102 10559 11280 0
7102 -10559 0
7102 -11280 0
11281 -10581 -10567 0
-11281 10581 0
-11281 10567 0
-7104 10569 11281 0
7104 -10569 0
7104 -11281 0
11282 -10581 -10581 0
-11282 10581 0
-11282 10581 0
-7106 10571 11282 0
7106 -10571 0
7106 -11282 0
11283 -10581 -10819 0
-11283 10581 0
-11283 10819 0
-7349 10804 11283 0
7349 -10804 0
7349 -11283 0
11284 -10581 -10564 0
-11284 10581 0
-11284 10564 0
-7087 10544 11284 0
7087 -10544 0
7087 -11284 0
11285 -10583 -10564 0
-11285 10583 0
-11285 10564 0
-7090 10547 11285 0
7090 -10547 0
7090 -11285 0
11286 -10581 -10593 0
-11286 10581 0
-11286 10593 0
-7108 10573 11286 0
7108 -10573 0
7108 -11286 0
11287 -10581 -10595 0
-11287 10581 0
-11287 10595 0
-7110 10575 11287 0
7110 -10575 0
7110 -11287 0
11288 -10583 -10595 0
-11288 10583 0
-11288 10595 0
-7112 10577 11288 0
7112 -10577 0
7112 -11288 0
11289 -10819 -10567 0
-11289 10819 0
-11289 10567 0
-7353 10811 11289 0
7353 -10811 0
7353 -11289 0
11290 -10819 -10583 0
-11290 10819 0
-11290 10583 0
-7355 10813 11290 0
7355 -10813 0
7355 -11290 0
11291 -10819 -10819 0
-11291 10819 0
-11291 10819 0
-7357 10815 11291 0
7357 -10815 0
7357 -11291 0
11292 -10819 -10593 0
-11292 10819 0
-11292 10593 0
-8236 11246 11292 0
8236 -11246 0
8236 -11292 0
11293 -10819 -10595 0
-11293 10819 0
-11293 10595 0
-7342 10794 11293 0
7342 -10794 0
7342 -11293 0
11294 -10564 -10595 0
-11294 10564 0
-11294 10595 0
-7099 10556 11294 0
7099 -10556 0
7099 -11294 0
11295 -10593 -10567 0
-11295 10593 0
-11295 10567 0
-7114 10585 11295 0
7114 -10585 0
7114 -11295 0
11296 -10593 -10583 0
-11296 10593 0
-11296 10583 0
-7116 10587 11296 0
7116 -10587 0
7116 -11296 0
11297 -10593 -10564 0
-11297 10593 0
-11297 10564 0
-7096 10553 11297 0
7096 -10553 0
7096 -11297 0
11298 -10593 -10593 0
-11298 10593 0
-11298 10593 0
-7118 10589 11298 0
7118 -10589 0
7118 -11298 0
11299 -11300 -11300 0
-11299 11300 0
-11299 11300 0
-8719 11301 11299 0
8719 -11301 0
8719 -11299 0
11302 -11300 -11303 0
-11302 11300 0
-11302 11303 0
-8843 11304 11302 0
8843 -11304 0
8843 -11302 0
11305 -11300 -11306 0
-11305 11300 0
-11305 11306 0
-8718 11307 11305 0
8718 -11307 0
8718 -11305 0
11308 -11309 -11306 0
-11308 11309 0
-11308 11306 0
-8727 11310 11308 0
8727 -11310 0
8727 -11308 0
11311 -11300 -11312 0
-11311 11300 0
-11311 11312 0
-8722 11313 11311 0
8722 -11313 0
8722 -11311 0
11314 -11300 -11315 0
-11314 11300 0
-11314 11315 0
-8725 11316 11314 0
8725 -11316 0
8725 -11314 0
11317 -11309 -11315 0
-11317 11309 0
-11317 11315 0
-8728 11318 11317 0
8728 -11318 0
8728 -11317 0
11319 -11300 -11320 0
-11319 11300 0
-11319 11320 0
-8731 11321 11319 0
8731 -11321 0
8731 -11319 0
11322 -11300 -11323 0
-11322 11300 0
-11322 11323 0
-8734 11324 11322 0
8734 -11324 0
8734 -11322 0
11325 -11309 -11323 0
-11325 11309 0
-11325 11323 0
-8736 11326 11325 0
8736 -11326 0
8736 -11325 0
11327 -11303 -11309 0
-11327 11303 0
-11327 11309 0
-8860 11328 11327 0
8860 -11328 0
8860 -11327 0
11329 -11303 -11303 0
-11329 11303 0
-11329 11303 0
-8847 11330 11329 0
8847 -11330 0
8847 -11329 0
11331 -11303 -11312 0
-11331 11303 0
-11331 11312 0
-8849 11332 11331 0
8849 -11332 0
8849 -11331 0
11333 -11303 -11315 0
-11333 11303 0
-11333 11315 0
-8854 11334 11333 0
8854 -11334 0
8854 -11333 0
11335 -11306 -11315 0
-11335 11306 0
-11335 11315 0
-8724 11336 11335 0
8724 -11336 0
8724 -11335 0
11337 -11303 -11320 0
-11337 11303 0
-11337 11320 0
-8864 11338 11337 0
8864 -11338 0
8864 -11337 0
11339 -11303 -11323 0
-11339 11303 0
-11339 11323 0
-8869 11340 11339 0
8869 -11340 0
8869 -11339 0
11341 -11306 -11323 0
-11341 11306 0
-11341 11323 0
-8733 11342 11341 0
8733 -11342 0
8733 -11341 0
11343 -11312 -11309 0
-11343 11312 0
-11343 11309 0
-8738 11344 11343 0
8738 -11344 0
8738 -11343 0
11345 -11312 -11306 0
-11345 11312 0
-11345 11306 0
-8721 11346 11345 0
8721 -11346 0
8721 -11345 0
11347 -11312 -11312 0
-11347 11312 0
-11347 11312 0
-8740 11348 11347 0
8740 -11348 0
8740 -11347 0
11349 -11312 -11320 0
-11349 11312 0
-11349 11320 0
-8742 11350 11349 0
8742 -11350 0
8742 -11349 0
11351 -11312 -11323 0
-11351 11312 0
-11351 11323 0
-8744 11352 11351 0
8744 -11352 0
8744 -11351 0
11353 -11315 -11323 0
-11353 11315 0
-11353 11323 0
-8746 11354 11353 0
8746 -11354 0
8746 -11353 0
11355 -11320 -11309 0
-11355 11320 0
-11355 11309 0
-8748 11356 11355 0
8748 -11356 0
8748 -11355 0
11357 -11320 -11306 0
-11357 11320 0
-11357 11306 0
-8730 11358 11357 0
8730 -11358 0
8730 -11357 0
11359 -11320 -11315 0
-11359 11320 0
-11359 11315 0
-8750 11360 11359 0
8750 -11360 0
8750 -11359 0
11361 -11320 -11320 0
-11361 11320 0
-11361 11320 0
-8752 11362 11361 0
8752 -11362 0
8752 -11361 0
11363 -10212 -10212 0
-11363 10212 0
-11363 10212 0
-7267 10177 11363 0
7267 -10177 0
7267 -11363 0
11364 -10212 -10256 0
-11364 10212 0
-11364 10256 0
-7270 10184 11364 0
7270 -10184 0
7270 -11364 0
11365 -10212 -10261 0
-11365 10212 0
-11365 10261 0
-7273 10191 11365 0
7273 -10191 0
7273 -11365 0
11366 -10217 -10261 0
-11366 10217 0
-11366 10261 0
-7276 10198 11366 0
7276 -10198 0
7276 -11366 0
11367 -10212 -10207 0
-11367 10212 0
-11367 10207 0
-7925 10172 11367 0
7925 -10172 0
7925 -11367 0
11368 -10212 -10209 0
-11368 10212 0
-11368 10209 0
-7266 10171 11368 0
7266 -10171 0
7266 -11368 0
11369 -10217 -10209 0
-11369 10217 0
-11369 10209 0
-7275 10193 11369 0
7275 -10193 0
7275 -11369 0
11370 -10212 -10321 0
-11370 10212 0
-11370 10321 0
-7279 10224 11370 0
7279 -10224 0
7279 -11370 0
11371 -10212 -10306 0
-11371 10212 0
-11371 10306 0
-7282 10231 11371 0
7282 -10231 0
7282 -11371 0
11372 -10217 -10306 0
-11372 10217 0
-11372 10306 0
-7284 10236 11372 0
7284 -10236 0
7284 -11372 0
11373 -10256 -10217 0
-11373 10256 0
-11373 10217 0
-7286 10241 11373 0
7286 -10241 0
7286 -11373 0
11374 -10256 -10256 0
-11374 10256 0
-11374 10256 0
-7288 10246 11374 0
7288 -10246 0
7288 -11374 0
11375 -10256 -10207 0
-11375 10256 0
-11375 10207 0
-7920 10179 11375 0
7920 -10179 0
7920 -11375 0
11376 -10256 -10209 0
-11376 10256 0
-11376 10209 0
-7269 10182 11376 0
7269 -10182 0
7269 -11376 0
11377 -10261 -10209 0
-11377 10261 0
-11377 10209 0
-7272 10188 11377 0
7272 -10188 0
7272 -11377 0
11378 -10256 -10321 0
-11378 10256 0
-11378 10321 0
-7290 10266 11378 0
7290 -10266 0
7290 -11378 0
11379 -10256 -10306 0
-11379 10256 0
-11379 10306 0
-7292 10271 11379 0
7292 -10271 0
7292 -11379 0
11380 -10261 -10306 0
-11380 10261 0
-11380 10306 0
-7294 10276 11380 0
7294 -10276 0
7294 -11380 0
11381 -10207 -10217 0
-11381 10207 0
-11381 10217 0
-7950 10195 11381 0
7950 -10195 0
7950 -11381 0
11382 -10207 -10261 0
-11382 10207 0
-11382 10261 0
-7923 10186 11382 0
7923 -10186 0
7923 -11382 0
11383 -10207 -10207 0
-11383 10207 0
-11383 10207 0
-7955 10176 11383 0
7955 -10176 0
7955 -11383 0
11384 -10207 -10321 0
-11384 10207 0
-11384 10321 0
-7960 10219 11384 0
7960 -10219 0
7960 -11384 0
11385 -10207 -10306 0
-11385 10207 0
-11385 10306 0
-7965 10226 11385 0
7965 -10226 0
7965 -11385 0
11386 -10209 -10306 0
-11386 10209 0
-11386 10306 0
-7281 10228 11386 0
7281 -10228 0
7281 -11386 0
11387 -10321 -10217 0
-11387 10321 0
-11387 10217 0
-7296 10311 11387 0
7296 -10311 0
7296 -11387 0
11388 -10321 -10261 0
-11388 10321 0
-11388 10261 0
-7298 10316 11388 0
7298 -10316 0
7298 -11388 0
11389 -10321 -10209 0
-11389 10321 0
-11389 10209 0
-7278 10222 11389 0
7278 -10222 0
7278 -11389 0
11390 -10321 -10321 0
-11390 10321 0
-11390 10321 0
-7300 10326 11390 0
7300 -10326 0
7300 -11390 0
11391 -10328 -10328 0
-11391 10328 0
-11391 10328 0
-6456 10334 11391 0
6456 -10334 0
6456 -11391 0
11392 -10328 -10339 0
-11392 10328 0
-11392 10339 0
-6588 10341 11392 0
6588 -10341 0
6588 -11392 0
11393 -10328 -10345 0
-11393 10328 0
-11393 10345 0
-6455 10348 11393 0
6455 -10348 0
6455 -11393 0
11394 -10350 -10345 0
-11394 10350 0
-11394 10345 0
-6464 10355 11394 0
6464 -10355 0
6464 -11394 0
11395 -10328 -10360 0
-11395 10328 0
-11395 10360 0
-6459 10362 11395 0
6459 -10362 0
6459 -11395 0
11396 -10328 -10366 0
-11396 10328 0
-11396 10366 0
-6462 10369 11396 0
6462 -10369 0
6462 -11396 0
11397 -10350 -10366 0
-11397 10350 0
-11397 10366 0
-6465 10374 11397 0
6465 -10374 0
6465 -11397 0
11398 -10328 -10379 0
-11398 10328 0
-11398 10379 0
-6468 10381 11398 0
6468 -10381 0
6468 -11398 0
11399 -10328 -10385 0
-11399 10328 0
-11399 10385 0
-6471 10388 11399 0
6471 -10388 0
6471 -11399 0
11400 -10350 -10385 0
-11400 10350 0
-11400 10385 0
-6473 10393 11400 0
6473 -10393 0
6473 -11400 0
11401 -10339 -10350 0
-11401 10339 0
-11401 10350 0
-6613 10398 11401 0
6613 -10398 0
6613 -11401 0
11402 -10339 -10339 0
-11402 10339 0
-11402 10339 0
-6618 10403 11402 0
6618 -10403 0
6618 -11402 0
11403 -10339 -10360 0
-11403 10339 0
-11403 10360 0
-6583 10408 11403 0
6583 -10408 0
6583 -11403 0
11404 -10339 -10366 0
-11404 10339 0
-11404 10366 0
-6586 10413 11404 0
6586 -10413 0
6586 -11404 0
11405 -10345 -10366 0
-11405 10345 0
-11405 10366 0
-6461 10418 11405 0
6461 -10418 0
6461 -11405 0
11406 -10339 -10379 0
-11406 10339 0
-11406 10379 0
-6623 10423 11406 0
6623 -10423 0
6623 -11406 0
11407 -10339 -10385 0
-11407 10339 0
-11407 10385 0
-6628 10428 11407 0
6628 -10428 0
6628 -11407 0
11408 -10345 -10385 0
-11408 10345 0
-11408 10385 0
-6470 10433 11408 0
6470 -10433 0
6470 -11408 0
11409 -10360 -10350 0
-11409 10360 0
-11409 10350 0
-6475 10438 11409 0
6475 -10438 0
6475 -11409 0
11410 -10360 -10345 0
-11410 10360 0
-11410 10345 0
-6458 10443 11410 0
6458 -10443 0
6458 -11410 0
11411 -10360 -10360 0
-11411 10360 0
-11411 10360 0
-6477 10448 11411 0
6477 -10448 0
6477 -11411 0
11412 -10360 -10379 0
-11412 10360 0
-11412 10379 0
-6479 10453 11412 0
6479 -10453 0
6479 -11412 0
11413 -10360 -10385 0
-11413 10360 0
-11413 10385 0
-6481 10458 11413 0
6481 -10458 0
6481 -11413 0
11414 -10366 -10385 0
-11414 10366 0
-11414 10385 0
-6483 10463 11414 0
6483 -10463 0
6483 -11414 0
11415 -10379 -10350 0
-11415 10379 0
-11415 10350 0
-6485 10468 11415 0
6485 -10468 0
6485 -11415 0
11416 -10379 -10345 0
-11416 10379 0
-11416 10345 0
-6467 10473 11416 0
6467 -10473 0
6467 -11416 0
11417 -10379 -10366 0
-11417 10379 0
-11417 10366 0
-6487 10478 11417 0
6487 -10478 0
6487 -11417 0
11418 -10379 -10379 0
-11418 10379 0
-11418 10379 0
-6489 10483 11418 0
6489 -10483 0
6489 -11418 0
11419 -11300 -11420 0
-11419 11300 0
-11419 11420 0
11421 -11420 -11420 0
-11421 11420 0
-11421 11420 0
11422 -11420 -11300 0
-11422 11420 0
-11422 11300 0
11423 -11300 -11300 -11424 0
-11423 11300 0
-11423 11300 0
-11423 11424 0
-6497 11301 11419 11421 11422 11423 0
6497 -11301 0
6497 -11419 0
6497 -11421 0
6497 -11422 0
6497 -11423 0
11425 -11300 -11426 0
-11425 11300 0
-11425 11426 0
11427 -11420 -11426 0
-11427 11420 0
-11427 11426 0
11428 -11420 -11303 0
-11428 11420 0
-11428 11303 0
11429 -11300 -11303 -11424 0
-11429 11300 0
-11429 11303 0
-11429 11424 0
-6492 11304 11425 11427 11428 11429 0
6492 -11304 0
6492 -11425 0
6492 -11427 0
6492 -11428 0
6492 -11429 0
11430 -11300 -11431 0
-11430 11300 0
-11430 11431 0
11432 -11420 -11306 0
-11432 11420 0
-11432 11306 0
11433 -11420 -11431 0
-11433 11420 0
-11433 11431 0
11434 -11300 -11306 -11424 0
-11434 11300 0
-11434 11306 0
-11434 11424 0
-6491 11307 11430 11432 11433 11434 0
6491 -11307 0
6491 -11430 0
6491 -11432 0
6491 -11433 0
6491 -11434 0
11435 -11309 -11431 0
-11435 11309 0
-11435 11431 0
11436 -11437 -11431 0
-11436 11437 0
-11436 11431 0
11438 -11437 -11306 0
-11438 11437 0
-11438 11306 0
11439 -11309 -11306 -11424 0
-11439 11309 0
-11439 11306 0
-11439 11424 0
-6513 11310 11435 11436 11438 11439 0
6513 -11310 0
6513 -11435 0
6513 -11436 0
6513 -11438 0
6513 -11439 0
11440 -11300 -11441 0
-11440 11300 0
-11440 11441 0
11442 -11420 -11441 0
-11442 11420 0
-11442 11441 0
11443 -11420 -11312 0
-11443 11420 0
-11443 11312 0
11444 -11300 -11312 -11424 0
-11444 11300 0
-11444 11312 0
-11444 11424 0
-6504 11313 11440 11442 11443 11444 0
6504 -11313 0
6504 -11440 0
6504 -11442 0
6504 -11443 0
6504 -11444 0
11445 -11300 -11446 0
-11445 11300 0
-11445 11446 0
11447 -11420 -11315 0
-11447 11420 0
-11447 11315 0
11448 -11420 -11446 0
-11448 11420 0
-11448 11446 0
11449 -11300 -11315 -11424 0
-11449 11300 0
-11449 11315 0
-11449 11424 0
-6511 11316 11445 11447 11448 11449 0
6511 -11316 0
6511 -11445 0
6511 -11447 0
6511 -11448 0
6511 -11449 0
11450 -11309 -11446 0
-11450 11309 0
-11450 11446 0
11451 -11437 -11446 0
-11451 11437 0
-11451 11446 0
11452 -11437 -11315 0
-11452 11437 0
-11452 11315 0
11453 -11309 -11315 -11424 0
-11453 11309 0
-11453 11315 0
-11453 11424 0
-6518 11318 11450 11451 11452 11453 0
6518 -11318 0
6518 -11450 0
6518 -11451 0
6518 -11452 0
6518 -11453 0
11454 -11300 -11455 0
-11454 11300 0
-11454 11455 0
11456 -11420 -11455 0
-11456 11420 0
-11456 11455 0
11457 -11420 -11320 0
-11457 11420 0
-11457 11320 0
11458 -11300 -11320 -11424 0
-11458 11300 0
-11458 11320 0
-11458 11424 0
-6525 11321 11454 11456 11457 11458 0
6525 -11321 0
6525 -11454 0
6525 -11456 0
6525 -11457 0
6525 -11458 0
11459 -11300 -11460 0
-11459 11300 0
-11459 11460 0
11461 -11420 -11323 0
-11461 11420 0
-11461 11323 0
11462 -11420 -11460 0
-11462 11420 0
-11462 11460 0
11463 -11300 -11323 -11424 0
-11463 11300 0
-11463 11323 0
-11463 11424 0
-6532 11324 11459 11461 11462 11463 0
6532 -11324 0
6532 -11459 0
6532 -11461 0
6532 -11462 0
6532 -11463 0
11464 -11309 -11460 0
-11464 11309 0
-11464 11460 0
11465 -11437 -11460 0
-11465 11437 0
-11465 11460 0
11466 -11437 -11323 0
-11466 11437 0
-11466 11323 0
11467 -11309 -11323 -11424 0
-11467 11309 0
-11467 11323 0
-11467 11424 0
-6537 11326 11464 11465 11466 11467 0
6537 -11326 0
6537 -11464 0
6537 -11465 0
6537 -11466 0
6537 -11467 0
11468 -11303 -11437 0
-11468 11303 0
-11468 11437 0
11469 -11426 -11309 0
-11469 11426 0
-11469 11309 0
11470 -11426 -11437 0
-11470 11426 0
-11470 11437 0
11471 -11303 -11309 -11424 0
-11471 11303 0
-11471 11309 0
-11471 11424 0
-6515 11328 11468 11469 11470 11471 0
6515 -11328 0
6515 -11468 0
6515 -11469 0
6515 -11470 0
6515 -11471 0
11472 -11303 -11426 0
-11472 11303 0
-11472 11426 0
11473 -11426 -11426 0
-11473 11426 0
-11473 11426 0
11474 -11426 -11303 0
-11474 11426 0
-11474 11303 0
11475 -11303 -11303 -11424 0
-11475 11303 0
-11475 11303 0
-11475 11424 0
-6496 11330 11472 11473 11474 11475 0
6496 -11330 0
6496 -11472 0
6496 -11473 0
6496 -11474 0
6496 -11475 0
11476 -11303 -11441 0
-11476 11303 0
-11476 11441 0
11477 -11426 -11441 0
-11477 11426 0
-11477 11441 0
11478 -11426 -11312 0
-11478 11426 0
-11478 11312 0
11479 -11303 -11312 -11424 0
-11479 11303 0
-11479 11312 0
-11479 11424 0
-6499 11332 11476 11477 11478 11479 0
6499 -11332 0
6499 -11476 0
6499 -11477 0
6499 -11478 0
6499 -11479 0
11480 -11303 -11446 0
-11480 11303 0
-11480 11446 0
11481 -11426 -11315 0
-11481 11426 0
-11481 11315 0
11482 -11426 -11446 0
-11482 11426 0
-11482 11446 0
11483 -11303 -11315 -11424 0
-11483 11303 0
-11483 11315 0
-11483 11424 0
-6506 11334 11480 11481 11482 11483 0
6506 -11334 0
6506 -11480 0
6506 -11481 0
6506 -11482 0
6506 -11483 0
11484 -11306 -11446 0
-11484 11306 0
-11484 11446 0
11485 -11431 -11446 0
-11485 11431 0
-11485 11446 0
11486 -11431 -11315 0
-11486 11431 0
-11486 11315 0
11487 -11306 -11315 -11424 0
-11487 11306 0
-11487 11315 0
-11487 11424 0
-6508 11336 11484 11485 11486 11487 0
6508 -11336 0
6508 -11484 0
6508 -11485 0
6508 -11486 0
6508 -11487 0
11488 -11303 -11455 0
-11488 11303 0
-11488 11455 0
11489 -11426 -11455 0
-11489 11426 0
-11489 11455 0
11490 -11426 -11320 0
-11490 11426 0
-11490 11320 0
11491 -11303 -11320 -11424 0
-11491 11303 0
-11491 11320 0
-11491 11424 0
-6520 11338 11488 11489 11490 11491 0
6520 -11338 0
6520 -11488 0
6520 -11489 0
6520 -11490 0
6520 -11491 0
11492 -11303 -11460 0
-11492 11303 0
-11492 11460 0
11493 -11426 -11323 0
-11493 11426 0
-11493 11323 0
11494 -11426 -11460 0
-11494 11426 0
-11494 11460 0
11495 -11303 -11323 -11424 0
-11495 11303 0
-11495 11323 0
-11495 11424 0
-6527 11340 11492 11493 11494 11495 0
6527 -11340 0
6527 -11492 0
6527 -11493 0
6527 -11494 0
6527 -11495 0
11496 -11306 -11460 0
-11496 11306 0
-11496 11460 0
11497 -11431 -11460 0
-11497 11431 0
-11497 11460 0
11498 -11431 -11323 0
-11498 11431 0
-11498 11323 0
11499 -11306 -11323 -11424 0
-11499 11306 0
-11499 11323 0
-11499 11424 0
-6529 11342 11496 11497 11498 11499 0
6529 -11342 0
6529 -11496 0
6529 -11497 0
6529 -11498 0
6529 -11499 0
11500 -11312 -11437 0
-11500 11312 0
-11500 11437 0
11501 -11441 -11309 0
-11501 11441 0
-11501 11309 0
11502 -11441 -11437 0
-11502 11441 0
-11502 11437 0
11503 -11312 -11309 -11424 0
-11503 11312 0
-11503 11309 0
-11503 11424 0
-6542 11344 11500 11501 11502 11503 0
6542 -11344 0
6542 -11500 0
6542 -11501 0
6542 -11502 0
6542 -11503 0
11504 -11312 -11431 0
-11504 11312 0
-11504 11431 0
11505 -11441 -11306 0
-11505 11441 0
-11505 11306 0
11506 -11441 -11431 0
-11506 11441 0
-11506 11431 0
11507 -11312 -11306 -11424 0
-11507 11312 0
-11507 11306 0
-11507 11424 0
-6502 11346 11504 11505 11506 11507 0
6502 -11346 0
6502 -11504 0
6502 -11505 0
6502 -11506 0
6502 -11507 0
11508 -11312 -11441 0
-11508 11312 0
-11508 11441 0
11509 -11441 -11441 0
-11509 11441 0
-11509 11441 0
11510 -11441 -11312 0
-11510 11441 0
-11510 11312 0
11511 -11312 -11312 -11424 0
-11511 11312 0
-11511 11312 0
-11511 11424 0
-6547 11348 11508 11509 11510 11511 0
6547 -11348 0
6547 -11508 0
6547 -11509 0
6547 -11510 0
6547 -11511 0
11512 -11312 -11455 0
-11512 11312 0
-11512 11455 0
11513 -11441 -11455 0
-11513 11441 0
-11513 11455 0
11514 -11441 -11320 0
-11514 11441 0
-11514 11320 0
11515 -11312 -11320 -11424 0
-11515 11312 0
-11515 11320 0
-11515 11424 0
-6552 11350 11512 11513 11514 11515 0
6552 -11350 0
6552 -11512 0
6552 -11513 0
6552 -11514 0
6552 -11515 0
11516 -11312 -11460 0
-11516 11312 0
-11516 11460 0
11517 -11441 -11323 0
-11517 11441 0
-11517 11323 0
11518 -11441 -11460 0
-11518 11441 0
-11518 11460 0
11519 -11312 -11323 -11424 0
-11519 11312 0
-11519 11323 0
-11519 11424 0
-6557 11352 11516 11517 11518 11519 0
6557 -11352 0
6557 -11516 0
6557 -11517 0
6557 -11518 0
6557 -11519 0
11520 -11315 -11460 0
-11520 11315 0
-11520 11460 0
11521 -11446 -11460 0
-11521 11446 0
-11521 11460 0
11522 -11446 -11323 0
-11522 11446 0
-11522 11323 0
11523 -11315 -11323 -11424 0
-11523 11315 0
-11523 11323 0
-11523 11424 0
-6562 11354 11520 11521 11522 11523 0
6562 -11354 0
6562 -11520 0
6562 -11521 0
6562 -11522 0
6562 -11523 0
11524 -11320 -11437 0
-11524 11320 0
-11524 11437 0
11525 -11455 -11309 0
-11525 11455 0
-11525 11309 0
11526 -11455 -11437 0
-11526 11455 0
-11526 11437 0
11527 -11320 -11309 -11424 0
-11527 11320 0
-11527 11309 0
-11527 11424 0
-6567 11356 11524 11525 11526 11527 0
6567 -11356 0
6567 -11524 0
6567 -11525 0
6567 -11526 0
6567 -11527 0
11528 -11320 -11431 0
-11528 11320 0
-11528 11431 0
11529 -11455 -11306 0
-11529 11455 0
-11529 11306 0
11530 -11455 -11431 0
-11530 11455 0
-11530 11431 0
11531 -11320 -11306 -11424 0
-11531 11320 0
-11531 11306 0
-11531 11424 0
-6523 11358 11528 11529 11530 11531 0
6523 -11358 0
6523 -11528 0
6523 -11529 0
6523 -11530 0
6523 -11531 0
11532 -11320 -11446 0
-11532 11320 0
-11532 11446 0
11533 -11455 -11315 0
-11533 11455 0
-11533 11315 0
11534 -11455 -11446 0
-11534 11455 0
-11534 11446 0
11535 -11320 -11315 -11424 0
-11535 11320 0
-11535 11315 0
-11535 11424 0
-6572 11360 11532 11533 11534 11535 0
6572 -11360 0
6572 -11532 0
6572 -11533 0
6572 -11534 0
6572 -11535 0
11536 -11320 -11455 0
-11536 11320 0
-11536 11455 0
11537 -11455 -11455 0
-11537 11455 0
-11537 11455 0
11538 -11455 -11320 0
-11538 11455 0
-11538 11320 0
11539 -11320 -11320 -11424 0
-11539 11320 0
-11539 11320 0
-11539 11424 0
-6577 11362 11536 11537 11538 11539 0
6577 -11362 0
6577 -11536 0
6577 -11537 0
6577 -11538 0
6577 -11539 0
11540 -10674 -10674 0
-11540 10674 0
-11540 10674 0
-6941 10639 11540 0
6941 -10639 0
6941 -11540 0
11541 -10674 -10718 0
-11541 10674 0
-11541 10718 0
-9811 10646 11541 0
9811 -10646 0
9811 -11541 0
11542 -10674 -10723 0
-11542 10674 0
-11542 10723 0
-6940 10653 11542 0
6940 -10653 0
6940 -11542 0
11543 -10679 -10723 0
-11543 10679 0
-11543 10723 0
-6949 10660 11543 0
6949 -10660 0
6949 -11543 0
11544 -10674 -10669 0
-11544 10674 0
-11544 10669 0
-6944 10634 11544 0
6944 -10634 0
6944 -11544 0
11545 -10674 -10671 0
-11545 10674 0
-11545 10671 0
-6947 10633 11545 0
6947 -10633 0
6947 -11545 0
11546 -10679 -10671 0
-11546 10679 0
-11546 10671 0
-6950 10655 11546 0
6950 -10655 0
6950 -11546 0
11547 -10674 -10783 0
-11547 10674 0
-11547 10783 0
-6953 10686 11547 0
6953 -10686 0
6953 -11547 0
11548 -10674 -10768 0
-11548 10674 0
-11548 10768 0
-6956 10693 11548 0
6956 -10693 0
6956 -11548 0
11549 -10679 -10768 0
-11549 10679 0
-11549 10768 0
-6958 10698 11549 0
6958 -10698 0
6958 -11549 0
11550 -10718 -10679 0
-11550 10718 0
-11550 10679 0
-9828 10703 11550 0
9828 -10703 0
9828 -11550 0
11551 -10718 -10718 0
-11551 10718 0
-11551 10718 0
-9815 10708 11551 0
9815 -10708 0
9815 -11551 0
11552 -10718 -10669 0
-11552 10718 0
-11552 10669 0
-9817 10641 11552 0
9817 -10641 0
9817 -11552 0
11553 -10718 -10671 0
-11553 10718 0
-11553 10671 0
-9822 10644 11553 0
9822 -10644 0
9822 -11553 0
11554 -10723 -10671 0
-11554 10723 0
-11554 10671 0
-6946 10650 11554 0
6946 -10650 0
6946 -11554 0
11555 -10718 -10783 0
-11555 10718 0
-11555 10783 0
-9832 10728 11555 0
9832 -10728 0
9832 -11555 0
11556 -10718 -10768 0
-11556 10718 0
-11556 10768 0
-9837 10733 11556 0
9837 -10733 0
9837 -11556 0
11557 -10723 -10768 0
-11557 10723 0
-11557 10768 0
-6955 10738 11557 0
6955 -10738 0
6955 -11557 0
11558 -10669 -10679 0
-11558 10669 0
-11558 10679 0
-6960 10657 11558 0
6960 -10657 0
6960 -11558 0
11559 -10669 -10723 0
-11559 10669 0
-11559 10723 0
-6943 10648 11559 0
6943 -10648 0
6943 -11559 0
11560 -10669 -10669 0
-11560 10669 0
-11560 10669 0
-6962 10638 11560 0
6962 -10638 0
6962 -11560 0
11561 -10669 -10783 0
-11561 10669 0
-11561 10783 0
-6964 10681 11561 0
6964 -10681 0
6964 -11561 0
11562 -10669 -10768 0
-11562 10669 0
-11562 10768 0
-6966 10688 11562 0
6966 -10688 0
6966 -11562 0
11563 -10671 -10768 0
-11563 10671 0
-11563 10768 0
-6968 10690 11563 0
6968 -10690 0
6968 -11563 0
11564 -10783 -10679 0
-11564 10783 0
-11564 10679 0
-6970 10773 11564 0
6970 -10773 0
6970 -11564 0
11565 -10783 -10723 0
-11565 10783 0
-11565 10723 0
-6952 10778 11565 0
6952 -10778 0
6952 -11565 0
11566 -10783 -10671 0
-11566 10783 0
-11566 10671 0
-6972 10684 11566 0
6972 -10684 0
6972 -11566 0
11567 -10783 -10783 0
-11567 10783 0
-11567 10783 0
-6974 10788 11567 0
6974 -10788 0
6974 -11567 0
11568 -10369 -10362 0
-11568 10369 0
-11568 10362 0
11569 -10362 -10362 0
-11569 10362 0
-11569 10362 0
11570 -10362 -10369 0
-11570 10362 0
-11570 10369 0
11571 -10369 -10369 -10448 0
-11571 10369 0
-11571 10369 0
-11571 10448 0
-7989 10334 11568 11569 11570 11571 0
7989 -10334 0
7989 -11568 0
7989 -11569 0
7989 -11570 0
7989 -11571 0
11572 -10369 -10408 0
-11572 10369 0
-11572 10408 0
11573 -10362 -10408 0
-11573 10362 0
-11573 10408 0
11574 -10362 -10413 0
-11574 10362 0
-11574 10413 0
11575 -10369 -10413 -10448 0
-11575 10369 0
-11575 10413 0
-11575 10448 0
-7984 10341 11572 11573 11574 11575 0
7984 -10341 0
7984 -11572 0
7984 -11573 0
7984 -11574 0
7984 -11575 0
11576 -10369 -10443 0
-11576 10369 0
-11576 10443 0
11577 -10362 -10418 0
-11577 10362 0
-11577 10418 0
11578 -10362 -10443 0
-11578 10362 0
-11578 10443 0
11579 -10369 -10418 -10448 0
-11579 10369 0
-11579 10418 0
-11579 10448 0
-7983 10348 11576 11577 11578 11579 0
7983 -10348 0
7983 -11576 0
7983 -11577 0
7983 -11578 0
7983 -11579 0
11580 -10374 -10443 0
-11580 10374 0
-11580 10443 0
11581 -10438 -10443 0
-11581 10438 0
-11581 10443 0
11582 -10438 -10418 0
-11582 10438 0
-11582 10418 0
11583 -10374 -10418 -10448 0
-11583 10374 0
-11583 10418 0
-11583 10448 0
-8005 10355 11580 11581 11582 11583 0
8005 -10355 0
8005 -11580 0
8005 -11581 0
8005 -11582 0
8005 -11583 0
11584 -10369 -10357 0
-11584 10369 0
-11584 10357 0
11585 -10362 -10357 0
-11585 10362 0
-11585 10357 0
11586 -10362 -10364 0
-11586 10362 0
-11586 10364 0
11587 -10369 -10364 -10448 0
-11587 10369 0
-11587 10364 0
-11587 10448 0
-7996 10329 11584 11585 11586 11587 0
7996 -10329 0
7996 -11584 0
7996 -11585 0
7996 -11586 0
7996 -11587 0
11588 -10369 -10360 0
-11588 10369 0
-11588 10360 0
11589 -10362 -10366 0
-11589 10362 0
-11589 10366 0
11590 -10362 -10360 0
-11590 10362 0
-11590 10360 0
11591 -10369 -10366 -10448 0
-11591 10369 0
-11591 10366 0
-11591 10448 0
-8003 10328 11588 11589 11590 11591 0
8003 -10328 0
8003 -11588 0
8003 -11589 0
8003 -11590 0
8003 -11591 0
11592 -10374 -10360 0
-11592 10374 0
-11592 10360 0
11593 -10438 -10360 0
-11593 10438 0
-11593 10360 0
11594 -10438 -10366 0
-11594 10438 0
-11594 10366 0
11595 -10374 -10366 -10448 0
-11595 10374 0
-11595 10366 0
-11595 10448 0
-8010 10350 11592 11593 11594 11595 0
8010 -10350 0
8010 -11592 0
8010 -11593 0
8010 -11594 0
8010 -11595 0
11596 -10369 -10453 0
-11596 10369 0
-11596 10453 0
11597 -10362 -10453 0
-11597 10362 0
-11597 10453 0
11598 -10362 -10478 0
-11598 10362 0
-11598 10478 0
11599 -10369 -10478 -10448 0
-11599 10369 0
-11599 10478 0
-11599 10448 0
-8017 10381 11596 11597 11598 11599 0
8017 -10381 0
8017 -11596 0
8017 -11597 0
8017 -11598 0
8017 -11599 0
11600 -10369 -10458 0
-11600 10369 0
-11600 10458 0
11601 -10362 -10463 0
-11601 10362 0
-11601 10463 0
11602 -10362 -10458 0
-11602 10362 0
-11602 10458 0
11603 -10369 -10463 -10448 0
-11603 10369 0
-11603 10463 0
-11603 10448 0
-8024 10388 11600 11601 11602 11603 0
8024 -10388 0
8024 -11600 0
8024 -11601 0
8024 -11602 0
8024 -11603 0
11604 -10374 -10458 0
-11604 10374 0
-11604 10458 0
11605 -10438 -10458 0
-11605 10438 0
-11605 10458 0
11606 -10438 -10463 0
-11606 10438 0
-11606 10463 0
11607 -10374 -10463 -10448 0
-11607 10374 0
-11607 10463 0
-11607 10448 0
-8029 10393 11604 11605 11606 11607 0
8029 -10393 0
8029 -11604 0
8029 -11605 0
8029 -11606 0
8029 -11607 0
11608 -10413 -10438 0
-11608 10413 0
-11608 10438 0
11609 -10408 -10374 0
-11609 10408 0
-11609 10374 0
11610 -10408 -10438 0
-11610 10408 0
-11610 10438 0
11611 -10413 -10374 -10448 0
-11611 10413 0
-11611 10374 0
-11611 10448 0
-8007 10398 11608 11609 11610 11611 0
8007 -10398 0
8007 -11608 0
8007 -11609 0
8007 -11610 0
8007 -11611 0
11612 -10413 -10408 0
-11612 10413 0
-11612 10408 0
11613 -10408 -10408 0
-11613 10408 0
-11613 10408 0
11614 -10408 -10413 0
-11614 10408 0
-11614 10413 0
11615 -10413 -10413 -10448 0
-11615 10413 0
-11615 10413 0
-11615 10448 0
-7988 10403 11612 11613 11614 11615 0
7988 -10403 0
7988 -11612 0
7988 -11613 0
7988 -11614 0
7988 -11615 0
11616 -10413 -10357 0
-11616 10413 0
-11616 10357 0
11617 -10408 -10357 0
-11617 10408 0
-11617 10357 0
11618 -10408 -10364 0
-11618 10408 0
-11618 10364 0
11619 -10413 -10364 -10448 0
-11619 10413 0
-11619 10364 0
-11619 10448 0
-7991 10336 11616 11617 11618 11619 0
7991 -10336 0
7991 -11616 0
7991 -11617 0
7991 -11618 0
7991 -11619 0
11620 -10413 -10360 0
-11620 10413 0
-11620 10360 0
11621 -10408 -10366 0
-11621 10408 0
-11621 10366 0
11622 -10408 -10360 0
-11622 10408 0
-11622 10360 0
11623 -10413 -10366 -10448 0
-11623 10413 0
-11623 10366 0
-11623 10448 0
-7998 10339 11620 11621 11622 11623 0
7998 -10339 0
7998 -11620 0
7998 -11621 0
7998 -11622 0
7998 -11623 0
11624 -10418 -10360 0
-11624 10418 0
-11624 10360 0
11625 -10443 -10360 0
-11625 10443 0
-11625 10360 0
11626 -10443 -10366 0
-11626 10443 0
-11626 10366 0
11627 -10418 -10366 -10448 0
-11627 10418 0
-11627 10366 0
-11627 10448 0
-8000 10345 11624 11625 11626 11627 0
8000 -10345 0
8000 -11624 0
8000 -11625 0
8000 -11626 0
8000 -11627 0
11628 -10413 -10453 0
-11628 10413 0
-11628 10453 0
11629 -10408 -10453 0
-11629 10408 0
-11629 10453 0
11630 -10408 -10478 0
-11630 10408 0
-11630 10478 0
11631 -10413 -10478 -10448 0
-11631 10413 0
-11631 10478 0
-11631 10448 0
-8012 10423 11628 11629 11630 11631 0
8012 -10423 0
8012 -11628 0
8012 -11629 0
8012 -11630 0
8012 -11631 0
11632 -10413 -10458 0
-11632 10413 0
-11632 10458 0
11633 -10408 -10463 0
-11633 10408 0
-11633 10463 0
11634 -10408 -10458 0
-11634 10408 0
-11634 10458 0
11635 -10413 -10463 -10448 0
-11635 10413 0
-11635 10463 0
-11635 10448 0
-8019 10428 11632 11633 11634 11635 0
8019 -10428 0
8019 -11632 0
8019 -11633 0
8019 -11634 0
8019 -11635 0
11636 -10418 -10458 0
-11636 10418 0
-11636 10458 0
11637 -10443 -10458 0
-11637 10443 0
-11637 10458 0
11638 -10443 -10463 0
-11638 10443 0
-11638 10463 0
11639 -10418 -10463 -10448 0
-11639 10418 0
-11639 10463 0
-11639 10448 0
-8021 10433 11636 11637 11638 11639 0
8021 -10433 0
8021 -11636 0
8021 -11637 0
8021 -11638 0
8021 -11639 0
11640 -10364 -10438 0
-11640 10364 0
-11640 10438 0
11641 -10357 -10374 0
-11641 10357 0
-11641 10374 0
11642 -10357 -10438 0
-11642 10357 0
-11642 10438 0
11643 -10364 -10374 -10448 0
-11643 10364 0
-11643 10374 0
-11643 10448 0
-8034 10352 11640 11641 11642 11643 0
8034 -10352 0
8034 -11640 0
8034 -11641 0
8034 -11642 0
8034 -11643 0
11644 -10364 -10443 0
-11644 10364 0
-11644 10443 0
11645 -10357 -10418 0
-11645 10357 0
-11645 10418 0
11646 -10357 -10443 0
-11646 10357 0
-11646 10443 0
11647 -10364 -10418 -10448 0
-11647 10364 0
-11647 10418 0
-11647 10448 0
-7994 10343 11644 11645 11646 11647 0
7994 -10343 0
7994 -11644 0
7994 -11645 0
7994 -11646 0
7994 -11647 0
11648 -10364 -10357 0
-11648 10364 0
-11648 10357 0
10445 -10357 -10357 0
-10445 10357 0
-10445 10357 0
11649 -10357 -10364 0
-11649 10357 0
-11649 10364 0
11650 -10364 -10364 -10448 0
-11650 10364 0
-11650 10364 0
-11650 10448 0
-8039 10333 11648 10445 11649 11650 0
8039 -10333 0
8039 -11648 0
8039 -10445 0
8039 -11649 0
8039 -11650 0
11651 -10364 -10453 0
-11651 10364 0
-11651 10453 0
11652 -10357 -10453 0
-11652 10357 0
-11652 10453 0
11653 -10357 -10478 0
-11653 10357 0
-11653 10478 0
11654 -10364 -10478 -10448 0
-11654 10364 0
-11654 10478 0
-11654 10448 0
-8044 10376 11651 11652 11653 11654 0
8044 -10376 0
8044 -11651 0
8044 -11652 0
8044 -11653 0
8044 -11654 0
11655 -10364 -10458 0
-11655 10364 0
-11655 10458 0
11656 -10357 -10463 0
-11656 10357 0
-11656 10463 0
11657 -10357 -10458 0
-11657 10357 0
-11657 10458 0
11658 -10364 -10463 -10448 0
-11658 10364 0
-11658 10463 0
-11658 10448 0
-8049 10383 11655 11656 11657 11658 0
8049 -10383 0
8049 -11655 0
8049 -11656 0
8049 -11657 0
8049 -11658 0
11659 -10366 -10458 0
-11659 10366 0
-11659 10458 0
11660 -10360 -10458 0
-11660 10360 0
-11660 10458 0
11661 -10360 -10463 0
-11661 10360 0
-11661 10463 0
11662 -10366 -10463 -10448 0
-11662 10366 0
-11662 10463 0
-11662 10448 0
-8054 10385 11659 11660 11661 11662 0
8054 -10385 0
8054 -11659 0
8054 -11660 0
8054 -11661 0
8054 -11662 0
11663 -10478 -10438 0
-11663 10478 0
-11663 10438 0
11664 -10453 -10374 0
-11664 10453 0
-11664 10374 0
11665 -10453 -10438 0
-11665 10453 0
-11665 10438 0
11666 -10478 -10374 -10448 0
-11666 10478 0
-11666 10374 0
-11666 10448 0
-8059 10468 11663 11664 11665 11666 0
8059 -10468 0
8059 -11663 0
8059 -11664 0
8059 -11665 0
8059 -11666 0
11667 -10478 -10443 0
-11667 10478 0
-11667 10443 0
11668 -10453 -10418 0
-11668 10453 0
-11668 10418 0
11669 -10453 -10443 0
-11669 10453 0
-11669 10443 0
11670 -10478 -10418 -10448 0
-11670 10478 0
-11670 10418 0
-11670 10448 0
-8015 10473 11667 11668 11669 11670 0
8015 -10473 0
8015 -11667 0
8015 -11668 0
8015 -11669 0
8015 -11670 0
11671 -10478 -10360 0
-11671 10478 0
-11671 10360 0
11672 -10453 -10366 0
-11672 10453 0
-11672 10366 0
11673 -10453 -10360 0
-11673 10453 0
-11673 10360 0
11674 -10478 -10366 -10448 0
-11674 10478 0
-11674 10366 0
-11674 10448 0
-8064 10379 11671 11672 11673 11674 0
8064 -10379 0
8064 -11671 0
8064 -11672 0
8064 -11673 0
8064 -11674 0
11675 -10478 -10453 0
-11675 10478 0
-11675 10453 0
11017 -10453 -10453 0
-11017 10453 0
-11017 10453 0
11676 -10453 -10478 0
-11676 10453 0
-11676 10478 0
11677 -10478 -10478 -10448 0
-11677 10478 0
-11677 10478 0
-11677 10448 0
-8069 10483 11675 11017 11676 11677 0
8069 -10483 0
8069 -11675 0
8069 -11017 0
8069 -11676 0
8069 -11677 0
11678 -10557 -10554 0
-11678 10557 0
-11678 10554 0
11679 -10554 -10554 0
-11679 10554 0
-11679 10554 0
11680 -10554 -10557 0
-11680 10554 0
-11680 10557 0
11681 -10557 -10557 -10589 0
-11681 10557 0
-11681 10557 0
-11681 10589 0
-7049 10542 11678 11679 11680 11681 0
7049 -10542 0
7049 -11678 0
7049 -11679 0
7049 -11680 0
7049 -11681 0
11682 -10557 -10573 0
-11682 10557 0
-11682 10573 0
11683 -10554 -10573 0
-11683 10554 0
-11683 10573 0
11684 -10554 -10575 0
-11684 10554 0
-11684 10575 0
11685 -10557 -10575 -10589 0
-11685 10557 0
-11685 10575 0
-11685 10589 0
-7052 10545 11682 11683 11684 11685 0
7052 -10545 0
7052 -11682 0
7052 -11683 0
7052 -11684 0
7052 -11685 0
11686 -10557 -10587 0
-11686 10557 0
-11686 10587 0
11687 -10554 -10577 0
-11687 10554 0
-11687 10577 0
11688 -10554 -10587 0
-11688 10554 0
-11688 10587 0
11689 -10557 -10577 -10589 0
-11689 10557 0
-11689 10577 0
-11689 10589 0
-7055 10548 11686 11687 11688 11689 0
7055 -10548 0
7055 -11686 0
7055 -11687 0
7055 -11688 0
7055 -11689 0
11690 -10559 -10587 0
-11690 10559 0
-11690 10587 0
11691 -10585 -10587 0
-11691 10585 0
-11691 10587 0
11692 -10585 -10577 0
-11692 10585 0
-11692 10577 0
11693 -10559 -10577 -10589 0
-11693 10559 0
-11693 10577 0
-11693 10589 0
-7058 10551 11690 11691 11692 11693 0
7058 -10551 0
7058 -11690 0
7058 -11691 0
7058 -11692 0
7058 -11693 0
11694 -10557 -11246 0
-11694 10557 0
-11694 11246 0
11695 -10554 -11246 0
-11695 10554 0
-11695 11246 0
11696 -10554 -10794 0
-11696 10554 0
-11696 10794 0
11697 -10557 -10794 -10589 0
-11697 10557 0
-11697 10794 0
-11697 10589 0
-8490 10795 11694 11695 11696 11697 0
8490 -10795 0
8490 -11694 0
8490 -11695 0
8490 -11696 0
8490 -11697 0
11698 -10557 -10553 0
-11698 10557 0
-11698 10553 0
11699 -10554 -10556 0
-11699 10554 0
-11699 10556 0
11700 -10554 -10553 0
-11700 10554 0
-11700 10553 0
11701 -10557 -10556 -10589 0
-11701 10557 0
-11701 10556 0
-11701 10589 0
-7048 10541 11698 11699 11700 11701 0
7048 -10541 0
7048 -11698 0
7048 -11699 0
7048 -11700 0
7048 -11701 0
11702 -10559 -10553 0
-11702 10559 0
-11702 10553 0
11703 -10585 -10553 0
-11703 10585 0
-11703 10553 0
11704 -10585 -10556 0
-11704 10585 0
-11704 10556 0
11705 -10559 -10556 -10589 0
-11705 10559 0
-11705 10556 0
-11705 10589 0
-7057 10550 11702 11703 11704 11705 0
7057 -10550 0
7057 -11702 0
7057 -11703 0
7057 -11704 0
7057 -11705 0
11706 -10557 -10591 0
-11706 10557 0
-11706 10591 0
11707 -10554 -10591 0
-11707 10554 0
-11707 10591 0
11708 -10554 -10601 0
-11708 10554 0
-11708 10601 0
11709 -10557 -10601 -10589 0
-11709 10557 0
-11709 10601 0
-11709 10589 0
-7061 10562 11706 11707 11708 11709 0
7061 -10562 0
7061 -11706 0
7061 -11707 0
7061 -11708 0
7061 -11709 0
11710 -10557 -10593 0
-11710 10557 0
-11710 10593 0
11711 -10554 -10595 0
-11711 10554 0
-11711 10595 0
11712 -10554 -10593 0
-11712 10554 0
-11712 10593 0
11713 -10557 -10595 -10589 0
-11713 10557 0
-11713 10595 0
-11713 10589 0
-7064 10565 11710 11711 11712 11713 0
7064 -10565 0
7064 -11710 0
7064 -11711 0
7064 -11712 0
7064 -11713 0
11714 -10559 -10593 0
-11714 10559 0
-11714 10593 0
11715 -10585 -10593 0
-11715 10585 0
-11715 10593 0
11716 -10585 -10595 0
-11716 10585 0
-11716 10595 0
11717 -10559 -10595 -10589 0
-11717 10559 0
-11717 10595 0
-11717 10589 0
-7066 10567 11714 11715 11716 11717 0
7066 -10567 0
7066 -11714 0
7066 -11715 0
7066 -11716 0
7066 -11717 0
11718 -10575 -10585 0
-11718 10575 0
-11718 10585 0
11719 -10573 -10559 0
-11719 10573 0
-11719 10559 0
11720 -10573 -10585 0
-11720 10573 0
-11720 10585 0
11721 -10575 -10559 -10589 0
-11721 10575 0
-11721 10559 0
-11721 10589 0
-7068 10569 11718 11719 11720 11721 0
7068 -10569 0
7068 -11718 0
7068 -11719 0
7068 -11720 0
7068 -11721 0
11722 -10575 -10573 0
-11722 10575 0
-11722 10573 0
11723 -10573 -10573 0
-11723 10573 0
-11723 10573 0
11724 -10573 -10575 0
-11724 10573 0
-11724 10575 0
11725 -10575 -10575 -10589 0
-11725 10575 0
-11725 10575 0
-11725 10589 0
-7070 10571 11722 11723 11724 11725 0
7070 -10571 0
7070 -11722 0
7070 -11723 0
7070 -11724 0
7070 -11725 0
11726 -10575 -11246 0
-11726 10575 0
-11726 11246 0
11727 -10573 -11246 0
-11727 10573 0
-11727 11246 0
11728 -10573 -10794 0
-11728 10573 0
-11728 10794 0
11729 -10575 -10794 -10589 0
-11729 10575 0
-11729 10794 0
-11729 10589 0
-8485 10804 11726 11727 11728 11729 0
8485 -10804 0
8485 -11726 0
8485 -11727 0
8485 -11728 0
8485 -11729 0
11730 -10575 -10553 0
-11730 10575 0
-11730 10553 0
11731 -10573 -10556 0
-11731 10573 0
-11731 10556 0
11732 -10573 -10553 0
-11732 10573 0
-11732 10553 0
11733 -10575 -10556 -10589 0
-11733 10575 0
-11733 10556 0
-11733 10589 0
-7051 10544 11730 11731 11732 11733 0
7051 -10544 0
7051 -11730 0
7051 -11731 0
7051 -11732 0
7051 -11733 0
11734 -10577 -10553 0
-11734 10577 0
-11734 10553 0
11735 -10587 -10553 0
-11735 10587 0
-11735 10553 0
11736 -10587 -10556 0
-11736 10587 0
-11736 10556 0
11737 -10577 -10556 -10589 0
-11737 10577 0
-11737 10556 0
-11737 10589 0
-7054 10547 11734 11735 11736 11737 0
7054 -10547 0
7054 -11734 0
7054 -11735 0
7054 -11736 0
7054 -11737 0
11738 -10575 -10591 0
-11738 10575 0
-11738 10591 0
11739 -10573 -10591 0
-11739 10573 0
-11739 10591 0
11740 -10573 -10601 0
-11740 10573 0
-11740 10601 0
11741 -10575 -10601 -10589 0
-11741 10575 0
-11741 10601 0
-11741 10589 0
-7072 10579 11738 11739 11740 11741 0
7072 -10579 0
7072 -11738 0
7072 -11739 0
7072 -11740 0
7072 -11741 0
11742 -10575 -10593 0
-11742 10575 0
-11742 10593 0
11743 -10573 -10595 0
-11743 10573 0
-11743 10595 0
11744 -10573 -10593 0
-11744 10573 0
-11744 10593 0
11745 -10575 -10595 -10589 0
-11745 10575 0
-11745 10595 0
-11745 10589 0
-7074 10581 11742 11743 11744 11745 0
7074 -10581 0
7074 -11742 0
7074 -11743 0
7074 -11744 0
7074 -11745 0
11746 -10577 -10593 0
-11746 10577 0
-11746 10593 0
11747 -10587 -10593 0
-11747 10587 0
-11747 10593 0
11748 -10587 -10595 0
-11748 10587 0
-11748 10595 0
11749 -10577 -10595 -10589 0
-11749 10577 0
-11749 10595 0
-11749 10589 0
-7076 10583 11746 11747 11748 11749 0
7076 -10583 0
7076 -11746 0
7076 -11747 0
7076 -11748 0
7076 -11749 0
11750 -10794 -10585 0
-11750 10794 0
-11750 10585 0
11751 -11246 -10559 0
-11751 11246 0
-11751 10559 0
11752 -11246 -10585 0
-11752 11246 0
-11752 10585 0
11753 -10794 -10559 -10589 0
-11753 10794 0
-11753 10559 0
-11753 10589 0
-8515 10811 11750 11751 11752 11753 0
8515 -10811 0
8515 -11750 0
8515 -11751 0
8515 -11752 0
8515 -11753 0
11754 -10794 -10587 0
-11754 10794 0
-11754 10587 0
11755 -11246 -10577 0
-11755 11246 0
-11755 10577 0
11756 -11246 -10587 0
-11756 11246 0
-11756 10587 0
11757 -10794 -10577 -10589 0
-11757 10794 0
-11757 10577 0
-11757 10589 0
-8488 10813 11754 11755 11756 11757 0
8488 -10813 0
8488 -11754 0
8488 -11755 0
8488 -11756 0
8488 -11757 0
11758 -10794 -11246 0
-11758 10794 0
-11758 11246 0
11759 -11246 -11246 0
-11759 11246 0
-11759 11246 0
11760 -11246 -10794 0
-11760 11246 0
-11760 10794 0
11761 -10794 -10794 -10589 0
-11761 10794 0
-11761 10794 0
-11761 10589 0
-8520 10815 11758 11759 11760 11761 0
8520 -10815 0
8520 -11758 0
8520 -11759 0
8520 -11760 0
8520 -11761 0
11762 -10794 -10591 0
-11762 10794 0
-11762 10591 0
11763 -11246 -10591 0
-11763 11246 0
-11763 10591 0
11764 -11246 -10601 0
-11764 11246 0
-11764 10601 0
11765 -10794 -10601 -10589 0
-11765 10794 0
-11765 10601 0
-11765 10589 0
-8525 10817 11762 11763 11764 11765 0
8525 -10817 0
8525 -11762 0
8525 -11763 0
8525 -11764 0
8525 -11765 0
11766 -10794 -10593 0
-11766 10794 0
-11766 10593 0
11767 -11246 -10595 0
-11767 11246 0
-11767 10595 0
11768 -11246 -10593 0
-11768 11246 0
-11768 10593 0
11769 -10794 -10595 -10589 0
-11769 10794 0
-11769 10595 0
-11769 10589 0
-8530 10819 11766 11767 11768 11769 0
8530 -10819 0
8530 -11766 0
8530 -11767 0
8530 -11768 0
8530 -11769 0
11770 -10556 -10593 0
-11770 10556 0
-11770 10593 0
11771 -10553 -10593 0
-11771 10553 0
-11771 10593 0
11772 -10553 -10595 0
-11772 10553 0
-11772 10595 0
11773 -10556 -10595 -10589 0
-11773 10556 0
-11773 10595 0
-11773 10589 0
-7063 10564 11770 11771 11772 11773 0
7063 -10564 0
7063 -11770 0
7063 -11771 0
7063 -11772 0
7063 -11773 0
11774 -10601 -10585 0
-11774 10601 0
-11774 10585 0
11775 -10591 -10559 0
-11775 10591 0
-11775 10559 0
11776 -10591 -10585 0
-11776 10591 0
-11776 10585 0
11777 -10601 -10559 -10589 0
-11777 10601 0
-11777 10559 0
-11777 10589 0
-7078 10597 11774 11775 11776 11777 0
7078 -10597 0
7078 -11774 0
7078 -11775 0
7078 -11776 0
7078 -11777 0
11778 -10601 -10587 0
-11778 10601 0
-11778 10587 0
11779 -10591 -10577 0
-11779 10591 0
-11779 10577 0
11780 -10591 -10587 0
-11780 10591 0
-11780 10587 0
11781 -10601 -10577 -10589 0
-11781 10601 0
-11781 10577 0
-11781 10589 0
-7080 10599 11778 11779 11780 11781 0
7080 -10599 0
7080 -11778 0
7080 -11779 0
7080 -11780 0
7080 -11781 0
11782 -10601 -10553 0
-11782 10601 0
-11782 10553 0
11783 -10591 -10556 0
-11783 10591 0
-11783 10556 0
11784 -10591 -10553 0
-11784 10591 0
-11784 10553 0
11785 -10601 -10556 -10589 0
-11785 10601 0
-11785 10556 0
-11785 10589 0
-7060 10561 11782 11783 11784 11785 0
7060 -10561 0
7060 -11782 0
7060 -11783 0
7060 -11784 0
7060 -11785 0
11786 -10601 -10591 0
-11786 10601 0
-11786 10591 0
11268 -10591 -10591 0
-11268 10591 0
-11268 10591 0
11787 -10591 -10601 0
-11787 10591 0
-11787 10601 0
11788 -10601 -10601 -10589 0
-11788 10601 0
-11788 10601 0
-11788 10589 0
-7082 10603 11786 11268 11787 11788 0
7082 -10603 0
7082 -11786 0
7082 -11268 0
7082 -11787 0
7082 -11788 0
11789 -10633 -10633 0
-11789 10633 0
-11789 10633 0
-7834 10639 11789 0
7834 -10639 0
7834 -11789 0
11790 -10633 -10644 0
-11790 10633 0
-11790 10644 0
-7841 10646 11790 0
7841 -10646 0
7841 -11790 0
11791 -10633 -10650 0
-11791 10633 0
-11791 10650 0
-7848 10653 11791 0
7848 -10653 0
7848 -11791 0
11792 -10655 -10650 0
-11792 10655 0
-11792 10650 0
-7855 10660 11792 0
7855 -10660 0
7855 -11792 0
11793 -10633 -10665 0
-11793 10633 0
-11793 10665 0
-7829 10667 11793 0
7829 -10667 0
7829 -11793 0
11794 -10633 -10671 0
-11794 10633 0
-11794 10671 0
-7828 10674 11794 0
7828 -10674 0
7828 -11794 0
11795 -10655 -10671 0
-11795 10655 0
-11795 10671 0
-7850 10679 11795 0
7850 -10679 0
7850 -11795 0
11796 -10633 -10684 0
-11796 10633 0
-11796 10684 0
-7862 10686 11796 0
7862 -10686 0
7862 -11796 0
11797 -10633 -10690 0
-11797 10633 0
-11797 10690 0
-7869 10693 11797 0
7869 -10693 0
7869 -11797 0
11798 -10655 -10690 0
-11798 10655 0
-11798 10690 0
-7874 10698 11798 0
7874 -10698 0
7874 -11798 0
11799 -10644 -10655 0
-11799 10644 0
-11799 10655 0
-7879 10703 11799 0
7879 -10703 0
7879 -11799 0
11800 -10644 -10644 0
-11800 10644 0
-11800 10644 0
-7884 10708 11800 0
7884 -10708 0
7884 -11800 0
11801 -10644 -10665 0
-11801 10644 0
-11801 10665 0
-7836 10713 11801 0
7836 -10713 0
7836 -11801 0
11802 -10644 -10671 0
-11802 10644 0
-11802 10671 0
-7839 10718 11802 0
7839 -10718 0
7839 -11802 0
11803 -10650 -10671 0
-11803 10650 0
-11803 10671 0
-7845 10723 11803 0
7845 -10723 0
7845 -11803 0
11804 -10644 -10684 0
-11804 10644 0
-11804 10684 0
-7889 10728 11804 0
7889 -10728 0
7889 -11804 0
11805 -10644 -10690 0
-11805 10644 0
-11805 10690 0
-7894 10733 11805 0
7894 -10733 0
7894 -11805 0
11806 -10650 -10690 0
-11806 10650 0
-11806 10690 0
-7899 10738 11806 0
7899 -10738 0
7899 -11806 0
11807 -10665 -10655 0
-11807 10665 0
-11807 10655 0
-7852 10743 11807 0
7852 -10743 0
7852 -11807 0
11808 -10665 -10650 0
-11808 10665 0
-11808 10650 0
-7843 10748 11808 0
7843 -10748 0
7843 -11808 0
11809 -10665 -10665 0
-11809 10665 0
-11809 10665 0
-7833 10753 11809 0
7833 -10753 0
7833 -11809 0
11810 -10665 -10684 0
-11810 10665 0
-11810 10684 0
-7857 10758 11810 0
7857 -10758 0
7857 -11810 0
11811 -10665 -10690 0
-11811 10665 0
-11811 10690 0
-7864 10763 11811 0
7864 -10763 0
7864 -11811 0
11812 -10671 -10690 0
-11812 10671 0
-11812 10690 0
-7866 10768 11812 0
7866 -10768 0
7866 -11812 0
11813 -10684 -10655 0
-11813 10684 0
-11813 10655 0
-7904 10773 11813 0
7904 -10773 0
7904 -11813 0
11814 -10684 -10650 0
-11814 10684 0
-11814 10650 0
-7909 10778 11814 0
7909 -10778 0
7909 -11814 0
11815 -10684 -10671 0
-11815 10684 0
-11815 10671 0
-7860 10783 11815 0
7860 -10783 0
7860 -11815 0
11816 -10684 -10684 0
-11816 10684 0
-11816 10684 0
-7914 10788 11816 0
7914 -10788 0
7914 -11816 0
11817 -10541 -10795 0
-11817 10541 0
-11817 10795 0
11818 -10795 -10795 0
-11818 10795 0
-11818 10795 0
11819 -10795 -10541 0
-11819 10795 0
-11819 10541 0
11820 -10541 -10541 -10815 0
-11820 10541 0
-11820 10541 0
-11820 10815 0
-7303 10542 11817 11818 11819 11820 0
7303 -10542 0
7303 -11817 0
7303 -11818 0
7303 -11819 0
7303 -11820 0
11821 -10541 -10804 0
-11821 10541 0
-11821 10804 0
11822 -10795 -10804 0
-11822 10795 0
-11822 10804 0
11823 -10795 -10544 0
-11823 10795 0
-11823 10544 0
11824 -10541 -10544 -10815 0
-11824 10541 0
-11824 10544 0
-11824 10815 0
-9188 10545 11821 11822 11823 11824 0
9188 -10545 0
9188 -11821 0
9188 -11822 0
9188 -11823 0
9188 -11824 0
11825 -10541 -10813 0
-11825 10541 0
-11825 10813 0
11826 -10795 -10547 0
-11826 10795 0
-11826 10547 0
11827 -10795 -10813 0
-11827 10795 0
-11827 10813 0
11828 -10541 -10547 -10815 0
-11828 10541 0
-11828 10547 0
-11828 10815 0
-7302 10548 11825 11826 11827 11828 0
7302 -10548 0
7302 -11825 0
7302 -11826 0
7302 -11827 0
7302 -11828 0
11829 -10550 -10813 0
-11829 10550 0
-11829 10813 0
11830 -10811 -10813 0
-11830 10811 0
-11830 10813 0
11831 -10811 -10547 0
-11831 10811 0
-11831 10547 0
11832 -10550 -10547 -10815 0
-11832 10550 0
-11832 10547 0
-11832 10815 0
-7311 10551 11829 11830 11831 11832 0
7311 -10551 0
7311 -11829 0
7311 -11830 0
7311 -11831 0
7311 -11832 0
11833 -10541 -11246 0
-11833 10541 0
-11833 11246 0
11834 -10795 -11246 0
-11834 10795 0
-11834 11246 0
11835 -10795 -10553 0
-11835 10795 0
-11835 10553 0
11836 -10541 -10553 -10815 0
-11836 10541 0
-11836 10553 0
-11836 10815 0
-7306 10554 11833 11834 11835 11836 0
7306 -10554 0
7306 -11833 0
7306 -11834 0
7306 -11835 0
7306 -11836 0
11837 -10541 -10794 0
-11837 10541 0
-11837 10794 0
11838 -10795 -10556 0
-11838 10795 0
-11838 10556 0
11839 -10795 -10794 0
-11839 10795 0
-11839 10794 0
11840 -10541 -10556 -10815 0
-11840 10541 0
-11840 10556 0
-11840 10815 0
-7309 10557 11837 11838 11839 11840 0
7309 -10557 0
7309 -11837 0
7309 -11838 0
7309 -11839 0
7309 -11840 0
11841 -10550 -10794 0
-11841 10550 0
-11841 10794 0
11842 -10811 -10794 0
-11842 10811 0
-11842 10794 0
11843 -10811 -10556 0
-11843 10811 0
-11843 10556 0
11844 -10550 -10556 -10815 0
-11844 10550 0
-11844 10556 0
-11844 10815 0
-7312 10559 11841 11842 11843 11844 0
7312 -10559 0
7312 -11841 0
7312 -11842 0
7312 -11843 0
7312 -11844 0
11845 -10541 -10817 0
-11845 10541 0
-11845 10817 0
11846 -10795 -10817 0
-11846 10795 0
-11846 10817 0
11847 -10795 -10561 0
-11847 10795 0
-11847 10561 0
11848 -10541 -10561 -10815 0
-11848 10541 0
-11848 10561 0
-11848 10815 0
-7315 10562 11845 11846 11847 11848 0
7315 -10562 0
7315 -11845 0
7315 -11846 0
7315 -11847 0
7315 -11848 0
11849 -10541 -10819 0
-11849 10541 0
-11849 10819 0
11850 -10795 -10564 0
-11850 10795 0
-11850 10564 0
11851 -10795 -10819 0
-11851 10795 0
-11851 10819 0
11852 -10541 -10564 -10815 0
-11852 10541 0
-11852 10564 0
-11852 10815 0
-7318 10565 11849 11850 11851 11852 0
7318 -10565 0
7318 -11849 0
7318 -11850 0
7318 -11851 0
7318 -11852 0
11853 -10550 -10819 0
-11853 10550 0
-11853 10819 0
11854 -10811 -10819 0
-11854 10811 0
-11854 10819 0
11855 -10811 -10564 0
-11855 10811 0
-11855 10564 0
11856 -10550 -10564 -10815 0
-11856 10550 0
-11856 10564 0
-11856 10815 0
-7320 10567 11853 11854 11855 11856 0
7320 -10567 0
7320 -11853 0
7320 -11854 0
7320 -11855 0
7320 -11856 0
11857 -10544 -10811 0
-11857 10544 0
-11857 10811 0
11858 -10804 -10550 0
-11858 10804 0
-11858 10550 0
11859 -10804 -10811 0
-11859 10804 0
-11859 10811 0
11860 -10544 -10550 -10815 0
-11860 10544 0
-11860 10550 0
-11860 10815 0
-9205 10569 11857 11858 11859 11860 0
9205 -10569 0
9205 -11857 0
9205 -11858 0
9205 -11859 0
9205 -11860 0
11861 -10544 -10804 0
-11861 10544 0
-11861 10804 0
11862 -10804 -10804 0
-11862 10804 0
-11862 10804 0
11863 -10804 -10544 0
-11863 10804 0
-11863 10544 0
11864 -10544 -10544 -10815 0
-11864 10544 0
-11864 10544 0
-11864 10815 0
-9192 10571 11861 11862 11863 11864 0
9192 -10571 0
9192 -11861 0
9192 -11862 0
9192 -11863 0
9192 -11864 0
11865 -10544 -11246 0
-11865 10544 0
-11865 11246 0
11866 -10804 -11246 0
-11866 10804 0
-11866 11246 0
11867 -10804 -10553 0
-11867 10804 0
-11867 10553 0
11868 -10544 -10553 -10815 0
-11868 10544 0
-11868 10553 0
-11868 10815 0
-9194 10573 11865 11866 11867 11868 0
9194 -10573 0
9194 -11865 0
9194 -11866 0
9194 -11867 0
9194 -11868 0
11869 -10544 -10794 0
-11869 10544 0
-11869 10794 0
11870 -10804 -10556 0
-11870 10804 0
-11870 10556 0
11871 -10804 -10794 0
-11871 10804 0
-11871 10794 0
11872 -10544 -10556 -10815 0
-11872 10544 0
-11872 10556 0
-11872 10815 0
-9199 10575 11869 11870 11871 11872 0
9199 -10575 0
9199 -11869 0
9199 -11870 0
9199 -11871 0
9199 -11872 0
11873 -10547 -10794 0
-11873 10547 0
-11873 10794 0
11874 -10813 -10794 0
-11874 10813 0
-11874 10794 0
11875 -10813 -10556 0
-11875 10813 0
-11875 10556 0
11876 -10547 -10556 -10815 0
-11876 10547 0
-11876 10556 0
-11876 10815 0
-7308 10577 11873 11874 11875 11876 0
7308 -10577 0
7308 -11873 0
7308 -11874 0
7308 -11875 0
7308 -11876 0
11877 -10544 -10817 0
-11877 10544 0
-11877 10817 0
11878 -10804 -10817 0
-11878 10804 0
-11878 10817 0
11879 -10804 -10561 0
-11879 10804 0
-11879 10561 0
11880 -10544 -10561 -10815 0
-11880 10544 0
-11880 10561 0
-11880 10815 0
-9209 10579 11877 11878 11879 11880 0
9209 -10579 0
9209 -11877 0
9209 -11878 0
9209 -11879 0
9209 -11880 0
11881 -10544 -10819 0
-11881 10544 0
-11881 10819 0
11882 -10804 -10564 0
-11882 10804 0
-11882 10564 0
11883 -10804 -10819 0
-11883 10804 0
-11883 10819 0
11884 -10544 -10564 -10815 0
-11884 10544 0
-11884 10564 0
-11884 10815 0
-9214 10581 11881 11882 11883 11884 0
9214 -10581 0
9214 -11881 0
9214 -11882 0
9214 -11883 0
9214 -11884 0
11885 -10547 -10819 0
-11885 10547 0
-11885 10819 0
11886 -10813 -10819 0
-11886 10813 0
-11886 10819 0
11887 -10813 -10564 0
-11887 10813 0
-11887 10564 0
11888 -10547 -10564 -10815 0
-11888 10547 0
-11888 10564 0
-11888 10815 0
-7317 10583 11885 11886 11887 11888 0
7317 -10583 0
7317 -11885 0
7317 -11886 0
7317 -11887 0
7317 -11888 0
11889 -10553 -10811 0
-11889 10553 0
-11889 10811 0
11890 -11246 -10550 0
-11890 11246 0
-11890 10550 0
11891 -11246 -10811 0
-11891 11246 0
-11891 10811 0
11892 -10553 -10550 -10815 0
-11892 10553 0
-11892 10550 0
-11892 10815 0
-7322 10585 11889 11890 11891 11892 0
7322 -10585 0
7322 -11889 0
7322 -11890 0
7322 -11891 0
7322 -11892 0
11893 -10553 -10813 0
-11893 10553 0
-11893 10813 0
11894 -11246 -10547 0
-11894 11246 0
-11894 10547 0
11895 -11246 -10813 0
-11895 11246 0
-11895 10813 0
11896 -10553 -10547 -10815 0
-11896 10553 0
-11896 10547 0
-11896 10815 0
-7305 10587 11893 11894 11895 11896 0
7305 -10587 0
7305 -11893 0
7305 -11894 0
7305 -11895 0
7305 -11896 0
11897 -10553 -11246 0
-11897 10553 0
-11897 11246 0
11759 -11246 -11246 0
-11759 11246 0
-11759 11246 0
11898 -11246 -10553 0
-11898 11246 0
-11898 10553 0
11899 -10553 -10553 -10815 0
-11899 10553 0
-11899 10553 0
-11899 10815 0
-7324 10589 11897 11759 11898 11899 0
7324 -10589 0
7324 -11897 0
7324 -11759 0
7324 -11898 0
7324 -11899 0
11900 -10553 -10817 0
-11900 10553 0
-11900 10817 0
11901 -11246 -10817 0
-11901 11246 0
-11901 10817 0
11902 -11246 -10561 0
-11902 11246 0
-11902 10561 0
11903 -10553 -10561 -10815 0
-11903 10553 0
-11903 10561 0
-11903 10815 0
-7326 10591 11900 11901 11902 11903 0
7326 -10591 0
7326 -11900 0
7326 -11901 0
7326 -11902 0
7326 -11903 0
11904 -10553 -10819 0
-11904 10553 0
-11904 10819 0
11905 -11246 -10564 0
-11905 11246 0
-11905 10564 0
11906 -11246 -10819 0
-11906 11246 0
-11906 10819 0
11907 -10553 -10564 -10815 0
-11907 10553 0
-11907 10564 0
-11907 10815 0
-7328 10593 11904 11905 11906 11907 0
7328 -10593 0
7328 -11904 0
7328 -11905 0
7328 -11906 0
7328 -11907 0
11908 -10556 -10819 0
-11908 10556 0
-11908 10819 0
11909 -10794 -10819 0
-11909 10794 0
-11909 10819 0
11910 -10794 -10564 0
-11910 10794 0
-11910 10564 0
11911 -10556 -10564 -10815 0
-11911 10556 0
-11911 10564 0
-11911 10815 0
-7330 10595 11908 11909 11910 11911 0
7330 -10595 0
7330 -11908 0
7330 -11909 0
7330 -11910 0
7330 -11911 0
11912 -10561 -10811 0
-11912 10561 0
-11912 10811 0
11913 -10817 -10550 0
-11913 10817 0
-11913 10550 0
11914 -10817 -10811 0
-11914 10817 0
-11914 10811 0
11915 -10561 -10550 -10815 0
-11915 10561 0
-11915 10550 0
-11915 10815 0
-7332 10597 11912 11913 11914 11915 0
7332 -10597 0
7332 -11912 0
7332 -11913 0
7332 -11914 0
7332 -11915 0
11916 -10561 -10813 0
-11916 10561 0
-11916 10813 0
11917 -10817 -10547 0
-11917 10817 0
-11917 10547 0
11918 -10817 -10813 0
-11918 10817 0
-11918 10813 0
11919 -10561 -10547 -10815 0
-11919 10561 0
-11919 10547 0
-11919 10815 0
-7314 10599 11916 11917 11918 11919 0
7314 -10599 0
7314 -11916 0
7314 -11917 0
7314 -11918 0
7314 -11919 0
11920 -10561 -10794 0
-11920 10561 0
-11920 10794 0
11921 -10817 -10556 0
-11921 10817 0
-11921 10556 0
11922 -10817 -10794 0
-11922 10817 0
-11922 10794 0
11923 -10561 -10556 -10815 0
-11923 10561 0
-11923 10556 0
-11923 10815 0
-7334 10601 11920 11921 11922 11923 0
7334 -10601 0
7334 -11920 0
7334 -11921 0
7334 -11922 0
7334 -11923 0
11924 -10561 -10817 0
-11924 10561 0
-11924 10817 0
11239 -10817 -10817 0
-11239 10817 0
-11239 10817 0
11925 -10817 -10561 0
-11925 10817 0
-11925 10561 0
11926 -10561 -10561 -10815 0
-11926 10561 0
-11926 10561 0
-11926 10815 0
-7336 10603 11924 11239 11925 11926 0
7336 -10603 0
7336 -11924 0
7336 -11239 0
7336 -11925 0
7336 -11926 0
11927 -10107 -11928 0
-11927 10107 0
-11927 11928 0
11929 -11928 -11928 0
-11929 11928 0
-11929 11928 0
11930 -11928 -10107 0
-11930 11928 0
-11930 10107 0
11931 -10107 -10107 -11932 0
-11931 10107 0
-11931 10107 0
-11931 11932 0
-7607 10108 11927 11929 11930 11931 0
7607 -10108 0
7607 -11927 0
7607 -11929 0
7607 -11930 0
7607 -11931 0
11933 -10107 -11934 0
-11933 10107 0
-11933 11934 0
11935 -11928 -11934 0
-11935 11928 0
-11935 11934 0
11936 -11928 -10110 0
-11936 11928 0
-11936 10110 0
11937 -10107 -10110 -11932 0
-11937 10107 0
-11937 10110 0
-11937 11932 0
-7602 10111 11933 11935 11936 11937 0
7602 -10111 0
7602 -11933 0
7602 -11935 0
7602 -11936 0
7602 -11937 0
11938 -10107 -11939 0
-11938 10107 0
-11938 11939 0
11940 -11928 -10113 0
-11940 11928 0
-11940 10113 0
11941 -11928 -11939 0
-11941 11928 0
-11941 11939 0
11942 -10107 -10113 -11932 0
-11942 10107 0
-11942 10113 0
-11942 11932 0
-7601 10114 11938 11940 11941 11942 0
7601 -10114 0
7601 -11938 0
7601 -11940 0
7601 -11941 0
7601 -11942 0
11943 -10116 -11939 0
-11943 10116 0
-11943 11939 0
11944 -11945 -11939 0
-11944 11945 0
-11944 11939 0
11946 -11945 -10113 0
-11946 11945 0
-11946 10113 0
11947 -10116 -10113 -11932 0
-11947 10116 0
-11947 10113 0
-11947 11932 0
-7623 10117 11943 11944 11946 11947 0
7623 -10117 0
7623 -11943 0
7623 -11944 0
7623 -11946 0
7623 -11947 0
11948 -10107 -11949 0
-11948 10107 0
-11948 11949 0
11950 -11928 -11949 0
-11950 11928 0
-11950 11949 0
11951 -11928 -10119 0
-11951 11928 0
-11951 10119 0
11952 -10107 -10119 -11932 0
-11952 10107 0
-11952 10119 0
-11952 11932 0
-7614 10120 11948 11950 11951 11952 0
7614 -10120 0
7614 -11948 0
7614 -11950 0
7614 -11951 0
7614 -11952 0
11953 -10107 -11954 0
-11953 10107 0
-11953 11954 0
11955 -11928 -10122 0
-11955 11928 0
-11955 10122 0
11956 -11928 -11954 0
-11956 11928 0
-11956 11954 0
11957 -10107 -10122 -11932 0
-11957 10107 0
-11957 10122 0
-11957 11932 0
-7621 10123 11953 11955 11956 11957 0
7621 -10123 0
7621 -11953 0
7621 -11955 0
7621 -11956 0
7621 -11957 0
11958 -10116 -11954 0
-11958 10116 0
-11958 11954 0
11959 -11945 -11954 0
-11959 11945 0
-11959 11954 0
11960 -11945 -10122 0
-11960 11945 0
-11960 10122 0
11961 -10116 -10122 -11932 0
-11961 10116 0
-11961 10122 0
-11961 11932 0
-7628 10125 11958 11959 11960 11961 0
7628 -10125 0
7628 -11958 0
7628 -11959 0
7628 -11960 0
7628 -11961 0
11962 -10107 -11963 0
-11962 10107 0
-11962 11963 0
11964 -11928 -11963 0
-11964 11928 0
-11964 11963 0
11965 -11928 -10127 0
-11965 11928 0
-11965 10127 0
11966 -10107 -10127 -11932 0
-11966 10107 0
-11966 10127 0
-11966 11932 0
-7635 10128 11962 11964 11965 11966 0
7635 -10128 0
7635 -11962 0
7635 -11964 0
7635 -11965 0
7635 -11966 0
11967 -10107 -11968 0
-11967 10107 0
-11967 11968 0
11969 -11928 -10130 0
-11969 11928 0
-11969 10130 0
11970 -11928 -11968 0
-11970 11928 0
-11970 11968 0
11971 -10107 -10130 -11932 0
-11971 10107 0
-11971 10130 0
-11971 11932 0
-7642 10131 11967 11969 11970 11971 0
7642 -10131 0
7642 -11967 0
7642 -11969 0
7642 -11970 0
7642 -11971 0
11972 -10116 -11968 0
-11972 10116 0
-11972 11968 0
11973 -11945 -11968 0
-11973 11945 0
-11973 11968 0
11974 -11945 -10130 0
-11974 11945 0
-11974 10130 0
11975 -10116 -10130 -11932 0
-11975 10116 0
-11975 10130 0
-11975 11932 0
-7647 10133 11972 11973 11974 11975 0
7647 -10133 0
7647 -11972 0
7647 -11973 0
7647 -11974 0
7647 -11975 0
11976 -10110 -11945 0
-11976 10110 0
-11976 11945 0
11977 -11934 -10116 0
-11977 11934 0
-11977 10116 0
11978 -11934 -11945 0
-11978 11934 0
-11978 11945 0
11979 -10110 -10116 -11932 0
-11979 10110 0
-11979 10116 0
-11979 11932 0
-7625 10135 11976 11977 11978 11979 0
7625 -10135 0
7625 -11976 0
7625 -11977 0
7625 -11978 0
7625 -11979 0
11980 -10110 -11934 0
-11980 10110 0
-11980 11934 0
11981 -11934 -11934 0
-11981 11934 0
-11981 11934 0
11982 -11934 -10110 0
-11982 11934 0
-11982 10110 0
11983 -10110 -10110 -11932 0
-11983 10110 0
-11983 10110 0
-11983 11932 0
-7606 10137 11980 11981 11982 11983 0
7606 -10137 0
7606 -11980 0
7606 -11981 0
7606 -11982 0
7606 -11983 0
11984 -10110 -11949 0
-11984 10110 0
-11984 11949 0
11985 -11934 -11949 0
-11985 11934 0
-11985 11949 0
11986 -11934 -10119 0
-11986 11934 0
-11986 10119 0
11987 -10110 -10119 -11932 0
-11987 10110 0
-11987 10119 0
-11987 11932 0
-7609 10139 11984 11985 11986 11987 0
7609 -10139 0
7609 -11984 0
7609 -11985 0
7609 -11986 0
7609 -11987 0
11988 -10110 -11954 0
-11988 10110 0
-11988 11954 0
11989 -11934 -10122 0
-11989 11934 0
-11989 10122 0
11990 -11934 -11954 0
-11990 11934 0
-11990 11954 0
11991 -10110 -10122 -11932 0
-11991 10110 0
-11991 10122 0
-11991 11932 0
-7616 10141 11988 11989 11990 11991 0
7616 -10141 0
7616 -11988 0
7616 -11989 0
7616 -11990 0
7616 -11991 0
11992 -10113 -11954 0
-11992 10113 0
-11992 11954 0
11993 -11939 -11954 0
-11993 11939 0
-11993 11954 0
11994 -11939 -10122 0
-11994 11939 0
-11994 10122 0
11995 -10113 -10122 -11932 0
-11995 10113 0
-11995 10122 0
-11995 11932 0
-7618 10143 11992 11993 11994 11995 0
7618 -10143 0
7618 -11992 0
7618 -11993 0
7618 -11994 0
7618 -11995 0
11996 -10110 -11963 0
-11996 10110 0
-11996 11963 0
11997 -11934 -11963 0
-11997 11934 0
-11997 11963 0
11998 -11934 -10127 0
-11998 11934 0
-11998 10127 0
11999 -10110 -10127 -11932 0
-11999 10110 0
-11999 10127 0
-11999 11932 0
-7630 10145 11996 11997 11998 11999 0
7630 -10145 0
7630 -11996 0
7630 -11997 0
7630 -11998 0
7630 -11999 0
12000 -10110 -11968 0
-12000 10110 0
-12000 11968 0
12001 -11934 -10130 0
-12001 11934 0
-12001 10130 0
12002 -11934 -11968 0
-12002 11934 0
-12002 11968 0
12003 -10110 -10130 -11932 0
-12003 10110 0
-12003 10130 0
-12003 11932 0
-7637 10147 12000 12001 12002 12003 0
7637 -10147 0
7637 -12000 0
7637 -12001 0
7637 -12002 0
7637 -12003 0
12004 -10113 -11968 0
-12004 10113 0
-12004 11968 0
12005 -11939 -11968 0
-12005 11939 0
-12005 11968 0
12006 -11939 -10130 0
-12006 11939 0
-12006 10130 0
12007 -10113 -10130 -11932 0
-12007 10113 0
-12007 10130 0
-12007 11932 0
-7639 10149 12004 12005 12006 12007 0
7639 -10149 0
7639 -12004 0
7639 -12005 0
7639 -12006 0
7639 -12007 0
12008 -10119 -11945 0
-12008 10119 0
-12008 11945 0
12009 -11949 -10116 0
-12009 11949 0
-12009 10116 0
12010 -11949 -11945 0
-12010 11949 0
-12010 11945 0
12011 -10119 -10116 -11932 0
-12011 10119 0
-12011 10116 0
-12011 11932 0
-7652 10151 12008 12009 12010 12011 0
7652 -10151 0
7652 -12008 0
7652 -12009 0
7652 -12010 0
7652 -12011 0
12012 -10119 -11939 0
-12012 10119 0
-12012 11939 0
12013 -11949 -10113 0
-12013 11949 0
-12013 10113 0
12014 -11949 -11939 0
-12014 11949 0
-12014 11939 0
12015 -10119 -10113 -11932 0
-12015 10119 0
-12015 10113 0
-12015 11932 0
-7612 10153 12012 12013 12014 12015 0
7612 -10153 0
7612 -12012 0
7612 -12013 0
7612 -12014 0
7612 -12015 0
12016 -10119 -11949 0
-12016 10119 0
-12016 11949 0
12017 -11949 -11949 0
-12017 11949 0
-12017 11949 0
12018 -11949 -10119 0
-12018 11949 0
-12018 10119 0
12019 -10119 -10119 -11932 0
-12019 10119 0
-12019 10119 0
-12019 11932 0
-7657 10155 12016 12017 12018 12019 0
7657 -10155 0
7657 -12016 0
7657 -12017 0
7657 -12018 0
7657 -12019 0
12020 -10119 -11963 0
-12020 10119 0
-12020 11963 0
12021 -11949 -11963 0
-12021 11949 0
-12021 11963 0
12022 -11949 -10127 0
-12022 11949 0
-12022 10127 0
12023 -10119 -10127 -11932 0
-12023 10119 0
-12023 10127 0
-12023 11932 0
-7662 10157 12020 12021 12022 12023 0
7662 -10157 0
7662 -12020 0
7662 -12021 0
7662 -12022 0
7662 -12023 0
12024 -10119 -11968 0
-12024 10119 0
-12024 11968 0
12025 -11949 -10130 0
-12025 11949 0
-12025 10130 0
12026 -11949 -11968 0
-12026 11949 0
-12026 11968 0
12027 -10119 -10130 -11932 0
-12027 10119 0
-12027 10130 0
-12027 11932 0
-7667 10159 12024 12025 12026 12027 0
7667 -10159 0
7667 -12024 0
7667 -12025 0
7667 -12026 0
7667 -12027 0
12028 -10122 -11968 0
-12028 10122 0
-12028 11968 0
12029 -11954 -11968 0
-12029 11954 0
-12029 11968 0
12030 -11954 -10130 0
-12030 11954 0
-12030 10130 0
12031 -10122 -10130 -11932 0
-12031 10122 0
-12031 10130 0
-12031 11932 0
-7672 10161 12028 12029 12030 12031 0
7672 -10161 0
7672 -12028 0
7672 -12029 0
7672 -12030 0
7672 -12031 0
12032 -10127 -11945 0
-12032 10127 0
-12032 11945 0
12033 -11963 -10116 0
-12033 11963 0
-12033 10116 0
12034 -11963 -11945 0
-12034 11963 0
-12034 11945 0
12035 -10127 -10116 -11932 0
-12035 10127 0
-12035 10116 0
-12035 11932 0
-7677 10163 12032 12033 12034 12035 0
7677 -10163 0
7677 -12032 0
7677 -12033 0
7677 -12034 0
7677 -12035 0
12036 -10127 -11939 0
-12036 10127 0
-12036 11939 0
12037 -11963 -10113 0
-12037 11963 0
-12037 10113 0
12038 -11963 -11939 0
-12038 11963 0
-12038 11939 0
12039 -10127 -10113 -11932 0
-12039 10127 0
-12039 10113 0
-12039 11932 0
-7633 10165 12036 12037 12038 12039 0
7633 -10165 0
7633 -12036 0
7633 -12037 0
7633 -12038 0
7633 -12039 0
12040 -10127 -11954 0
-12040 10127 0
-12040 11954 0
12041 -11963 -10122 0
-12041 11963 0
-12041 10122 0
12042 -11963 -11954 0
-12042 11963 0
-12042 11954 0
12043 -10127 -10122 -11932 0
-12043 10127 0
-12043 10122 0
-12043 11932 0
-7682 10167 12040 12041 12042 12043 0
7682 -10167 0
7682 -12040 0
7682 -12041 0
7682 -12042 0
7682 -12043 0
12044 -10127 -11963 0
-12044 10127 0
-12044 11963 0
12045 -11963 -11963 0
-12045 11963 0
-12045 11963 0
12046 -11963 -10127 0
-12046 11963 0
-12046 10127 0
12047 -10127 -10127 -11932 0
-12047 10127 0
-12047 10127 0
-12047 11932 0
-7687 10169 12044 12045 12046 12047 0
7687 -10169 0
7687 -12044 0
7687 -12045 0
7687 -12046 0
7687 -12047 0
12048 -12049 -1211 0
-12048 12049 0
-12048 1211 0
12050 -1211 -1211 0
-12050 1211 0
-12050 1211 0
12051 -1211 -12049 0
-12051 1211 0
-12051 12049 0
12052 -12049 -12049 -1215 0
-12052 12049 0
-12052 12049 0
-12052 1215 0
-10177 1201 12048 12050 12051 12052 0
10177 -1201 0
10177 -12048 0
10177 -12050 0
10177 -12051 0
10177 -12052 0
12053 -12049 -1212 0
-12053 12049 0
-12053 1212 0
12054 -1211 -1212 0
-12054 1211 0
-12054 1212 0
12055 -1211 -12056 0
-12055 1211 0
-12055 12056 0
12057 -12049 -12056 -1215 0
-12057 12049 0
-12057 12056 0
-12057 1215 0
-10184 1202 12053 12054 12055 12057 0
10184 -1202 0
10184 -12053 0
10184 -12054 0
10184 -12055 0
10184 -12057 0
12058 -12049 -12059 0
-12058 12049 0
-12058 12059 0
12060 -1211 -12061 0
-12060 1211 0
-12060 12061 0
12062 -1211 -12059 0
-12062 1211 0
-12062 12059 0
12063 -12049 -12061 -1215 0
-12063 12049 0
-12063 12061 0
-12063 1215 0
-10191 12064 12058 12060 12062 12063 0
10191 -12064 0
10191 -12058 0
10191 -12060 0
10191 -12062 0
10191 -12063 0
12065 -12066 -12059 0
-12065 12066 0
-12065 12059 0
12067 -12068 -12059 0
-12067 12068 0
-12067 12059 0
12069 -12068 -12061 0
-12069 12068 0
-12069 12061 0
12070 -12066 -12061 -1215 0
-12070 12066 0
-12070 12061 0
-12070 1215 0
-10198 12071 12065 12067 12069 12070 0
10198 -12071 0
10198 -12065 0
10198 -12067 0
10198 -12069 0
10198 -12070 0
12072 -12049 -1213 0
-12072 12049 0
-12072 1213 0
12073 -1211 -1213 0
-12073 1211 0
-12073 1213 0
12074 -1211 -12075 0
-12074 1211 0
-12074 12075 0
12076 -12049 -12075 -1215 0
-12076 12049 0
-12076 12075 0
-12076 1215 0
-10172 1204 12072 12073 12074 12076 0
10172 -1204 0
10172 -12072 0
10172 -12073 0
10172 -12074 0
10172 -12076 0
12077 -12049 -12078 0
-12077 12049 0
-12077 12078 0
12079 -1211 -12080 0
-12079 1211 0
-12079 12080 0
12081 -1211 -12078 0
-12081 1211 0
-12081 12078 0
12082 -12049 -12080 -1215 0
-12082 12049 0
-12082 12080 0
-12082 1215 0
-10171 12083 12077 12079 12081 12082 0
10171 -12083 0
10171 -12077 0
10171 -12079 0
10171 -12081 0
10171 -12082 0
12084 -12066 -12078 0
-12084 12066 0
-12084 12078 0
12085 -12068 -12078 0
-12085 12068 0
-12085 12078 0
12086 -12068 -12080 0
-12086 12068 0
-12086 12080 0
12087 -12066 -12080 -1215 0
-12087 12066 0
-12087 12080 0
-12087 1215 0
-10193 12088 12084 12085 12086 12087 0
10193 -12088 0
10193 -12084 0
10193 -12085 0
10193 -12086 0
10193 -12087 0
12089 -12049 -1214 0
-12089 12049 0
-12089 1214 0
12090 -1211 -1214 0
-12090 1211 0
-12090 1214 0
12091 -1211 -12092 0
-12091 1211 0
-12091 12092 0
12093 -12049 -12092 -1215 0
-12093 12049 0
-12093 12092 0
-12093 1215 0
-10205 1207 12089 12090 12091 12093 0
10205 -1207 0
10205 -12089 0
10205 -12090 0
10205 -12091 0
10205 -12093 0
12094 -12049 -12095 0
-12094 12049 0
-12094 12095 0
12096 -1211 -12097 0
-12096 1211 0
-12096 12097 0
12098 -1211 -12095 0
-12098 1211 0
-12098 12095 0
12099 -12049 -12097 -1215 0
-12099 12049 0
-12099 12097 0
-12099 1215 0
-10212 12100 12094 12096 12098 12099 0
10212 -12100 0
10212 -12094 0
10212 -12096 0
10212 -12098 0
10212 -12099 0
12101 -12066 -12095 0
-12101 12066 0
-12101 12095 0
12102 -12068 -12095 0
-12102 12068 0
-12102 12095 0
12103 -12068 -12097 0
-12103 12068 0
-12103 12097 0
12104 -12066 -12097 -1215 0
-12104 12066 0
-12104 12097 0
-12104 1215 0
-10217 12105 12101 12102 12103 12104 0
10217 -12105 0
10217 -12101 0
10217 -12102 0
10217 -12103 0
10217 -12104 0
12106 -12049 -1220 0
-12106 12049 0
-12106 1220 0
12107 -1211 -1220 0
-12107 1211 0
-12107 1220 0
12108 -1211 -12109 0
-12108 1211 0
-12108 12109 0
12110 -12049 -12109 -1215 0
-12110 12049 0
-12110 12109 0
-12110 1215 0
-10224 1216 12106 12107 12108 12110 0
10224 -1216 0
10224 -12106 0
10224 -12107 0
10224 -12108 0
10224 -12110 0
12111 -12049 -12112 0
-12111 12049 0
-12111 12112 0
12113 -1211 -12114 0
-12113 1211 0
-12113 12114 0
12115 -1211 -12112 0
-12115 1211 0
-12115 12112 0
12116 -12049 -12114 -1215 0
-12116 12049 0
-12116 12114 0
-12116 1215 0
-10231 12117 12111 12113 12115 12116 0
10231 -12117 0
10231 -12111 0
10231 -12113 0
10231 -12115 0
10231 -12116 0
12118 -12066 -12112 0
-12118 12066 0
-12118 12112 0
12119 -12068 -12112 0
-12119 12068 0
-12119 12112 0
12120 -12068 -12114 0
-12120 12068 0
-12120 12114 0
12121 -12066 -12114 -1215 0
-12121 12066 0
-12121 12114 0
-12121 1215 0
-10236 12122 12118 12119 12120 12121 0
10236 -12122 0
10236 -12118 0
10236 -12119 0
10236 -12120 0
10236 -12121 0
12123 -12056 -12068 0
-12123 12056 0
-12123 12068 0
12124 -1212 -12066 0
-12124 1212 0
-12124 12066 0
12125 -1212 -12068 0
-12125 1212 0
-12125 12068 0
12126 -12056 -12066 -1215 0
-12126 12056 0
-12126 12066 0
-12126 1215 0
-10241 12127 12123 12124 12125 12126 0
10241 -12127 0
10241 -12123 0
10241 -12124 0
10241 -12125 0
10241 -12126 0
12128 -12056 -1212 0
-12128 12056 0
-12128 1212 0
12129 -1212 -1212 0
-12129 1212 0
-12129 1212 0
12130 -1212 -12056 0
-12130 1212 0
-12130 12056 0
12131 -12056 -12056 -1215 0
-12131 12056 0
-12131 12056 0
-12131 1215 0
-10246 1203 12128 12129 12130 12131 0
10246 -1203 0
10246 -12128 0
10246 -12129 0
10246 -12130 0
10246 -12131 0
12132 -12056 -1213 0
-12132 12056 0
-12132 1213 0
12133 -1212 -1213 0
-12133 1212 0
-12133 1213 0
12134 -1212 -12075 0
-12134 1212 0
-12134 12075 0
12135 -12056 -12075 -1215 0
-12135 12056 0
-12135 12075 0
-12135 1215 0
-10179 1205 12132 12133 12134 12135 0
10179 -1205 0
10179 -12132 0
10179 -12133 0
10179 -12134 0
10179 -12135 0
12136 -12056 -12078 0
-12136 12056 0
-12136 12078 0
12137 -1212 -12080 0
-12137 1212 0
-12137 12080 0
12138 -1212 -12078 0
-12138 1212 0
-12138 12078 0
12139 -12056 -12080 -1215 0
-12139 12056 0
-12139 12080 0
-12139 1215 0
-10182 12140 12136 12137 12138 12139 0
10182 -12140 0
10182 -12136 0
10182 -12137 0
10182 -12138 0
10182 -12139 0
12141 -12061 -12078 0
-12141 12061 0
-12141 12078 0
12142 -12059 -12078 0
-12142 12059 0
-12142 12078 0
12143 -12059 -12080 0
-12143 12059 0
-12143 12080 0
12144 -12061 -12080 -1215 0
-12144 12061 0
-12144 12080 0
-12144 1215 0
-10188 12145 12141 12142 12143 12144 0
10188 -12145 0
10188 -12141 0
10188 -12142 0
10188 -12143 0
10188 -12144 0
12146 -12056 -1214 0
-12146 12056 0
-12146 1214 0
12147 -1212 -1214 0
-12147 1212 0
-12147 1214 0
12148 -1212 -12092 0
-12148 1212 0
-12148 12092 0
12149 -12056 -12092 -1215 0
-12149 12056 0
-12149 12092 0
-12149 1215 0
-10251 1208 12146 12147 12148 12149 0
10251 -1208 0
10251 -12146 0
10251 -12147 0
10251 -12148 0
10251 -12149 0
12150 -12056 -12095 0
-12150 12056 0
-12150 12095 0
12151 -1212 -12097 0
-12151 1212 0
-12151 12097 0
12152 -1212 -12095 0
-12152 1212 0
-12152 12095 0
12153 -12056 -12097 -1215 0
-12153 12056 0
-12153 12097 0
-12153 1215 0
-10256 12154 12150 12151 12152 12153 0
10256 -12154 0
10256 -12150 0
10256 -12151 0
10256 -12152 0
10256 -12153 0
12155 -12061 -12095 0
-12155 12061 0
-12155 12095 0
12156 -12059 -12095 0
-12156 12059 0
-12156 12095 0
12157 -12059 -12097 0
-12157 12059 0
-12157 12097 0
12158 -12061 -12097 -1215 0
-12158 12061 0
-12158 12097 0
-12158 1215 0
-10261 12159 12155 12156 12157 12158 0
10261 -12159 0
10261 -12155 0
10261 -12156 0
10261 -12157 0
10261 -12158 0
12160 -12056 -1220 0
-12160 12056 0
-12160 1220 0
12161 -1212 -1220 0
-12161 1212 0
-12161 1220 0
12162 -1212 -12109 0
-12162 1212 0
-12162 12109 0
12163 -12056 -12109 -1215 0
-12163 12056 0
-12163 12109 0
-12163 1215 0
-10266 1217 12160 12161 12162 12163 0
10266 -1217 0
10266 -12160 0
10266 -12161 0
10266 -12162 0
10266 -12163 0
12164 -12056 -12112 0
-12164 12056 0
-12164 12112 0
12165 -1212 -12114 0
-12165 1212 0
-12165 12114 0
12166 -1212 -12112 0
-12166 1212 0
-12166 12112 0
12167 -12056 -12114 -1215 0
-12167 12056 0
-12167 12114 0
-12167 1215 0
-10271 12168 12164 12165 12166 12167 0
10271 -12168 0
10271 -12164 0
10271 -12165 0
10271 -12166 0
10271 -12167 0
12169 -12061 -12112 0
-12169 12061 0
-12169 12112 0
12170 -12059 -12112 0
-12170 12059 0
-12170 12112 0
12171 -12059 -12114 0
-12171 12059 0
-12171 12114 0
12172 -12061 -12114 -1215 0
-12172 12061 0
-12172 12114 0
-12172 1215 0
-10276 12173 12169 12170 12171 12172 0
10276 -12173 0
10276 -12169 0
10276 -12170 0
10276 -12171 0
10276 -12172 0
12174 -12075 -12068 0
-12174 12075 0
-12174 12068 0
12175 -1213 -12066 0
-12175 1213 0
-12175 12066 0
12176 -1213 -12068 0
-12176 1213 0
-12176 12068 0
12177 -12075 -12066 -1215 0
-12177 12075 0
-12177 12066 0
-12177 1215 0
-10195 12178 12174 12175 12176 12177 0
10195 -12178 0
10195 -12174 0
10195 -12175 0
10195 -12176 0
10195 -12177 0
12179 -12075 -12059 0
-12179 12075 0
-12179 12059 0
12180 -1213 -12061 0
-12180 1213 0
-12180 12061 0
12181 -1213 -12059 0
-12181 1213 0
-12181 12059 0
12182 -12075 -12061 -1215 0
-12182 12075 0
-12182 12061 0
-12182 1215 0
-10186 12183 12179 12180 12181 12182 0
10186 -12183 0
10186 -12179 0
10186 -12180 0
10186 -12181 0
10186 -12182 0
12184 -12075 -1213 0
-12184 12075 0
-12184 1213 0
12185 -1213 -1213 0
-12185 1213 0
-12185 1213 0
12186 -1213 -12075 0
-12186 1213 0
-12186 12075 0
12187 -12075 -12075 -1215 0
-12187 12075 0
-12187 12075 0
-12187 1215 0
-10176 1206 12184 12185 12186 12187 0
10176 -1206 0
10176 -12184 0
10176 -12185 0
10176 -12186 0
10176 -12187 0
12188 -12075 -1214 0
-12188 12075 0
-12188 1214 0
12189 -1213 -1214 0
-12189 1213 0
-12189 1214 0
12190 -1213 -12092 0
-12190 1213 0
-12190 12092 0
12191 -12075 -12092 -1215 0
-12191 12075 0
-12191 12092 0
-12191 1215 0
-10200 1209 12188 12189 12190 12191 0
10200 -1209 0
10200 -12188 0
10200 -12189 0
10200 -12190 0
10200 -12191 0
12192 -12075 -12095 0
-12192 12075 0
-12192 12095 0
12193 -1213 -12097 0
-12193 1213 0
-12193 12097 0
12194 -1213 -12095 0
-12194 1213 0
-12194 12095 0
12195 -12075 -12097 -1215 0
-12195 12075 0
-12195 12097 0
-12195 1215 0
-10207 12196 12192 12193 12194 12195 0
10207 -12196 0
10207 -12192 0
10207 -12193 0
10207 -12194 0
10207 -12195 0
12197 -12080 -12095 0
-12197 12080 0
-12197 12095 0
12198 -12078 -12095 0
-12198 12078 0
-12198 12095 0
12199 -12078 -12097 0
-12199 12078 0
-12199 12097 0
12200 -12080 -12097 -1215 0
-12200 12080 0
-12200 12097 0
-12200 1215 0
-10209 12201 12197 12198 12199 12200 0
10209 -12201 0
10209 -12197 0
10209 -12198 0
10209 -12199 0
10209 -12200 0
12202 -12075 -1220 0
-12202 12075 0
-12202 1220 0
12203 -1213 -1220 0
-12203 1213 0
-12203 1220 0
12204 -1213 -12109 0
-12204 1213 0
-12204 12109 0
12205 -12075 -12109 -1215 0
-12205 12075 0
-12205 12109 0
-12205 1215 0
-10219 1218 12202 12203 12204 12205 0
10219 -1218 0
10219 -12202 0
10219 -12203 0
10219 -12204 0
10219 -12205 0
12206 -12075 -12112 0
-12206 12075 0
-12206 12112 0
12207 -1213 -12114 0
-12207 1213 0
-12207 12114 0
12208 -1213 -12112 0
-12208 1213 0
-12208 12112 0
12209 -12075 -12114 -1215 0
-12209 12075 0
-12209 12114 0
-12209 1215 0
-10226 12210 12206 12207 12208 12209 0
10226 -12210 0
10226 -12206 0
10226 -12207 0
10226 -12208 0
10226 -12209 0
12211 -12080 -12112 0
-12211 12080 0
-12211 12112 0
12212 -12078 -12112 0
-12212 12078 0
-12212 12112 0
12213 -12078 -12114 0
-12213 12078 0
-12213 12114 0
12214 -12080 -12114 -1215 0
-12214 12080 0
-12214 12114 0
-12214 1215 0
-10228 12215 12211 12212 12213 12214 0
10228 -12215 0
10228 -12211 0
10228 -12212 0
10228 -12213 0
10228 -12214 0
12216 -12092 -12068 0
-12216 12092 0
-12216 12068 0
12217 -1214 -12066 0
-12217 1214 0
-12217 12066 0
12218 -1214 -12068 0
-12218 1214 0
-12218 12068 0
12219 -12092 -12066 -1215 0
-12219 12092 0
-12219 12066 0
-12219 1215 0
-10281 12220 12216 12217 12218 12219 0
10281 -12220 0
10281 -12216 0
10281 -12217 0
10281 -12218 0
10281 -12219 0
12221 -12092 -12059 0
-12221 12092 0
-12221 12059 0
12222 -1214 -12061 0
-12222 1214 0
-12222 12061 0
12223 -1214 -12059 0
-12223 1214 0
-12223 12059 0
12224 -12092 -12061 -1215 0
-12224 12092 0
-12224 12061 0
-12224 1215 0
-10286 12225 12221 12222 12223 12224 0
10286 -12225 0
10286 -12221 0
10286 -12222 0
10286 -12223 0
10286 -12224 0
12226 -12092 -12078 0
-12226 12092 0
-12226 12078 0
12227 -1214 -12080 0
-12227 1214 0
-12227 12080 0
12228 -1214 -12078 0
-12228 1214 0
-12228 12078 0
12229 -12092 -12080 -1215 0
-12229 12092 0
-12229 12080 0
-12229 1215 0
-10203 12230 12226 12227 12228 12229 0
10203 -12230 0
10203 -12226 0
10203 -12227 0
10203 -12228 0
10203 -12229 0
12231 -12092 -1214 0
-12231 12092 0
-12231 1214 0
12232 -1214 -1214 0
-12232 1214 0
-12232 1214 0
12233 -1214 -12092 0
-12233 1214 0
-12233 12092 0
12234 -12092 -12092 -1215 0
-12234 12092 0
-12234 12092 0
-12234 1215 0
-10291 1210 12231 12232 12233 12234 0
10291 -1210 0
10291 -12231 0
10291 -12232 0
10291 -12233 0
10291 -12234 0
12235 -12092 -1220 0
-12235 12092 0
-12235 1220 0
12236 -1214 -1220 0
-12236 1214 0
-12236 1220 0
12237 -1214 -12109 0
-12237 1214 0
-12237 12109 0
12238 -12092 -12109 -1215 0
-12238 12092 0
-12238 12109 0
-12238 1215 0
-10296 1219 12235 12236 12237 12238 0
10296 -1219 0
10296 -12235 0
10296 -12236 0
10296 -12237 0
10296 -12238 0
12239 -12092 -12112 0
-12239 12092 0
-12239 12112 0
12240 -1214 -12114 0
-12240 1214 0
-12240 12114 0
12241 -1214 -12112 0
-12241 1214 0
-12241 12112 0
12242 -12092 -12114 -1215 0
-12242 12092 0
-12242 12114 0
-12242 1215 0
-10301 12243 12239 12240 12241 12242 0
10301 -12243 0
10301 -12239 0
10301 -12240 0
10301 -12241 0
10301 -12242 0
12244 -12097 -12112 0
-12244 12097 0
-12244 12112 0
12245 -12095 -12112 0
-12245 12095 0
-12245 12112 0
12246 -12095 -12114 0
-12246 12095 0
-12246 12114 0
12247 -12097 -12114 -1215 0
-12247 12097 0
-12247 12114 0
-12247 1215 0
-10306 12248 12244 12245 12246 12247 0
10306 -12248 0
10306 -12244 0
10306 -12245 0
10306 -12246 0
10306 -12247 0
12249 -12109 -12068 0
-12249 12109 0
-12249 12068 0
12250 -1220 -12066 0
-12250 1220 0
-12250 12066 0
12251 -1220 -12068 0
-12251 1220 0
-12251 12068 0
12252 -12109 -12066 -1215 0
-12252 12109 0
-12252 12066 0
-12252 1215 0
-10311 12253 12249 12250 12251 12252 0
10311 -12253 0
10311 -12249 0
10311 -12250 0
10311 -12251 0
10311 -12252 0
12254 -12109 -12059 0
-12254 12109 0
-12254 12059 0
12255 -1220 -12061 0
-12255 1220 0
-12255 12061 0
12256 -1220 -12059 0
-12256 1220 0
-12256 12059 0
12257 -12109 -12061 -1215 0
-12257 12109 0
-12257 12061 0
-12257 1215 0
-10316 12258 12254 12255 12256 12257 0
10316 -12258 0
10316 -12254 0
10316 -12255 0
10316 -12256 0
10316 -12257 0
12259 -12109 -12078 0
-12259 12109 0
-12259 12078 0
12260 -1220 -12080 0
-12260 1220 0
-12260 12080 0
12261 -1220 -12078 0
-12261 1220 0
-12261 12078 0
12262 -12109 -12080 -1215 0
-12262 12109 0
-12262 12080 0
-12262 1215 0
-10222 12263 12259 12260 12261 12262 0
10222 -12263 0
10222 -12259 0
10222 -12260 0
10222 -12261 0
10222 -12262 0
12264 -12109 -12095 0
-12264 12109 0
-12264 12095 0
12265 -1220 -12097 0
-12265 1220 0
-12265 12097 0
12266 -1220 -12095 0
-12266 1220 0
-12266 12095 0
12267 -12109 -12097 -1215 0
-12267 12109 0
-12267 12097 0
-12267 1215 0
-10321 12268 12264 12265 12266 12267 0
10321 -12268 0
10321 -12264 0
10321 -12265 0
10321 -12266 0
10321 -12267 0
12269 -12109 -1220 0
-12269 12109 0
-12269 1220 0
12270 -1220 -1220 0
-12270 1220 0
-12270 1220 0
12271 -1220 -12109 0
-12271 1220 0
-12271 12109 0
12272 -12109 -12109 -1215 0
-12272 12109 0
-12272 12109 0
-12272 1215 0
-10326 1221 12269 12270 12271 12272 0
10326 -1221 0
10326 -12269 0
10326 -12270 0
10326 -12271 0
10326 -12272 0
12273 -12100 -1207 0
-12273 12100 0
-12273 1207 0
12274 -1207 -1207 0
-12274 1207 0
-12274 1207 0
12275 -1207 -12100 0
-12275 1207 0
-12275 12100 0
12276 -12100 -12100 -1210 0
-12276 12100 0
-12276 12100 0
-12276 1210 0
-11301 1201 12273 12274 12275 12276 0
11301 -1201 0
11301 -12273 0
11301 -12274 0
11301 -12275 0
11301 -12276 0
12277 -12100 -1208 0
-12277 12100 0
-12277 1208 0
12278 -1207 -1208 0
-12278 1207 0
-12278 1208 0
12279 -1207 -12154 0
-12279 1207 0
-12279 12154 0
12280 -12100 -12154 -1210 0
-12280 12100 0
-12280 12154 0
-12280 1210 0
-11304 1202 12277 12278 12279 12280 0
11304 -1202 0
11304 -12277 0
11304 -12278 0
11304 -12279 0
11304 -12280 0
12281 -12100 -12225 0
-12281 12100 0
-12281 12225 0
12282 -1207 -12159 0
-12282 1207 0
-12282 12159 0
12283 -1207 -12225 0
-12283 1207 0
-12283 12225 0
12284 -12100 -12159 -1210 0
-12284 12100 0
-12284 12159 0
-12284 1210 0
-11307 12064 12281 12282 12283 12284 0
11307 -12064 0
11307 -12281 0
11307 -12282 0
11307 -12283 0
11307 -12284 0
12285 -12105 -12225 0
-12285 12105 0
-12285 12225 0
12286 -12220 -12225 0
-12286 12220 0
-12286 12225 0
12287 -12220 -12159 0
-12287 12220 0
-12287 12159 0
12288 -12105 -12159 -1210 0
-12288 12105 0
-12288 12159 0
-12288 1210 0
-11310 12071 12285 12286 12287 12288 0
11310 -12071 0
11310 -12285 0
11310 -12286 0
11310 -12287 0
11310 -12288 0
12289 -12100 -1209 0
-12289 12100 0
-12289 1209 0
12290 -1207 -1209 0
-12290 1207 0
-12290 1209 0
12291 -1207 -12196 0
-12291 1207 0
-12291 12196 0
12292 -12100 -12196 -1210 0
-12292 12100 0
-12292 12196 0
-12292 1210 0
-11420 1204 12289 12290 12291 12292 0
11420 -1204 0
11420 -12289 0
11420 -12290 0
11420 -12291 0
11420 -12292 0
12293 -12100 -12230 0
-12293 12100 0
-12293 12230 0
12294 -1207 -12201 0
-12294 1207 0
-12294 12201 0
12295 -1207 -12230 0
-12295 1207 0
-12295 12230 0
12296 -12100 -12201 -1210 0
-12296 12100 0
-12296 12201 0
-12296 1210 0
-11300 12083 12293 12294 12295 12296 0
11300 -12083 0
11300 -12293 0
11300 -12294 0
11300 -12295 0
11300 -12296 0
12297 -12105 -12230 0
-12297 12105 0
-12297 12230 0
12298 -12220 -12230 0
-12298 12220 0
-12298 12230 0
12299 -12220 -12201 0
-12299 12220 0
-12299 12201 0
12300 -12105 -12201 -1210 0
-12300 12105 0
-12300 12201 0
-12300 1210 0
-11309 12088 12297 12298 12299 12300 0
11309 -12088 0
11309 -12297 0
11309 -12298 0
11309 -12299 0
11309 -12300 0
12301 -12100 -1214 0
-12301 12100 0
-12301 1214 0
12302 -1207 -1214 0
-12302 1207 0
-12302 1214 0
12303 -1207 -12095 0
-12303 1207 0
-12303 12095 0
12304 -12100 -12095 -1210 0
-12304 12100 0
-12304 12095 0
-12304 1210 0
-11313 1211 12301 12302 12303 12304 0
11313 -1211 0
11313 -12301 0
11313 -12302 0
11313 -12303 0
11313 -12304 0
12305 -12100 -12092 0
-12305 12100 0
-12305 12092 0
12306 -1207 -12097 0
-12306 1207 0
-12306 12097 0
12307 -1207 -12092 0
-12307 1207 0
-12307 12092 0
12308 -12100 -12097 -1210 0
-12308 12100 0
-12308 12097 0
-12308 1210 0
-11316 12049 12305 12306 12307 12308 0
11316 -12049 0
11316 -12305 0
11316 -12306 0
11316 -12307 0
11316 -12308 0
12309 -12105 -12092 0
-12309 12105 0
-12309 12092 0
12310 -12220 -12092 0
-12310 12220 0
-12310 12092 0
12311 -12220 -12097 0
-12311 12220 0
-12311 12097 0
12312 -12105 -12097 -1210 0
-12312 12105 0
-12312 12097 0
-12312 1210 0
-11318 12066 12309 12310 12311 12312 0
11318 -12066 0
11318 -12309 0
11318 -12310 0
11318 -12311 0
11318 -12312 0
12313 -12100 -1219 0
-12313 12100 0
-12313 1219 0
12314 -1207 -1219 0
-12314 1207 0
-12314 1219 0
12315 -1207 -12268 0
-12315 1207 0
-12315 12268 0
12316 -12100 -12268 -1210 0
-12316 12100 0
-12316 12268 0
-12316 1210 0
-11321 1216 12313 12314 12315 12316 0
11321 -1216 0
11321 -12313 0
11321 -12314 0
11321 -12315 0
11321 -12316 0
12317 -12100 -12243 0
-12317 12100 0
-12317 12243 0
12318 -1207 -12248 0
-12318 1207 0
-12318 12248 0
12319 -1207 -12243 0
-12319 1207 0
-12319 12243 0
12320 -12100 -12248 -1210 0
-12320 12100 0
-12320 12248 0
-12320 1210 0
-11324 12117 12317 12318 12319 12320 0
11324 -12117 0
11324 -12317 0
11324 -12318 0
11324 -12319 0
11324 -12320 0
12321 -12105 -12243 0
-12321 12105 0
-12321 12243 0
12322 -12220 -12243 0
-12322 12220 0
-12322 12243 0
12323 -12220 -12248 0
-12323 12220 0
-12323 12248 0
12324 -12105 -12248 -1210 0
-12324 12105 0
-12324 12248 0
-12324 1210 0
-11326 12122 12321 12322 12323 12324 0
11326 -12122 0
11326 -12321 0
11326 -12322 0
11326 -12323 0
11326 -12324 0
12325 -12154 -12220 0
-12325 12154 0
-12325 12220 0
12326 -1208 -12105 0
-12326 1208 0
-12326 12105 0
12327 -1208 -12220 0
-12327 1208 0
-12327 12220 0
12328 -12154 -12105 -1210 0
-12328 12154 0
-12328 12105 0
-12328 1210 0
-11328 12127 12325 12326 12327 12328 0
11328 -12127 0
11328 -12325 0
11328 -12326 0
11328 -12327 0
11328 -12328 0
12329 -12154 -1208 0
-12329 12154 0
-12329 1208 0
12330 -1208 -1208 0
-12330 1208 0
-12330 1208 0
12331 -1208 -12154 0
-12331 1208 0
-12331 12154 0
12332 -12154 -12154 -1210 0
-12332 12154 0
-12332 12154 0
-12332 1210 0
-11330 1203 12329 12330 12331 12332 0
11330 -1203 0
11330 -12329 0
11330 -12330 0
11330 -12331 0
11330 -12332 0
12333 -12154 -1209 0
-12333 12154 0
-12333 1209 0
12334 -1208 -1209 0
-12334 1208 0
-12334 1209 0
12335 -1208 -12196 0
-12335 1208 0
-12335 12196 0
12336 -12154 -12196 -1210 0
-12336 12154 0
-12336 12196 0
-12336 1210 0
-11426 1205 12333 12334 12335 12336 0
11426 -1205 0
11426 -12333 0
11426 -12334 0
11426 -12335 0
11426 -12336 0
12337 -12154 -12230 0
-12337 12154 0
-12337 12230 0
12338 -1208 -12201 0
-12338 1208 0
-12338 12201 0
12339 -1208 -12230 0
-12339 1208 0
-12339 12230 0
12340 -12154 -12201 -1210 0
-12340 12154 0
-12340 12201 0
-12340 1210 0
-11303 12140 12337 12338 12339 12340 0
11303 -12140 0
11303 -12337 0
11303 -12338 0
11303 -12339 0
11303 -12340 0
12341 -12159 -12230 0
-12341 12159 0
-12341 12230 0
12342 -12225 -12230 0
-12342 12225 0
-12342 12230 0
12343 -12225 -12201 0
-12343 12225 0
-12343 12201 0
12344 -12159 -12201 -1210 0
-12344 12159 0
-12344 12201 0
-12344 1210 0
-11306 12145 12341 12342 12343 12344 0
11306 -12145 0
11306 -12341 0
11306 -12342 0
11306 -12343 0
11306 -12344 0
12345 -12154 -1214 0
-12345 12154 0
-12345 1214 0
12346 -1208 -1214 0
-12346 1208 0
-12346 1214 0
12347 -1208 -12095 0
-12347 1208 0
-12347 12095 0
12348 -12154 -12095 -1210 0
-12348 12154 0
-12348 12095 0
-12348 1210 0
-11332 1212 12345 12346 12347 12348 0
11332 -1212 0
11332 -12345 0
11332 -12346 0
11332 -12347 0
11332 -12348 0
12349 -12154 -12092 0
-12349 12154 0
-12349 12092 0
12350 -1208 -12097 0
-12350 1208 0
-12350 12097 0
12351 -1208 -12092 0
-12351 1208 0
-12351 12092 0
12352 -12154 -12097 -1210 0
-12352 12154 0
-12352 12097 0
-12352 1210 0
-11334 12056 12349 12350 12351 12352 0
11334 -12056 0
11334 -12349 0
11334 -12350 0
11334 -12351 0
11334 -12352 0
12353 -12159 -12092 0
-12353 12159 0
-12353 12092 0
12354 -12225 -12092 0
-12354 12225 0
-12354 12092 0
12355 -12225 -12097 0
-12355 12225 0
-12355 12097 0
12356 -12159 -12097 -1210 0
-12356 12159 0
-12356 12097 0
-12356 1210 0
-11336 12061 12353 12354 12355 12356 0
11336 -12061 0
11336 -12353 0
11336 -12354 0
11336 -12355 0
11336 -12356 0
12357 -12154 -1219 0
-12357 12154 0
-12357 1219 0
12358 -1208 -1219 0
-12358 1208 0
-12358 1219 0
12359 -1208 -12268 0
-12359 1208 0
-12359 12268 0
12360 -12154 -12268 -1210 0
-12360 12154 0
-12360 12268 0
-12360 1210 0
-11338 1217 12357 12358 12359 12360 0
11338 -1217 0
11338 -12357 0
11338 -12358 0
11338 -12359 0
11338 -12360 0
12361 -12154 -12243 0
-12361 12154 0
-12361 12243 0
12362 -1208 -12248 0
-12362 1208 0
-12362 12248 0
12363 -1208 -12243 0
-12363 1208 0
-12363 12243 0
12364 -12154 -12248 -1210 0
-12364 12154 0
-12364 12248 0
-12364 1210 0
-11340 12168 12361 12362 12363 12364 0
11340 -12168 0
11340 -12361 0
11340 -12362 0
11340 -12363 0
11340 -12364 0
12365 -12159 -12243 0
-12365 12159 0
-12365 12243 0
12366 -12225 -12243 0
-12366 12225 0
-12366 12243 0
12367 -12225 -12248 0
-12367 12225 0
-12367 12248 0
12368 -12159 -12248 -1210 0
-12368 12159 0
-12368 12248 0
-12368 1210 0
-11342 12173 12365 12366 12367 12368 0
11342 -12173 0
11342 -12365 0
11342 -12366 0
11342 -12367 0
11342 -12368 0
12369 -12196 -12220 0
-12369 12196 0
-12369 12220 0
12370 -1209 -12105 0
-12370 1209 0
-12370 12105 0
12371 -1209 -12220 0
-12371 1209 0
-12371 12220 0
12372 -12196 -12105 -1210 0
-12372 12196 0
-12372 12105 0
-12372 1210 0
-11437 12178 12369 12370 12371 12372 0
11437 -12178 0
11437 -12369 0
11437 -12370 0
11437 -12371 0
11437 -12372 0
12373 -12196 -12225 0
-12373 12196 0
-12373 12225 0
12374 -1209 -12159 0
-12374 1209 0
-12374 12159 0
12375 -1209 -12225 0
-12375 1209 0
-12375 12225 0
12376 -12196 -12159 -1210 0
-12376 12196 0
-12376 12159 0
-12376 1210 0
-11431 12183 12373 12374 12375 12376 0
11431 -12183 0
11431 -12373 0
11431 -12374 0
11431 -12375 0
11431 -12376 0
12377 -12196 -1209 0
-12377 12196 0
-12377 1209 0
12378 -1209 -1209 0
-12378 1209 0
-12378 1209 0
12379 -1209 -12196 0
-12379 1209 0
-12379 12196 0
12380 -12196 -12196 -1210 0
-12380 12196 0
-12380 12196 0
-12380 1210 0
-11424 1206 12377 12378 12379 12380 0
11424 -1206 0
11424 -12377 0
11424 -12378 0
11424 -12379 0
11424 -12380 0
12381 -12196 -1214 0
-12381 12196 0
-12381 1214 0
12382 -1209 -1214 0
-12382 1209 0
-12382 1214 0
12383 -1209 -12095 0
-12383 1209 0
-12383 12095 0
12384 -12196 -12095 -1210 0
-12384 12196 0
-12384 12095 0
-12384 1210 0
-11441 1213 12381 12382 12383 12384 0
11441 -1213 0
11441 -12381 0
11441 -12382 0
11441 -12383 0
11441 -12384 0
12385 -12196 -12092 0
-12385 12196 0
-12385 12092 0
12386 -1209 -12097 0
-12386 1209 0
-12386 12097 0
12387 -1209 -12092 0
-12387 1209 0
-12387 12092 0
12388 -12196 -12097 -1210 0
-12388 12196 0
-12388 12097 0
-12388 1210 0
-11446 12075 12385 12386 12387 12388 0
11446 -12075 0
11446 -12385 0
11446 -12386 0
11446 -12387 0
11446 -12388 0
12389 -12201 -12092 0
-12389 12201 0
-12389 12092 0
12390 -12230 -12092 0
-12390 12230 0
-12390 12092 0
12391 -12230 -12097 0
-12391 12230 0
-12391 12097 0
12392 -12201 -12097 -1210 0
-12392 12201 0
-12392 12097 0
-12392 1210 0
-11315 12080 12389 12390 12391 12392 0
11315 -12080 0
11315 -12389 0
11315 -12390 0
11315 -12391 0
11315 -12392 0
12393 -12196 -1219 0
-12393 12196 0
-12393 1219 0
12394 -1209 -1219 0
-12394 1209 0
-12394 1219 0
12395 -1209 -12268 0
-12395 1209 0
-12395 12268 0
12396 -12196 -12268 -1210 0
-12396 12196 0
-12396 12268 0
-12396 1210 0
-11455 1218 12393 12394 12395 12396 0
11455 -1218 0
11455 -12393 0
11455 -12394 0
11455 -12395 0
11455 -12396 0
12397 -12196 -12243 0
-12397 12196 0
-12397 12243 0
12398 -1209 -12248 0
-12398 1209 0
-12398 12248 0
12399 -1209 -12243 0
-12399 1209 0
-12399 12243 0
12400 -12196 -12248 -1210 0
-12400 12196 0
-12400 12248 0
-12400 1210 0
-11460 12210 12397 12398 12399 12400 0
11460 -12210 0
11460 -12397 0
11460 -12398 0
11460 -12399 0
11460 -12400 0
12401 -12201 -12243 0
-12401 12201 0
-12401 12243 0
12402 -12230 -12243 0
-12402 12230 0
-12402 12243 0
12403 -12230 -12248 0
-12403 12230 0
-12403 12248 0
12404 -12201 -12248 -1210 0
-12404 12201 0
-12404 12248 0
-12404 1210 0
-11323 12215 12401 12402 12403 12404 0
11323 -12215 0
11323 -12401 0
11323 -12402 0
11323 -12403 0
11323 -12404 0
12405 -12095 -12220 0
-12405 12095 0
-12405 12220 0
12406 -1214 -12105 0
-12406 1214 0
-12406 12105 0
12407 -1214 -12220 0
-12407 1214 0
-12407 12220 0
12408 -12095 -12105 -1210 0
-12408 12095 0
-12408 12105 0
-12408 1210 0
-11344 12068 12405 12406 12407 12408 0
11344 -12068 0
11344 -12405 0
11344 -12406 0
11344 -12407 0
11344 -12408 0
12409 -12095 -12225 0
-12409 12095 0
-12409 12225 0
12410 -1214 -12159 0
-12410 1214 0
-12410 12159 0
12411 -1214 -12225 0
-12411 1214 0
-12411 12225 0
12412 -12095 -12159 -1210 0
-12412 12095 0
-12412 12159 0
-12412 1210 0
-11346 12059 12409 12410 12411 12412 0
11346 -12059 0
11346 -12409 0
11346 -12410 0
11346 -12411 0
11346 -12412 0
12413 -12095 -12230 0
-12413 12095 0
-12413 12230 0
12414 -1214 -12201 0
-12414 1214 0
-12414 12201 0
12415 -1214 -12230 0
-12415 1214 0
-12415 12230 0
12416 -12095 -12201 -1210 0
-12416 12095 0
-12416 12201 0
-12416 1210 0
-11312 12078 12413 12414 12415 12416 0
11312 -12078 0
11312 -12413 0
11312 -12414 0
11312 -12415 0
11312 -12416 0
12417 -12095 -1214 0
-12417 12095 0
-12417 1214 0
12232 -1214 -1214 0
-12232 1214 0
-12232 1214 0
12418 -1214 -12095 0
-12418 1214 0
-12418 12095 0
12419 -12095 -12095 -1210 0
-12419 12095 0
-12419 12095 0
-12419 1210 0
-11348 1215 12417 12232 12418 12419 0
11348 -1215 0
11348 -12417 0
11348 -12232 0
11348 -12418 0
11348 -12419 0
12420 -12095 -1219 0
-12420 12095 0
-12420 1219 0
12421 -1214 -1219 0
-12421 1214 0
-12421 1219 0
12422 -1214 -12268 0
-12422 1214 0
-12422 12268 0
12423 -12095 -12268 -1210 0
-12423 12095 0
-12423 12268 0
-12423 1210 0
-11350 1220 12420 12421 12422 12423 0
11350 -1220 0
11350 -12420 0
11350 -12421 0
11350 -12422 0
11350 -12423 0
12424 -12095 -12243 0
-12424 12095 0
-12424 12243 0
12425 -1214 -12248 0
-12425 1214 0
-12425 12248 0
12426 -1214 -12243 0
-12426 1214 0
-12426 12243 0
12427 -12095 -12248 -1210 0
-12427 12095 0
-12427 12248 0
-12427 1210 0
-11352 12112 12424 12425 12426 12427 0
11352 -12112 0
11352 -12424 0
11352 -12425 0
11352 -12426 0
11352 -12427 0
12428 -12097 -12243 0
-12428 12097 0
-12428 12243 0
12429 -12092 -12243 0
-12429 12092 0
-12429 12243 0
12430 -12092 -12248 0
-12430 12092 0
-12430 12248 0
12431 -12097 -12248 -1210 0
-12431 12097 0
-12431 12248 0
-12431 1210 0
-11354 12114 12428 12429 12430 12431 0
11354 -12114 0
11354 -12428 0
11354 -12429 0
11354 -12430 0
11354 -12431 0
12432 -12268 -12220 0
-12432 12268 0
-12432 12220 0
12433 -1219 -12105 0
-12433 1219 0
-12433 12105 0
12434 -1219 -12220 0
-12434 1219 0
-12434 12220 0
12435 -12268 -12105 -1210 0
-12435 12268 0
-12435 12105 0
-12435 1210 0
-11356 12253 12432 12433 12434 12435 0
11356 -12253 0
11356 -12432 0
11356 -12433 0
11356 -12434 0
11356 -12435 0
12436 -12268 -12225 0
-12436 12268 0
-12436 12225 0
12437 -1219 -12159 0
-12437 1219 0
-12437 12159 0
12438 -1219 -12225 0
-12438 1219 0
-12438 12225 0
12439 -12268 -12159 -1210 0
-12439 12268 0
-12439 12159 0
-12439 1210 0
-11358 12258 12436 12437 12438 12439 0
11358 -12258 0
11358 -12436 0
11358 -12437 0
11358 -12438 0
11358 -12439 0
12440 -12268 -12230 0
-12440 12268 0
-12440 12230 0
12441 -1219 -12201 0
-12441 1219 0
-12441 12201 0
12442 -1219 -12230 0
-12442 1219 0
-12442 12230 0
12443 -12268 -12201 -1210 0
-12443 12268 0
-12443 12201 0
-12443 1210 0
-11320 12263 12440 12441 12442 12443 0
11320 -12263 0
11320 -12440 0
11320 -12441 0
11320 -12442 0
11320 -12443 0
12444 -12268 -12092 0
-12444 12268 0
-12444 12092 0
12445 -1219 -12097 0
-12445 1219 0
-12445 12097 0
12446 -1219 -12092 0
-12446 1219 0
-12446 12092 0
12447 -12268 -12097 -1210 0
-12447 12268 0
-12447 12097 0
-12447 1210 0
-11360 12109 12444 12445 12446 12447 0
11360 -12109 0
11360 -12444 0
11360 -12445 0
11360 -12446 0
11360 -12447 0
12448 -12268 -1219 0
-12448 12268 0
-12448 1219 0
12449 -1219 -1219 0
-12449 1219 0
-12449 1219 0
12450 -1219 -12268 0
-12450 1219 0
-12450 12268 0
12451 -12268 -12268 -1210 0
-12451 12268 0
-12451 12268 0
-12451 1210 0
-11362 1221 12448 12449 12450 12451 0
11362 -1221 0
11362 -12448 0
11362 -12449 0
11362 -12450 0
11362 -12451 0
12452 -12117 -12117 0
-12452 12117 0
-12452 12117 0
-10542 1201 12452 0
10542 -1201 0
10542 -12452 0
12453 -12117 -12168 0
-12453 12117 0
-12453 12168 0
-10545 1202 12453 0
10545 -1202 0
10545 -12453 0
12454 -12117 -12173 0
-12454 12117 0
-12454 12173 0
-10548 12064 12454 0
10548 -12064 0
10548 -12454 0
12455 -12122 -12173 0
-12455 12122 0
-12455 12173 0
-10551 12071 12455 0
10551 -12071 0
10551 -12455 0
12456 -12117 -12210 0
-12456 12117 0
-12456 12210 0
-10795 1204 12456 0
10795 -1204 0
10795 -12456 0
12457 -12117 -12215 0
-12457 12117 0
-12457 12215 0
-10541 12083 12457 0
10541 -12083 0
10541 -12457 0
12458 -12122 -12215 0
-12458 12122 0
-12458 12215 0
-10550 12088 12458 0
10550 -12088 0
10550 -12458 0
12459 -12117 -12243 0
-12459 12117 0
-12459 12243 0
-10554 1207 12459 0
10554 -1207 0
10554 -12459 0
12460 -12117 -12248 0
-12460 12117 0
-12460 12248 0
-10557 12100 12460 0
10557 -12100 0
10557 -12460 0
12461 -12122 -12248 0
-12461 12122 0
-12461 12248 0
-10559 12105 12461 0
10559 -12105 0
10559 -12461 0
12462 -12117 -12112 0
-12462 12117 0
-12462 12112 0
-10562 1211 12462 0
10562 -1211 0
10562 -12462 0
12463 -12117 -12114 0
-12463 12117 0
-12463 12114 0
-10565 12049 12463 0
10565 -12049 0
10565 -12463 0
12464 -12122 -12114 0
-12464 12122 0
-12464 12114 0
-10567 12066 12464 0
10567 -12066 0
10567 -12464 0
12465 -12168 -12122 0
-12465 12168 0
-12465 12122 0
-10569 12127 12465 0
10569 -12127 0
10569 -12465 0
12466 -12168 -12168 0
-12466 12168 0
-12466 12168 0
-10571 1203 12466 0
10571 -1203 0
10571 -12466 0
12467 -12168 -12210 0
-12467 12168 0
-12467 12210 0
-10804 1205 12467 0
10804 -1205 0
10804 -12467 0
12468 -12168 -12215 0
-12468 12168 0
-12468 12215 0
-10544 12140 12468 0
10544 -12140 0
10544 -12468 0
12469 -12173 -12215 0
-12469 12173 0
-12469 12215 0
-10547 12145 12469 0
10547 -12145 0
10547 -12469 0
12470 -12168 -12243 0
-12470 12168 0
-12470 12243 0
-10573 1208 12470 0
10573 -1208 0
10573 -12470 0
12471 -12168 -12248 0
-12471 12168 0
-12471 12248 0
-10575 12154 12471 0
10575 -12154 0
10575 -12471 0
12472 -12173 -12248 0
-12472 12173 0
-12472 12248 0
-10577 12159 12472 0
10577 -12159 0
10577 -12472 0
12473 -12168 -12112 0
-12473 12168 0
-12473 12112 0
-10579 1212 12473 0
10579 -1212 0
10579 -12473 0
12474 -12168 -12114 0
-12474 12168 0
-12474 12114 0
-10581 12056 12474 0
10581 -12056 0
10581 -12474 0
12475 -12173 -12114 0
-12475 12173 0
-12475 12114 0
-10583 12061 12475 0
10583 -12061 0
10583 -12475 0
12476 -12210 -12122 0
-12476 12210 0
-12476 12122 0
-10811 12178 12476 0
10811 -12178 0
10811 -12476 0
12477 -12210 -12173 0
-12477 12210 0
-12477 12173 0
-10813 12183 12477 0
10813 -12183 0
10813 -12477 0
12478 -12210 -12210 0
-12478 12210 0
-12478 12210 0
-10815 1206 12478 0
10815 -1206 0
10815 -12478 0
12479 -12210 -12243 0
-12479 12210 0
-12479 12243 0
-11246 1209 12479 0
11246 -1209 0
11246 -12479 0
12480 -12210 -12248 0
-12480 12210 0
-12480 12248 0
-10794 12196 12480 0
10794 -12196 0
10794 -12480 0
12481 -12215 -12248 0
-12481 12215 0
-12481 12248 0
-10556 12201 12481 0
10556 -12201 0
10556 -12481 0
12482 -12210 -12112 0
-12482 12210 0
-12482 12112 0
-10817 1213 12482 0
10817 -1213 0
10817 -12482 0
12483 -12210 -12114 0
-12483 12210 0
-12483 12114 0
-10819 12075 12483 0
10819 -12075 0
10819 -12483 0
12484 -12215 -12114 0
-12484 12215 0
-12484 12114 0
-10564 12080 12484 0
10564 -12080 0
10564 -12484 0
12485 -12243 -12122 0
-12485 12243 0
-12485 12122 0
-10585 12220 12485 0
10585 -12220 0
10585 -12485 0
12486 -12243 -12173 0
-12486 12243 0
-12486 12173 0
-10587 12225 12486 0
10587 -12225 0
10587 -12486 0
12487 -12243 -12215 0
-12487 12243 0
-12487 12215 0
-10553 12230 12487 0
10553 -12230 0
10553 -12487 0
12488 -12243 -12243 0
-12488 12243 0
-12488 12243 0
-10589 1210 12488 0
10589 -1210 0
10589 -12488 0
12489 -12243 -12112 0
-12489 12243 0
-12489 12112 0
-10591 1214 12489 0
10591 -1214 0
10591 -12489 0
12490 -12243 -12114 0
-12490 12243 0
-12490 12114 0
-10593 12092 12490 0
10593 -12092 0
10593 -12490 0
12491 -12248 -12114 0
-12491 12248 0
-12491 12114 0
-10595 12097 12491 0
10595 -12097 0
10595 -12491 0
12492 -12112 -12122 0
-12492 12112 0
-12492 12122 0
-10597 12068 12492 0
10597 -12068 0
10597 -12492 0
12493 -12112 -12173 0
-12493 12112 0
-12493 12173 0
-10599 12059 12493 0
10599 -12059 0
10599 -12493 0
12494 -12112 -12215 0
-12494 12112 0
-12494 12215 0
-10561 12078 12494 0
10561 -12078 0
10561 -12494 0
12495 -12112 -12248 0
-12495 12112 0
-12495 12248 0
-10601 12095 12495 0
10601 -12095 0
10601 -12495 0
12496 -12112 -12112 0
-12496 12112 0
-12496 12112 0
-10603 1215 12496 0
10603 -1215 0
10603 -12496 0
12497 -12049 -12049 0
-12497 12049 0
-12497 12049 0
-10639 1201 12497 0
10639 -1201 0
10639 -12497 0
12498 -12049 -12056 0
-12498 12049 0
-12498 12056 0
-10646 1202 12498 0
10646 -1202 0
10646 -12498 0
12499 -12049 -12061 0
-12499 12049 0
-12499 12061 0
-10653 12064 12499 0
10653 -12064 0
10653 -12499 0
12500 -12066 -12061 0
-12500 12066 0
-12500 12061 0
-10660 12071 12500 0
10660 -12071 0
10660 -12500 0
12501 -12049 -12075 0
-12501 12049 0
-12501 12075 0
-10667 1204 12501 0
10667 -1204 0
10667 -12501 0
12502 -12049 -12080 0
-12502 12049 0
-12502 12080 0
-10674 12083 12502 0
10674 -12083 0
10674 -12502 0
12503 -12066 -12080 0
-12503 12066 0
-12503 12080 0
-10679 12088 12503 0
10679 -12088 0
10679 -12503 0
12504 -12049 -12092 0
-12504 12049 0
-12504 12092 0
-10634 1207 12504 0
10634 -1207 0
10634 -12504 0
12505 -12049 -12097 0
-12505 12049 0
-12505 12097 0
-10633 12100 12505 0
10633 -12100 0
10633 -12505 0
12506 -12066 -12097 0
-12506 12066 0
-12506 12097 0
-10655 12105 12506 0
10655 -12105 0
10655 -12506 0
12507 -12049 -12109 0
-12507 12049 0
-12507 12109 0
-10686 1216 12507 0
10686 -1216 0
10686 -12507 0
12508 -12049 -12114 0
-12508 12049 0
-12508 12114 0
-10693 12117 12508 0
10693 -12117 0
10693 -12508 0
12509 -12066 -12114 0
-12509 12066 0
-12509 12114 0
-10698 12122 12509 0
10698 -12122 0
10698 -12509 0
12510 -12056 -12066 0
-12510 12056 0
-12510 12066 0
-10703 12127 12510 0
10703 -12127 0
10703 -12510 0
12511 -12056 -12056 0
-12511 12056 0
-12511 12056 0
-10708 1203 12511 0
10708 -1203 0
10708 -12511 0
12512 -12056 -12075 0
-12512 12056 0
-12512 12075 0
-10713 1205 12512 0
10713 -1205 0
10713 -12512 0
12513 -12056 -12080 0
-12513 12056 0
-12513 12080 0
-10718 12140 12513 0
10718 -12140 0
10718 -12513 0
12514 -12061 -12080 0
-12514 12061 0
-12514 12080 0
-10723 12145 12514 0
10723 -12145 0
10723 -12514 0
12515 -12056 -12092 0
-12515 12056 0
-12515 12092 0
-10641 1208 12515 0
10641 -1208 0
10641 -12515 0
12516 -12056 -12097 0
-12516 12056 0
-12516 12097 0
-10644 12154 12516 0
10644 -12154 0
10644 -12516 0
12517 -12061 -12097 0
-12517 12061 0
-12517 12097 0
-10650 12159 12517 0
10650 -12159 0
10650 -12517 0
12518 -12056 -12109 0
-12518 12056 0
-12518 12109 0
-10728 1217 12518 0
10728 -1217 0
10728 -12518 0
12519 -12056 -12114 0
-12519 12056 0
-12519 12114 0
-10733 12168 12519 0
10733 -12168 0
10733 -12519 0
12520 -12061 -12114 0
-12520 12061 0
-12520 12114 0
-10738 12173 12520 0
10738 -12173 0
10738 -12520 0
12521 -12075 -12066 0
-12521 12075 0
-12521 12066 0
-10743 12178 12521 0
10743 -12178 0
10743 -12521 0
12522 -12075 -12061 0
-12522 12075 0
-12522 12061 0
-10748 12183 12522 0
10748 -12183 0
10748 -12522 0
12523 -12075 -12075 0
-12523 12075 0
-12523 12075 0
-10753 1206 12523 0
10753 -1206 0
10753 -12523 0
12524 -12075 -12092 0
-12524 12075 0
-12524 12092 0
-10662 1209 12524 0
10662 -1209 0
10662 -12524 0
12525 -12075 -12097 0
-12525 12075 0
-12525 12097 0
-10665 12196 12525 0
10665 -12196 0
10665 -12525 0
12526 -12080 -12097 0
-12526 12080 0
-12526 12097 0
-10671 12201 12526 0
10671 -12201 0
10671 -12526 0
12527 -12075 -12109 0
-12527 12075 0
-12527 12109 0
-10758 1218 12527 0
10758 -1218 0
10758 -12527 0
12528 -12075 -12114 0
-12528 12075 0
-12528 12114 0
-10763 12210 12528 0
10763 -12210 0
10763 -12528 0
12529 -12080 -12114 0
-12529 12080 0
-12529 12114 0
-10768 12215 12529 0
10768 -12215 0
10768 -12529 0
12530 -12092 -12066 0
-12530 12092 0
-12530 12066 0
-10657 12220 12530 0
10657 -12220 0
10657 -12530 0
12531 -12092 -12061 0
-12531 12092 0
-12531 12061 0
-10648 12225 12531 0
10648 -12225 0
10648 -12531 0
12532 -12092 -12080 0
-12532 12092 0
-12532 12080 0
-10669 12230 12532 0
10669 -12230 0
10669 -12532 0
12533 -12092 -12092 0
-12533 12092 0
-12533 12092 0
-10638 1210 12533 0
10638 -1210 0
10638 -12533 0
12534 -12092 -12109 0
-12534 12092 0
-12534 12109 0
-10681 1219 12534 0
10681 -1219 0
10681 -12534 0
12535 -12092 -12114 0
-12535 12092 0
-12535 12114 0
-10688 12243 12535 0
10688 -12243 0
10688 -12535 0
12536 -12097 -12114 0
-12536 12097 0
-12536 12114 0
-10690 12248 12536 0
10690 -12248 0
10690 -12536 0
12537 -12109 -12066 0
-12537 12109 0
-12537 12066 0
-10773 12253 12537 0
10773 -12253 0
10773 -12537 0
12538 -12109 -12061 0
-12538 12109 0
-12538 12061 0
-10778 12258 12538 0
10778 -12258 0
10778 -12538 0
12539 -12109 -12080 0
-12539 12109 0
-12539 12080 0
-10783 12263 12539 0
10783 -12263 0
10783 -12539 0
12540 -12109 -12097 0
-12540 12109 0
-12540 12097 0
-10684 12268 12540 0
10684 -12268 0
10684 -12540 0
12541 -12109 -12109 0
-12541 12109 0
-12541 12109 0
-10788 1221 12541 0
10788 -1221 0
10788 -12541 0
12542 -12117 -1216 0
-12542 12117 0
-12542 1216 0
12543 -1216 -1216 0
-12543 1216 0
-12543 1216 0
12544 -1216 -12117 0
-12544 1216 0
-12544 12117 0
12545 -12117 -12117 -1221 0
-12545 12117 0
-12545 12117 0
-12545 1221 0
-10334 1201 12542 12543 12544 12545 0
10334 -1201 0
10334 -12542 0
10334 -12543 0
10334 -12544 0
10334 -12545 0
12546 -12117 -1217 0
-12546 12117 0
-12546 1217 0
12547 -1216 -1217 0
-12547 1216 0
-12547 1217 0
12548 -1216 -12168 0
-12548 1216 0
-12548 12168 0
12549 -12117 -12168 -1221 0
-12549 12117 0
-12549 12168 0
-12549 1221 0
-10341 1202 12546 12547 12548 12549 0
10341 -1202 0
10341 -12546 0
10341 -12547 0
10341 -12548 0
10341 -12549 0
12550 -12117 -12258 0
-12550 12117 0
-12550 12258 0
12551 -1216 -12173 0
-12551 1216 0
-12551 12173 0
12552 -1216 -12258 0
-12552 1216 0
-12552 12258 0
12553 -12117 -12173 -1221 0
-12553 12117 0
-12553 12173 0
-12553 1221 0
-10348 12064 12550 12551 12552 12553 0
10348 -12064 0
10348 -12550 0
10348 -12551 0
10348 -12552 0
10348 -12553 0
12554 -12122 -12258 0
-12554 12122 0
-12554 12258 0
12555 -12253 -12258 0
-12555 12253 0
-12555 12258 0
12556 -12253 -12173 0
-12556 12253 0
-12556 12173 0
12557 -12122 -12173 -1221 0
-12557 12122 0
-12557 12173 0
-12557 1221 0
-10355 12071 12554 12555 12556 12557 0
10355 -12071 0
10355 -12554 0
10355 -12555 0
10355 -12556 0
10355 -12557 0
12558 -12117 -1218 0
-12558 12117 0
-12558 1218 0
12559 -1216 -1218 0
-12559 1216 0
-12559 1218 0
12560 -1216 -12210 0
-12560 1216 0
-12560 12210 0
12561 -12117 -12210 -1221 0
-12561 12117 0
-12561 12210 0
-12561 1221 0
-10362 1204 12558 12559 12560 12561 0
10362 -1204 0
10362 -12558 0
10362 -12559 0
10362 -12560 0
10362 -12561 0
12562 -12117 -12263 0
-12562 12117 0
-12562 12263 0
12563 -1216 -12215 0
-12563 1216 0
-12563 12215 0
12564 -1216 -12263 0
-12564 1216 0
-12564 12263 0
12565 -12117 -12215 -1221 0
-12565 12117 0
-12565 12215 0
-12565 1221 0
-10369 12083 12562 12563 12564 12565 0
10369 -12083 0
10369 -12562 0
10369 -12563 0
10369 -12564 0
10369 -12565 0
12566 -12122 -12263 0
-12566 12122 0
-12566 12263 0
12567 -12253 -12263 0
-12567 12253 0
-12567 12263 0
12568 -12253 -12215 0
-12568 12253 0
-12568 12215 0
12569 -12122 -12215 -1221 0
-12569 12122 0
-12569 12215 0
-12569 1221 0
-10374 12088 12566 12567 12568 12569 0
10374 -12088 0
10374 -12566 0
10374 -12567 0
10374 -12568 0
10374 -12569 0
12570 -12117 -1219 0
-12570 12117 0
-12570 1219 0
12571 -1216 -1219 0
-12571 1216 0
-12571 1219 0
12572 -1216 -12243 0
-12572 1216 0
-12572 12243 0
12573 -12117 -12243 -1221 0
-12573 12117 0
-12573 12243 0
-12573 1221 0
-10329 1207 12570 12571 12572 12573 0
10329 -1207 0
10329 -12570 0
10329 -12571 0
10329 -12572 0
10329 -12573 0
12574 -12117 -12268 0
-12574 12117 0
-12574 12268 0
12575 -1216 -12248 0
-12575 1216 0
-12575 12248 0
12576 -1216 -12268 0
-12576 1216 0
-12576 12268 0
12577 -12117 -12248 -1221 0
-12577 12117 0
-12577 12248 0
-12577 1221 0
-10328 12100 12574 12575 12576 12577 0
10328 -12100 0
10328 -12574 0
10328 -12575 0
10328 -12576 0
10328 -12577 0
12578 -12122 -12268 0
-12578 12122 0
-12578 12268 0
12579 -12253 -12268 0
-12579 12253 0
-12579 12268 0
12580 -12253 -12248 0
-12580 12253 0
-12580 12248 0
12581 -12122 -12248 -1221 0
-12581 12122 0
-12581 12248 0
-12581 1221 0
-10350 12105 12578 12579 12580 12581 0
10350 -12105 0
10350 -12578 0
10350 -12579 0
10350 -12580 0
10350 -12581 0
12582 -12117 -1220 0
-12582 12117 0
-12582 1220 0
12583 -1216 -1220 0
-12583 1216 0
-12583 1220 0
12584 -1216 -12112 0
-12584 1216 0
-12584 12112 0
12585 -12117 -12112 -1221 0
-12585 12117 0
-12585 12112 0
-12585 1221 0
-10381 1211 12582 12583 12584 12585 0
10381 -1211 0
10381 -12582 0
10381 -12583 0
10381 -12584 0
10381 -12585 0
12586 -12117 -12109 0
-12586 12117 0
-12586 12109 0
12587 -1216 -12114 0
-12587 1216 0
-12587 12114 0
12588 -1216 -12109 0
-12588 1216 0
-12588 12109 0
12589 -12117 -12114 -1221 0
-12589 12117 0
-12589 12114 0
-12589 1221 0
-10388 12049 12586 12587 12588 12589 0
10388 -12049 0
10388 -12586 0
10388 -12587 0
10388 -12588 0
10388 -12589 0
12590 -12122 -12109 0
-12590 12122 0
-12590 12109 0
12591 -12253 -12109 0
-12591 12253 0
-12591 12109 0
12592 -12253 -12114 0
-12592 12253 0
-12592 12114 0
12593 -12122 -12114 -1221 0
-12593 12122 0
-12593 12114 0
-12593 1221 0
-10393 12066 12590 12591 12592 12593 0
10393 -12066 0
10393 -12590 0
10393 -12591 0
10393 -12592 0
10393 -12593 0
12594 -12168 -12253 0
-12594 12168 0
-12594 12253 0
12595 -1217 -12122 0
-12595 1217 0
-12595 12122 0
12596 -1217 -12253 0
-12596 1217 0
-12596 12253 0
12597 -12168 -12122 -1221 0
-12597 12168 0
-12597 12122 0
-12597 1221 0
-10398 12127 12594 12595 12596 12597 0
10398 -12127 0
10398 -12594 0
10398 -12595 0
10398 -12596 0
10398 -12597 0
12598 -12168 -1217 0
-12598 12168 0
-12598 1217 0
12599 -1217 -1217 0
-12599 1217 0
-12599 1217 0
12600 -1217 -12168 0
-12600 1217 0
-12600 12168 0
12601 -12168 -12168 -1221 0
-12601 12168 0
-12601 12168 0
-12601 1221 0
-10403 1203 12598 12599 12600 12601 0
10403 -1203 0
10403 -12598 0
10403 -12599 0
10403 -12600 0
10403 -12601 0
12602 -12168 -1218 0
-12602 12168 0
-12602 1218 0
12603 -1217 -1218 0
-12603 1217 0
-12603 1218 0
12604 -1217 -12210 0
-12604 1217 0
-12604 12210 0
12605 -12168 -12210 -1221 0
-12605 12168 0
-12605 12210 0
-12605 1221 0
-10408 1205 12602 12603 12604 12605 0
10408 -1205 0
10408 -12602 0
10408 -12603 0
10408 -12604 0
10408 -12605 0
12606 -12168 -12263 0
-12606 12168 0
-12606 12263 0
12607 -1217 -12215 0
-12607 1217 0
-12607 12215 0
12608 -1217 -12263 0
-12608 1217 0
-12608 12263 0
12609 -12168 -12215 -1221 0
-12609 12168 0
-12609 12215 0
-12609 1221 0
-10413 12140 12606 12607 12608 12609 0
10413 -12140 0
10413 -12606 0
10413 -12607 0
10413 -12608 0
10413 -12609 0
12610 -12173 -12263 0
-12610 12173 0
-12610 12263 0
12611 -12258 -12263 0
-12611 12258 0
-12611 12263 0
12612 -12258 -12215 0
-12612 12258 0
-12612 12215 0
12613 -12173 -12215 -1221 0
-12613 12173 0
-12613 12215 0
-12613 1221 0
-10418 12145 12610 12611 12612 12613 0
10418 -12145 0
10418 -12610 0
10418 -12611 0
10418 -12612 0
10418 -12613 0
12614 -12168 -1219 0
-12614 12168 0
-12614 1219 0
12615 -1217 -1219 0
-12615 1217 0
-12615 1219 0
12616 -1217 -12243 0
-12616 1217 0
-12616 12243 0
12617 -12168 -12243 -1221 0
-12617 12168 0
-12617 12243 0
-12617 1221 0
-10336 1208 12614 12615 12616 12617 0
10336 -1208 0
10336 -12614 0
10336 -12615 0
10336 -12616 0
10336 -12617 0
12618 -12168 -12268 0
-12618 12168 0
-12618 12268 0
12619 -1217 -12248 0
-12619 1217 0
-12619 12248 0
12620 -1217 -12268 0
-12620 1217 0
-12620 12268 0
12621 -12168 -12248 -1221 0
-12621 12168 0
-12621 12248 0
-12621 1221 0
-10339 12154 12618 12619 12620 12621 0
10339 -12154 0
10339 -12618 0
10339 -12619 0
10339 -12620 0
10339 -12621 0
12622 -12173 -12268 0
-12622 12173 0
-12622 12268 0
12623 -12258 -12268 0
-12623 12258 0
-12623 12268 0
12624 -12258 -12248 0
-12624 12258 0
-12624 12248 0
12625 -12173 -12248 -1221 0
-12625 12173 0
-12625 12248 0
-12625 1221 0
-10345 12159 12622 12623 12624 12625 0
10345 -12159 0
10345 -12622 0
10345 -12623 0
10345 -12624 0
10345 -12625 0
12626 -12168 -1220 0
-12626 12168 0
-12626 1220 0
12627 -1217 -1220 0
-12627 1217 0
-12627 1220 0
12628 -1217 -12112 0
-12628 1217 0
-12628 12112 0
12629 -12168 -12112 -1221 0
-12629 12168 0
-12629 12112 0
-12629 1221 0
-10423 1212 12626 12627 12628 12629 0
10423 -1212 0
10423 -12626 0
10423 -12627 0
10423 -12628 0
10423 -12629 0
12630 -12168 -12109 0
-12630 12168 0
-12630 12109 0
12631 -1217 -12114 0
-12631 1217 0
-12631 12114 0
12632 -1217 -12109 0
-12632 1217 0
-12632 12109 0
12633 -12168 -12114 -1221 0
-12633 12168 0
-12633 12114 0
-12633 1221 0
-10428 12056 12630 12631 12632 12633 0
10428 -12056 0
10428 -12630 0
10428 -12631 0
10428 -12632 0
10428 -12633 0
12634 -12173 -12109 0
-12634 12173 0
-12634 12109 0
12635 -12258 -12109 0
-12635 12258 0
-12635 12109 0
12636 -12258 -12114 0
-12636 12258 0
-12636 12114 0
12637 -12173 -12114 -1221 0
-12637 12173 0
-12637 12114 0
-12637 1221 0
-10433 12061 12634 12635 12636 12637 0
10433 -12061 0
10433 -12634 0
10433 -12635 0
10433 -12636 0
10433 -12637 0
12638 -12210 -12253 0
-12638 12210 0
-12638 12253 0
12639 -1218 -12122 0
-12639 1218 0
-12639 12122 0
12640 -1218 -12253 0
-12640 1218 0
-12640 12253 0
12641 -12210 -12122 -1221 0
-12641 12210 0
-12641 12122 0
-12641 1221 0
-10438 12178 12638 12639 12640 12641 0
10438 -12178 0
10438 -12638 0
10438 -12639 0
10438 -12640 0
10438 -12641 0
12642 -12210 -12258 0
-12642 12210 0
-12642 12258 0
12643 -1218 -12173 0
-12643 1218 0
-12643 12173 0
12644 -1218 -12258 0
-12644 1218 0
-12644 12258 0
12645 -12210 -12173 -1221 0
-12645 12210 0
-12645 12173 0
-12645 1221 0
-10443 12183 12642 12643 12644 12645 0
10443 -12183 0
10443 -12642 0
10443 -12643 0
10443 -12644 0
10443 -12645 0
12646 -12210 -1218 0
-12646 12210 0
-12646 1218 0
12647 -1218 -1218 0
-12647 1218 0
-12647 1218 0
12648 -1218 -12210 0
-12648 1218 0
-12648 12210 0
12649 -12210 -12210 -1221 0
-12649 12210 0
-12649 12210 0
-12649 1221 0
-10448 1206 12646 12647 12648 12649 0
10448 -1206 0
10448 -12646 0
10448 -12647 0
10448 -12648 0
10448 -12649 0
12650 -12210 -1219 0
-12650 12210 0
-12650 1219 0
12651 -1218 -1219 0
-12651 1218 0
-12651 1219 0
12652 -1218 -12243 0
-12652 1218 0
-12652 12243 0
12653 -12210 -12243 -1221 0
-12653 12210 0
-12653 12243 0
-12653 1221 0
-10357 1209 12650 12651 12652 12653 0
10357 -1209 0
10357 -12650 0
10357 -12651 0
10357 -12652 0
10357 -12653 0
12654 -12210 -12268 0
-12654 12210 0
-12654 12268 0
12655 -1218 -12248 0
-12655 1218 0
-12655 12248 0
12656 -1218 -12268 0
-12656 1218 0
-12656 12268 0
12657 -12210 -12248 -1221 0
-12657 12210 0
-12657 12248 0
-12657 1221 0
-10360 12196 12654 12655 12656 12657 0
10360 -12196 0
10360 -12654 0
10360 -12655 0
10360 -12656 0
10360 -12657 0
12658 -12215 -12268 0
-12658 12215 0
-12658 12268 0
12659 -12263 -12268 0
-12659 12263 0
-12659 12268 0
12660 -12263 -12248 0
-12660 12263 0
-12660 12248 0
12661 -12215 -12248 -1221 0
-12661 12215 0
-12661 12248 0
-12661 1221 0
-10366 12201 12658 12659 12660 12661 0
10366 -12201 0
10366 -12658 0
10366 -12659 0
10366 -12660 0
10366 -12661 0
12662 -12210 -1220 0
-12662 12210 0
-12662 1220 0
12663 -1218 -1220 0
-12663 1218 0
-12663 1220 0
12664 -1218 -12112 0
-12664 1218 0
-12664 12112 0
12665 -12210 -12112 -1221 0
-12665 12210 0
-12665 12112 0
-12665 1221 0
-10453 1213 12662 12663 12664 12665 0
10453 -1213 0
10453 -12662 0
10453 -12663 0
10453 -12664 0
10453 -12665 0
12666 -12210 -12109 0
-12666 12210 0
-12666 12109 0
12667 -1218 -12114 0
-12667 1218 0
-12667 12114 0
12668 -1218 -12109 0
-12668 1218 0
-12668 12109 0
12669 -12210 -12114 -1221 0
-12669 12210 0
-12669 12114 0
-12669 1221 0
-10458 12075 12666 12667 12668 12669 0
10458 -12075 0
10458 -12666 0
10458 -12667 0
10458 -12668 0
10458 -12669 0
12670 -12215 -12109 0
-12670 12215 0
-12670 12109 0
12671 -12263 -12109 0
-12671 12263 0
-12671 12109 0
12672 -12263 -12114 0
-12672 12263 0
-12672 12114 0
12673 -12215 -12114 -1221 0
-12673 12215 0
-12673 12114 0
-12673 1221 0
-10463 12080 12670 12671 12672 12673 0
10463 -12080 0
10463 -12670 0
10463 -12671 0
10463 -12672 0
10463 -12673 0
12674 -12243 -12253 0
-12674 12243 0
-12674 12253 0
12675 -1219 -12122 0
-12675 1219 0
-12675 12122 0
12676 -1219 -12253 0
-12676 1219 0
-12676 12253 0
12677 -12243 -12122 -1221 0
-12677 12243 0
-12677 12122 0
-12677 1221 0
-10352 12220 12674 12675 12676 12677 0
10352 -12220 0
10352 -12674 0
10352 -12675 0
10352 -12676 0
10352 -12677 0
12678 -12243 -12258 0
-12678 12243 0
-12678 12258 0
12679 -1219 -12173 0
-12679 1219 0
-12679 12173 0
12680 -1219 -12258 0
-12680 1219 0
-12680 12258 0
12681 -12243 -12173 -1221 0
-12681 12243 0
-12681 12173 0
-12681 1221 0
-10343 12225 12678 12679 12680 12681 0
10343 -12225 0
10343 -12678 0
10343 -12679 0
10343 -12680 0
10343 -12681 0
12682 -12243 -12263 0
-12682 12243 0
-12682 12263 0
12683 -1219 -12215 0
-12683 1219 0
-12683 12215 0
12684 -1219 -12263 0
-12684 1219 0
-12684 12263 0
12685 -12243 -12215 -1221 0
-12685 12243 0
-12685 12215 0
-12685 1221 0
-10364 12230 12682 12683 12684 12685 0
10364 -12230 0
10364 -12682 0
10364 -12683 0
10364 -12684 0
10364 -12685 0
12686 -12243 -1219 0
-12686 12243 0
-12686 1219 0
12449 -1219 -1219 0
-12449 1219 0
-12449 1219 0
12687 -1219 -12243 0
-12687 1219 0
-12687 12243 0
12688 -12243 -12243 -1221 0
-12688 12243 0
-12688 12243 0
-12688 1221 0
-10333 1210 12686 12449 12687 12688 0
10333 -1210 0
10333 -12686 0
10333 -12449 0
10333 -12687 0
10333 -12688 0
12689 -12243 -1220 0
-12689 12243 0
-12689 1220 0
12690 -1219 -1220 0
-12690 1219 0
-12690 1220 0
12691 -1219 -12112 0
-12691 1219 0
-12691 12112 0
12692 -12243 -12112 -1221 0
-12692 12243 0
-12692 12112 0
-12692 1221 0
-10376 1214 12689 12690 12691 12692 0
10376 -1214 0
10376 -12689 0
10376 -12690 0
10376 -12691 0
10376 -12692 0
12693 -12243 -12109 0
-12693 12243 0
-12693 12109 0
12694 -1219 -12114 0
-12694 1219 0
-12694 12114 0
12695 -1219 -12109 0
-12695 1219 0
-12695 12109 0
12696 -12243 -12114 -1221 0
-12696 12243 0
-12696 12114 0
-12696 1221 0
-10383 12092 12693 12694 12695 12696 0
10383 -12092 0
10383 -12693 0
10383 -12694 0
10383 -12695 0
10383 -12696 0
12697 -12248 -12109 0
-12697 12248 0
-12697 12109 0
12698 -12268 -12109 0
-12698 12268 0
-12698 12109 0
12699 -12268 -12114 0
-12699 12268 0
-12699 12114 0
12700 -12248 -12114 -1221 0
-12700 12248 0
-12700 12114 0
-12700 1221 0
-10385 12097 12697 12698 12699 12700 0
10385 -12097 0
10385 -12697 0
10385 -12698 0
10385 -12699 0
10385 -12700 0
12701 -12112 -12253 0
-12701 12112 0
-12701 12253 0
12702 -1220 -12122 0
-12702 1220 0
-12702 12122 0
12703 -1220 -12253 0
-12703 1220 0
-12703 12253 0
12704 -12112 -12122 -1221 0
-12704 12112 0
-12704 12122 0
-12704 1221 0
-10468 12068 12701 12702 12703 12704 0
10468 -12068 0
10468 -12701 0
10468 -12702 0
10468 -12703 0
10468 -12704 0
12705 -12112 -12258 0
-12705 12112 0
-12705 12258 0
12706 -1220 -12173 0
-12706 1220 0
-12706 12173 0
12707 -1220 -12258 0
-12707 1220 0
-12707 12258 0
12708 -12112 -12173 -1221 0
-12708 12112 0
-12708 12173 0
-12708 1221 0
-10473 12059 12705 12706 12707 12708 0
10473 -12059 0
10473 -12705 0
10473 -12706 0
10473 -12707 0
10473 -12708 0
12709 -12112 -12263 0
-12709 12112 0
-12709 12263 0
12710 -1220 -12215 0
-12710 1220 0
-12710 12215 0
12711 -1220 -12263 0
-12711 1220 0
-12711 12263 0
12712 -12112 -12215 -1221 0
-12712 12112 0
-12712 12215 0
-12712 1221 0
-10478 12078 12709 12710 12711 12712 0
10478 -12078 0
10478 -12709 0
10478 -12710 0
10478 -12711 0
10478 -12712 0
12713 -12112 -12268 0
-12713 12112 0
-12713 12268 0
12714 -1220 -12248 0
-12714 1220 0
-12714 12248 0
12715 -1220 -12268 0
-12715 1220 0
-12715 12268 0
12716 -12112 -12248 -1221 0
-12716 12112 0
-12716 12248 0
-12716 1221 0
-10379 12095 12713 12714 12715 12716 0
10379 -12095 0
10379 -12713 0
10379 -12714 0
10379 -12715 0
10379 -12716 0
12717 -12112 -1220 0
-12717 12112 0
-12717 1220 0
12270 -1220 -1220 0
-12270 1220 0
-12270 1220 0
12718 -1220 -12112 0
-12718 1220 0
-12718 12112 0
12719 -12112 -12112 -1221 0
-12719 12112 0
-12719 12112 0
-12719 1221 0
-10483 1215 12717 12270 12718 12719 0
10483 -1215 0
10483 -12717 0
10483 -12270 0
10483 -12718 0
10483 -12719 0
12720 -12100 -12100 0
-12720 12100 0
-12720 12100 0
-10108 1201 12720 0
10108 -1201 0
10108 -12720 0
12721 -12100 -12154 0
-12721 12100 0
-12721 12154 0
-10111 1202 12721 0
10111 -1202 0
10111 -12721 0
12722 -12100 -12159 0
-12722 12100 0
-12722 12159 0
-10114 12064 12722 0
10114 -12064 0
10114 -12722 0
12723 -12105 -12159 0
-12723 12105 0
-12723 12159 0
-10117 12071 12723 0
10117 -12071 0
10117 -12723 0
12724 -12100 -12196 0
-12724 12100 0
-12724 12196 0
-11928 1204 12724 0
11928 -1204 0
11928 -12724 0
12725 -12100 -12201 0
-12725 12100 0
-12725 12201 0
-10107 12083 12725 0
10107 -12083 0
10107 -12725 0
12726 -12105 -12201 0
-12726 12105 0
-12726 12201 0
-10116 12088 12726 0
10116 -12088 0
10116 -12726 0
12727 -12100 -12095 0
-12727 12100 0
-12727 12095 0
-10120 1211 12727 0
10120 -1211 0
10120 -12727 0
12728 -12100 -12097 0
-12728 12100 0
-12728 12097 0
-10123 12049 12728 0
10123 -12049 0
10123 -12728 0
12729 -12105 -12097 0
-12729 12105 0
-12729 12097 0
-10125 12066 12729 0
10125 -12066 0
10125 -12729 0
12730 -12100 -12268 0
-12730 12100 0
-12730 12268 0
-10128 1216 12730 0
10128 -1216 0
10128 -12730 0
12731 -12100 -12248 0
-12731 12100 0
-12731 12248 0
-10131 12117 12731 0
10131 -12117 0
10131 -12731 0
12732 -12105 -12248 0
-12732 12105 0
-12732 12248 0
-10133 12122 12732 0
10133 -12122 0
10133 -12732 0
12733 -12154 -12105 0
-12733 12154 0
-12733 12105 0
-10135 12127 12733 0
10135 -12127 0
10135 -12733 0
12734 -12154 -12154 0
-12734 12154 0
-12734 12154 0
-10137 1203 12734 0
10137 -1203 0
10137 -12734 0
12735 -12154 -12196 0
-12735 12154 0
-12735 12196 0
-11934 1205 12735 0
11934 -1205 0
11934 -12735 0
12736 -12154 -12201 0
-12736 12154 0
-12736 12201 0
-10110 12140 12736 0
10110 -12140 0
10110 -12736 0
12737 -12159 -12201 0
-12737 12159 0
-12737 12201 0
-10113 12145 12737 0
10113 -12145 0
10113 -12737 0
12738 -12154 -12095 0
-12738 12154 0
-12738 12095 0
-10139 1212 12738 0
10139 -1212 0
10139 -12738 0
12739 -12154 -12097 0
-12739 12154 0
-12739 12097 0
-10141 12056 12739 0
10141 -12056 0
10141 -12739 0
12740 -12159 -12097 0
-12740 12159 0
-12740 12097 0
-10143 12061 12740 0
10143 -12061 0
10143 -12740 0
12741 -12154 -12268 0
-12741 12154 0
-12741 12268 0
-10145 1217 12741 0
10145 -1217 0
10145 -12741 0
12742 -12154 -12248 0
-12742 12154 0
-12742 12248 0
-10147 12168 12742 0
10147 -12168 0
10147 -12742 0
12743 -12159 -12248 0
-12743 12159 0
-12743 12248 0
-10149 12173 12743 0
10149 -12173 0
10149 -12743 0
12744 -12196 -12105 0
-12744 12196 0
-12744 12105 0
-11945 12178 12744 0
11945 -12178 0
11945 -12744 0
12745 -12196 -12159 0
-12745 12196 0
-12745 12159 0
-11939 12183 12745 0
11939 -12183 0
11939 -12745 0
12746 -12196 -12196 0
-12746 12196 0
-12746 12196 0
-11932 1206 12746 0
11932 -1206 0
11932 -12746 0
12747 -12196 -12095 0
-12747 12196 0
-12747 12095 0
-11949 1213 12747 0
11949 -1213 0
11949 -12747 0
12748 -12196 -12097 0
-12748 12196 0
-12748 12097 0
-11954 12075 12748 0
11954 -12075 0
11954 -12748 0
12749 -12201 -12097 0
-12749 12201 0
-12749 12097 0
-10122 12080 12749 0
10122 -12080 0
10122 -12749 0
12750 -12196 -12268 0
-12750 12196 0
-12750 12268 0
-11963 1218 12750 0
11963 -1218 0
11963 -12750 0
12751 -12196 -12248 0
-12751 12196 0
-12751 12248 0
-11968 12210 12751 0
11968 -12210 0
11968 -12751 0
12752 -12201 -12248 0
-12752 12201 0
-12752 12248 0
-10130 12215 12752 0
10130 -12215 0
10130 -12752 0
12753 -12095 -12105 0
-12753 12095 0
-12753 12105 0
-10151 12068 12753 0
10151 -12068 0
10151 -12753 0
12754 -12095 -12159 0
-12754 12095 0
-12754 12159 0
-10153 12059 12754 0
10153 -12059 0
10153 -12754 0
12755 -12095 -12201 0
-12755 12095 0
-12755 12201 0
-10119 12078 12755 0
10119 -12078 0
10119 -12755 0
12756 -12095 -12095 0
-12756 12095 0
-12756 12095 0
-10155 1215 12756 0
10155 -1215 0
10155 -12756 0
12757 -12095 -12268 0
-12757 12095 0
-12757 12268 0
-10157 1220 12757 0
10157 -1220 0
10157 -12757 0
12758 -12095 -12248 0
-12758 12095 0
-12758 12248 0
-10159 12112 12758 0
10159 -12112 0
10159 -12758 0
12759 -12097 -12248 0
-12759 12097 0
-12759 12248 0
-10161 12114 12759 0
10161 -12114 0
10161 -12759 0
12760 -12268 -12105 0
-12760 12268 0
-12760 12105 0
-10163 12253 12760 0
10163 -12253 0
10163 -12760 0
12761 -12268 -12159 0
-12761 12268 0
-12761 12159 0
-10165 12258 12761 0
10165 -12258 0
10165 -12761 0
12762 -12268 -12201 0
-12762 12268 0
-12762 12201 0
-10127 12263 12762 0
10127 -12263 0
10127 -12762 0
12763 -12268 -12097 0
-12763 12268 0
-12763 12097 0
-10167 12109 12763 0
10167 -12109 0
10167 -12763 0
12764 -12268 -12268 0
-12764 12268 0
-12764 12268 0
-10169 1221 12764 0
10169 -1221 0
10169 -12764 0
