c Standarized MaxSat Instance
c{
c "sha1sum": "0dcbf848a993b0760ed8d1a242a2b2992d393cdd",
c "nvars": 12764,
c "ncls": 46236,
c "total_lits": 112632,
c "nhards": 45996,
c "nhard_nlits": 112392,
c "nhard_len_stats":
c    { "min": 1,
c      "max": 6,
c      "ave": 2.4435,
c      "stddev": 0.9078 },
c "nsofts": 240,
c "nsoft_nlits": 240,
c "nsoft_len_stats":
c    { "min": 1,
c      "max": 1,
c      "ave": 1.0000,
c      "stddev": 0.0000 },
c "nsoft_wts": 1,
c "soft_wt_stats":
c    { "min": 1,
c      "max": 1,
c      "ave": 1.0000,
c      "stddev": 0.0000 }
c}
p cnf 12764 46236
1 0
-1 2 3 4 5 0
1 -2 0
1 -3 0
1 -4 0
1 -5 0
6 0
-6 7 8 9 10 0
6 -7 0
6 -8 0
6 -9 0
6 -10 0
11 0
-11 12 13 14 15 0
11 -12 0
11 -13 0
11 -14 0
11 -15 0
-16 0
-16 17 18 19 20 0
16 -17 0
16 -18 0
16 -19 0
16 -20 0
21 0
-21 22 23 24 25 0
21 -22 0
21 -23 0
21 -24 0
21 -25 0
-26 0
-26 27 28 29 30 0
26 -27 0
26 -28 0
26 -29 0
26 -30 0
31 0
-31 32 33 34 35 0
31 -32 0
31 -33 0
31 -34 0
31 -35 0
36 0
-36 37 38 39 40 0
36 -37 0
36 -38 0
36 -39 0
36 -40 0
41 0
-41 42 43 44 45 0
41 -42 0
41 -43 0
41 -44 0
41 -45 0
46 0
-46 47 48 49 50 0
46 -47 0
46 -48 0
46 -49 0
46 -50 0
51 0
-51 52 53 54 55 0
51 -52 0
51 -53 0
51 -54 0
51 -55 0
56 0
-56 57 58 59 60 0
56 -57 0
56 -58 0
56 -59 0
56 -60 0
61 0
-61 62 63 64 65 0
61 -62 0
61 -63 0
61 -64 0
61 -65 0
66 0
-66 67 68 69 70 0
66 -67 0
66 -68 0
66 -69 0
66 -70 0
71 0
-71 72 73 74 75 0
71 -72 0
71 -73 0
71 -74 0
71 -75 0
76 0
-76 77 78 79 80 0
76 -77 0
76 -78 0
76 -79 0
76 -80 0
-81 0
-81 82 83 84 85 0
81 -82 0
81 -83 0
81 -84 0
81 -85 0
86 0
-86 87 88 89 90 0
86 -87 0
86 -88 0
86 -89 0
86 -90 0
91 0
-91 92 93 94 95 0
91 -92 0
91 -93 0
91 -94 0
91 -95 0
96 0
-96 97 98 99 100 0
96 -97 0
96 -98 0
96 -99 0
96 -100 0
101 0
-101 102 103 104 105 0
101 -102 0
101 -103 0
101 -104 0
101 -105 0
106 0
-106 107 108 109 110 0
106 -107 0
106 -108 0
106 -109 0
106 -110 0
111 0
-111 112 113 114 115 0
111 -112 0
111 -113 0
111 -114 0
111 -115 0
116 0
-116 117 118 119 120 0
116 -117 0
116 -118 0
116 -119 0
116 -120 0
-121 0
-121 122 123 124 125 0
121 -122 0
121 -123 0
121 -124 0
121 -125 0
126 0
-126 127 128 129 130 0
126 -127 0
126 -128 0
126 -129 0
126 -130 0
131 0
-131 132 133 134 135 0
131 -132 0
131 -133 0
131 -134 0
131 -135 0
-136 0
-136 137 138 139 140 0
136 -137 0
136 -138 0
136 -139 0
136 -140 0
-141 0
-141 142 143 144 145 0
141 -142 0
141 -143 0
141 -144 0
141 -145 0
-146 0
-146 147 148 149 150 0
146 -147 0
146 -148 0
146 -149 0
146 -150 0
-151 0
-151 152 153 154 155 0
151 -152 0
151 -153 0
151 -154 0
151 -155 0
156 0
-156 157 158 159 160 0
156 -157 0
156 -158 0
156 -159 0
156 -160 0
-161 0
-161 162 163 164 165 0
161 -162 0
161 -163 0
161 -164 0
161 -165 0
166 0
-166 167 168 169 170 0
166 -167 0
166 -168 0
166 -169 0
166 -170 0
171 0
-171 172 173 174 175 0
171 -172 0
171 -173 0
171 -174 0
171 -175 0
-176 0
-176 177 178 179 180 0
176 -177 0
176 -178 0
176 -179 0
176 -180 0
181 0
-181 182 183 184 185 0
181 -182 0
181 -183 0
181 -184 0
181 -185 0
-186 0
-186 187 188 189 190 0
186 -187 0
186 -188 0
186 -189 0
186 -190 0
191 0
-191 192 193 194 195 0
191 -192 0
191 -193 0
191 -194 0
191 -195 0
196 0
-196 197 198 199 200 0
196 -197 0
196 -198 0
196 -199 0
196 -200 0
201 0
-201 202 203 204 205 0
201 -202 0
201 -203 0
201 -204 0
201 -205 0
206 0
-206 207 208 209 210 0
206 -207 0
206 -208 0
206 -209 0
206 -210 0
211 0
-211 212 213 214 215 0
211 -212 0
211 -213 0
211 -214 0
211 -215 0
216 0
-216 217 218 219 220 0
216 -217 0
216 -218 0
216 -219 0
216 -220 0
221 0
-221 222 223 224 225 0
221 -222 0
221 -223 0
221 -224 0
221 -225 0
226 0
-226 227 228 229 230 0
226 -227 0
226 -228 0
226 -229 0
226 -230 0
231 0
-231 232 233 234 235 0
231 -232 0
231 -233 0
231 -234 0
231 -235 0
236 0
-236 237 238 239 240 0
236 -237 0
236 -238 0
236 -239 0
236 -240 0
241 0
-241 242 243 244 245 0
241 -242 0
241 -243 0
241 -244 0
241 -245 0
-246 0
-246 247 248 249 250 0
246 -247 0
246 -248 0
246 -249 0
246 -250 0
251 0
-251 252 253 254 255 0
251 -252 0
251 -253 0
251 -254 0
251 -255 0
256 0
-256 257 258 259 260 0
256 -257 0
256 -258 0
256 -259 0
256 -260 0
261 0
-261 262 263 264 265 0
261 -262 0
261 -263 0
261 -264 0
261 -265 0
266 0
-266 267 268 269 270 0
266 -267 0
266 -268 0
266 -269 0
266 -270 0
271 0
-271 272 273 274 275 0
271 -272 0
271 -273 0
271 -274 0
271 -275 0
276 0
-276 277 278 279 280 0
276 -277 0
276 -278 0
276 -279 0
276 -280 0
281 0
-281 282 283 284 285 0
281 -282 0
281 -283 0
281 -284 0
281 -285 0
-286 0
-286 287 288 289 290 0
286 -287 0
286 -288 0
286 -289 0
286 -290 0
291 0
-291 292 293 294 295 0
291 -292 0
291 -293 0
291 -294 0
291 -295 0
296 0
-296 297 298 299 300 0
296 -297 0
296 -298 0
296 -299 0
296 -300 0
301 0
-301 302 303 304 305 0
301 -302 0
301 -303 0
301 -304 0
301 -305 0
306 0
-306 307 308 309 310 0
306 -307 0
306 -308 0
306 -309 0
306 -310 0
311 0
-311 312 313 314 315 0
311 -312 0
311 -313 0
311 -314 0
311 -315 0
316 0
-316 317 318 319 320 0
316 -317 0
316 -318 0
316 -319 0
316 -320 0
321 0
-321 322 323 324 325 0
321 -322 0
321 -323 0
321 -324 0
321 -325 0
326 0
-326 327 328 329 330 0
326 -327 0
326 -328 0
326 -329 0
326 -330 0
-331 0
-331 332 333 334 335 0
331 -332 0
331 -333 0
331 -334 0
331 -335 0
336 0
-336 337 338 339 340 0
336 -337 0
336 -338 0
336 -339 0
336 -340 0
341 0
-341 342 343 344 345 0
341 -342 0
341 -343 0
341 -344 0
341 -345 0
346 0
-346 347 348 349 350 0
346 -347 0
346 -348 0
346 -349 0
346 -350 0
351 0
-351 352 353 354 355 0
351 -352 0
351 -353 0
351 -354 0
351 -355 0
356 0
-356 357 358 359 360 0
356 -357 0
356 -358 0
356 -359 0
356 -360 0
361 0
-361 362 363 364 365 0
361 -362 0
361 -363 0
361 -364 0
361 -365 0
366 0
-366 367 368 369 370 0
366 -367 0
366 -368 0
366 -369 0
366 -370 0
371 0
-371 372 373 374 375 0
371 -372 0
371 -373 0
371 -374 0
371 -375 0
376 0
-376 377 378 379 380 0
376 -377 0
376 -378 0
376 -379 0
376 -380 0
381 0
-381 382 383 384 385 0
381 -382 0
381 -383 0
381 -384 0
381 -385 0
-386 0
-386 387 388 389 390 0
386 -387 0
386 -388 0
386 -389 0
386 -390 0
391 0
-391 392 393 394 395 0
391 -392 0
391 -393 0
391 -394 0
391 -395 0
-396 0
-396 397 398 399 400 0
396 -397 0
396 -398 0
396 -399 0
396 -400 0
401 0
-401 402 403 404 405 0
401 -402 0
401 -403 0
401 -404 0
401 -405 0
406 0
-406 407 408 409 410 0
406 -407 0
406 -408 0
406 -409 0
406 -410 0
411 0
-411 412 413 414 415 0
411 -412 0
411 -413 0
411 -414 0
411 -415 0
416 0
-416 417 418 419 420 0
416 -417 0
416 -418 0
416 -419 0
416 -420 0
421 0
-421 422 423 424 425 0
421 -422 0
421 -423 0
421 -424 0
421 -425 0
426 0
-426 427 428 429 430 0
426 -427 0
426 -428 0
426 -429 0
426 -430 0
431 0
-431 432 433 434 435 0
431 -432 0
431 -433 0
431 -434 0
431 -435 0
-436 0
-436 437 438 439 440 0
436 -437 0
436 -438 0
436 -439 0
436 -440 0
441 0
-441 442 443 444 445 0
441 -442 0
441 -443 0
441 -444 0
441 -445 0
-446 0
-446 447 448 449 450 0
446 -447 0
446 -448 0
446 -449 0
446 -450 0
451 0
-451 452 453 454 455 0
451 -452 0
451 -453 0
451 -454 0
451 -455 0
-456 0
-456 457 458 459 460 0
456 -457 0
456 -458 0
456 -459 0
456 -460 0
461 0
-461 462 463 464 465 0
461 -462 0
461 -463 0
461 -464 0
461 -465 0
-466 0
-466 467 468 469 470 0
466 -467 0
466 -468 0
466 -469 0
466 -470 0
-471 0
-471 472 473 474 475 0
471 -472 0
471 -473 0
471 -474 0
471 -475 0
-476 0
-476 477 478 479 480 0
476 -477 0
476 -478 0
476 -479 0
476 -480 0
481 0
-481 482 483 484 485 0
481 -482 0
481 -483 0
481 -484 0
481 -485 0
-486 0
-486 487 488 489 490 0
486 -487 0
486 -488 0
486 -489 0
486 -490 0
-491 0
-491 492 493 494 495 0
491 -492 0
491 -493 0
491 -494 0
491 -495 0
-496 0
-496 497 498 499 500 0
496 -497 0
496 -498 0
496 -499 0
496 -500 0
501 0
-501 502 503 504 505 0
501 -502 0
501 -503 0
501 -504 0
501 -505 0
-506 0
-506 507 508 509 510 0
506 -507 0
506 -508 0
506 -509 0
506 -510 0
511 0
-511 512 513 514 515 0
511 -512 0
511 -513 0
511 -514 0
511 -515 0
-516 0
-516 517 518 519 520 0
516 -517 0
516 -518 0
516 -519 0
516 -520 0
521 0
-521 522 523 524 525 0
521 -522 0
521 -523 0
521 -524 0
521 -525 0
526 0
-526 527 528 529 530 0
526 -527 0
526 -528 0
526 -529 0
526 -530 0
-531 0
-531 532 533 534 535 0
531 -532 0
531 -533 0
531 -534 0
531 -535 0
536 0
-536 537 538 539 540 0
536 -537 0
536 -538 0
536 -539 0
536 -540 0
-541 0
-541 542 543 544 545 0
541 -542 0
541 -543 0
541 -544 0
541 -545 0
546 0
-546 547 548 549 550 0
546 -547 0
546 -548 0
546 -549 0
546 -550 0
551 0
-551 552 553 554 555 0
551 -552 0
551 -553 0
551 -554 0
551 -555 0
556 0
-556 557 558 559 560 0
556 -557 0
556 -558 0
556 -559 0
556 -560 0
561 0
-561 562 563 564 565 0
561 -562 0
561 -563 0
561 -564 0
561 -565 0
566 0
-566 567 568 569 570 0
566 -567 0
566 -568 0
566 -569 0
566 -570 0
571 0
-571 572 573 574 575 0
571 -572 0
571 -573 0
571 -574 0
571 -575 0
576 0
-576 577 578 579 580 0
576 -577 0
576 -578 0
576 -579 0
576 -580 0
581 0
-581 582 583 584 585 0
581 -582 0
581 -583 0
581 -584 0
581 -585 0
586 0
-586 587 588 589 590 0
586 -587 0
586 -588 0
586 -589 0
586 -590 0
591 0
-591 592 593 594 595 0
591 -592 0
591 -593 0
591 -594 0
591 -595 0
596 0
-596 597 598 599 600 0
596 -597 0
596 -598 0
596 -599 0
596 -600 0
601 0
-601 602 603 604 605 0
601 -602 0
601 -603 0
601 -604 0
601 -605 0
606 0
-606 607 608 609 610 0
606 -607 0
606 -608 0
606 -609 0
606 -610 0
611 0
-611 612 613 614 615 0
611 -612 0
611 -613 0
611 -614 0
611 -615 0
616 0
-616 617 618 619 620 0
616 -617 0
616 -618 0
616 -619 0
616 -620 0
-621 0
-621 622 623 624 625 0
621 -622 0
621 -623 0
621 -624 0
621 -625 0
-626 0
-626 627 628 629 630 0
626 -627 0
626 -628 0
626 -629 0
626 -630 0
631 0
-631 632 633 634 635 0
631 -632 0
631 -633 0
631 -634 0
631 -635 0
636 0
-636 637 638 639 640 0
636 -637 0
636 -638 0
636 -639 0
636 -640 0
641 0
-641 642 643 644 645 0
641 -642 0
641 -643 0
641 -644 0
641 -645 0
646 0
-646 647 648 649 650 0
646 -647 0
646 -648 0
646 -649 0
646 -650 0
651 0
-651 652 653 654 655 0
651 -652 0
651 -653 0
651 -654 0
651 -655 0
656 0
-656 657 658 659 660 0
656 -657 0
656 -658 0
656 -659 0
656 -660 0
661 0
-661 662 663 664 665 0
661 -662 0
661 -663 0
661 -664 0
661 -665 0
666 0
-666 667 668 669 670 0
666 -667 0
666 -668 0
666 -669 0
666 -670 0
671 0
-671 672 673 674 675 0
671 -672 0
671 -673 0
671 -674 0
671 -675 0
676 0
-676 677 678 679 680 0
676 -677 0
676 -678 0
676 -679 0
676 -680 0
-681 0
-681 682 683 684 685 0
681 -682 0
681 -683 0
681 -684 0
681 -685 0
-686 0
-686 687 688 689 690 0
686 -687 0
686 -688 0
686 -689 0
686 -690 0
691 0
-691 692 693 694 695 0
691 -692 0
691 -693 0
691 -694 0
691 -695 0
696 0
-696 697 698 699 700 0
696 -697 0
696 -698 0
696 -699 0
696 -700 0
701 0
-701 702 703 704 705 0
701 -702 0
701 -703 0
701 -704 0
701 -705 0
706 0
-706 707 708 709 710 0
706 -707 0
706 -708 0
706 -709 0
706 -710 0
711 0
-711 712 713 714 715 0
711 -712 0
711 -713 0
711 -714 0
711 -715 0
716 0
-716 717 718 719 720 0
716 -717 0
716 -718 0
716 -719 0
716 -720 0
721 0
-721 722 723 724 725 0
721 -722 0
721 -723 0
721 -724 0
721 -725 0
726 0
-726 727 728 729 730 0
726 -727 0
726 -728 0
726 -729 0
726 -730 0
731 0
-731 732 733 734 735 0
731 -732 0
731 -733 0
731 -734 0
731 -735 0
736 0
-736 737 738 739 740 0
736 -737 0
736 -738 0
736 -739 0
736 -740 0
741 0
-741 742 743 744 745 0
741 -742 0
741 -743 0
741 -744 0
741 -745 0
746 0
-746 747 748 749 750 0
746 -747 0
746 -748 0
746 -749 0
746 -750 0
-751 0
-751 752 753 754 755 0
751 -752 0
751 -753 0
751 -754 0
751 -755 0
756 0
-756 757 758 759 760 0
756 -757 0
756 -758 0
756 -759 0
756 -760 0
761 0
-761 762 763 764 765 0
761 -762 0
761 -763 0
761 -764 0
761 -765 0
766 0
-766 767 768 769 770 0
766 -767 0
766 -768 0
766 -769 0
766 -770 0
771 0
-771 772 773 774 775 0
771 -772 0
771 -773 0
771 -774 0
771 -775 0
776 0
-776 777 778 779 780 0
776 -777 0
776 -778 0
776 -779 0
776 -780 0
781 0
-781 782 783 784 785 0
781 -782 0
781 -783 0
781 -784 0
781 -785 0
786 0
-786 787 788 789 790 0
786 -787 0
786 -788 0
786 -789 0
786 -790 0
791 0
-791 792 793 794 795 0
791 -792 0
791 -793 0
791 -794 0
791 -795 0
796 0
-796 797 798 799 800 0
796 -797 0
796 -798 0
796 -799 0
796 -800 0
801 0
-801 802 803 804 805 0
801 -802 0
801 -803 0
801 -804 0
801 -805 0
806 0
-806 807 808 809 810 0
806 -807 0
806 -808 0
806 -809 0
806 -810 0
811 0
-811 812 813 814 815 0
811 -812 0
811 -813 0
811 -814 0
811 -815 0
816 0
-816 817 818 819 820 0
816 -817 0
816 -818 0
816 -819 0
816 -820 0
821 0
-821 822 823 824 825 0
821 -822 0
821 -823 0
821 -824 0
821 -825 0
826 0
-826 827 828 829 830 0
826 -827 0
826 -828 0
826 -829 0
826 -830 0
831 0
-831 832 833 834 835 0
831 -832 0
831 -833 0
831 -834 0
831 -835 0
-836 0
-836 837 838 839 840 0
836 -837 0
836 -838 0
836 -839 0
836 -840 0
841 0
-841 842 843 844 845 0
841 -842 0
841 -843 0
841 -844 0
841 -845 0
846 0
-846 847 848 849 850 0
846 -847 0
846 -848 0
846 -849 0
846 -850 0
851 0
-851 852 853 854 855 0
851 -852 0
851 -853 0
851 -854 0
851 -855 0
856 0
-856 857 858 859 860 0
856 -857 0
856 -858 0
856 -859 0
856 -860 0
861 0
-861 862 863 864 865 0
861 -862 0
861 -863 0
861 -864 0
861 -865 0
-866 0
-866 867 868 869 870 0
866 -867 0
866 -868 0
866 -869 0
866 -870 0
-871 0
-871 872 873 874 875 0
871 -872 0
871 -873 0
871 -874 0
871 -875 0
876 0
-876 877 878 879 880 0
876 -877 0
876 -878 0
876 -879 0
876 -880 0
-881 0
-881 882 883 884 885 0
881 -882 0
881 -883 0
881 -884 0
881 -885 0
-886 0
-886 887 888 889 890 0
886 -887 0
886 -888 0
886 -889 0
886 -890 0
-891 0
-891 892 893 894 895 0
891 -892 0
891 -893 0
891 -894 0
891 -895 0
896 0
-896 897 898 899 900 0
896 -897 0
896 -898 0
896 -899 0
896 -900 0
-901 0
-901 902 903 904 905 0
901 -902 0
901 -903 0
901 -904 0
901 -905 0
-906 0
-906 907 908 909 910 0
906 -907 0
906 -908 0
906 -909 0
906 -910 0
-911 0
-911 912 913 914 915 0
911 -912 0
911 -913 0
911 -914 0
911 -915 0
916 0
-916 917 918 919 920 0
916 -917 0
916 -918 0
916 -919 0
916 -920 0
-921 0
-921 922 923 924 925 0
921 -922 0
921 -923 0
921 -924 0
921 -925 0
926 0
-926 927 928 929 930 0
926 -927 0
926 -928 0
926 -929 0
926 -930 0
931 0
-931 932 933 934 935 0
931 -932 0
931 -933 0
931 -934 0
931 -935 0
936 0
-936 937 938 939 940 0
936 -937 0
936 -938 0
936 -939 0
936 -940 0
-941 0
-941 942 943 944 945 0
941 -942 0
941 -943 0
941 -944 0
941 -945 0
946 0
-946 947 948 949 950 0
946 -947 0
946 -948 0
946 -949 0
946 -950 0
951 0
-951 952 953 954 955 0
951 -952 0
951 -953 0
951 -954 0
951 -955 0
956 0
-956 957 958 959 960 0
956 -957 0
956 -958 0
956 -959 0
956 -960 0
961 0
-961 962 963 964 965 0
961 -962 0
961 -963 0
961 -964 0
961 -965 0
966 0
-966 967 968 969 970 0
966 -967 0
966 -968 0
966 -969 0
966 -970 0
971 0
-971 972 973 974 975 0
971 -972 0
971 -973 0
971 -974 0
971 -975 0
976 0
-976 977 978 979 980 0
976 -977 0
976 -978 0
976 -979 0
976 -980 0
981 0
-981 982 983 984 985 0
981 -982 0
981 -983 0
981 -984 0
981 -985 0
-986 0
-986 987 988 989 990 0
986 -987 0
986 -988 0
986 -989 0
986 -990 0
991 0
-991 992 993 994 995 0
991 -992 0
991 -993 0
991 -994 0
991 -995 0
996 0
-996 997 998 999 1000 0
996 -997 0
996 -998 0
996 -999 0
996 -1000 0
1001 0
-1001 1002 1003 1004 1005 0
1001 -1002 0
1001 -1003 0
1001 -1004 0
1001 -1005 0
1006 0
-1006 1007 1008 1009 1010 0
1006 -1007 0
1006 -1008 0
1006 -1009 0
1006 -1010 0
1011 0
-1011 1012 1013 1014 1015 0
1011 -1012 0
1011 -1013 0
1011 -1014 0
1011 -1015 0
1016 0
-1016 1017 1018 1019 1020 0
1016 -1017 0
1016 -1018 0
1016 -1019 0
1016 -1020 0
1021 0
-1021 1022 1023 1024 1025 0
1021 -1022 0
1021 -1023 0
1021 -1024 0
1021 -1025 0
-1026 0
-1026 1027 1028 1029 1030 0
1026 -1027 0
1026 -1028 0
1026 -1029 0
1026 -1030 0
1031 0
-1031 1032 1033 1034 1035 0
1031 -1032 0
1031 -1033 0
1031 -1034 0
1031 -1035 0
1036 0
-1036 1037 1038 1039 1040 0
1036 -1037 0
1036 -1038 0
1036 -1039 0
1036 -1040 0
1041 0
-1041 1042 1043 1044 1045 0
1041 -1042 0
1041 -1043 0
1041 -1044 0
1041 -1045 0
1046 0
-1046 1047 1048 1049 1050 0
1046 -1047 0
1046 -1048 0
1046 -1049 0
1046 -1050 0
1051 0
-1051 1052 1053 1054 1055 0
1051 -1052 0
1051 -1053 0
1051 -1054 0
1051 -1055 0
1056 0
-1056 1057 1058 1059 1060 0
1056 -1057 0
1056 -1058 0
1056 -1059 0
1056 -1060 0
1061 0
-1061 1062 1063 1064 1065 0
1061 -1062 0
1061 -1063 0
1061 -1064 0
1061 -1065 0
1066 0
-1066 1067 1068 1069 1070 0
1066 -1067 0
1066 -1068 0
1066 -1069 0
1066 -1070 0
1071 0
-1071 1072 1073 1074 1075 0
1071 -1072 0
1071 -1073 0
1071 -1074 0
1071 -1075 0
1076 0
-1076 1077 1078 1079 1080 0
1076 -1077 0
1076 -1078 0
1076 -1079 0
1076 -1080 0
-1081 0
-1081 1082 1083 1084 1085 0
1081 -1082 0
1081 -1083 0
1081 -1084 0
1081 -1085 0
1086 0
-1086 1087 1088 1089 1090 0
1086 -1087 0
1086 -1088 0
1086 -1089 0
1086 -1090 0
1091 0
-1091 1092 1093 1094 1095 0
1091 -1092 0
1091 -1093 0
1091 -1094 0
1091 -1095 0
1096 0
-1096 1097 1098 1099 1100 0
1096 -1097 0
1096 -1098 0
1096 -1099 0
1096 -1100 0
1101 0
-1101 1102 1103 1104 1105 0
1101 -1102 0
1101 -1103 0
1101 -1104 0
1101 -1105 0
1106 0
-1106 1107 1108 1109 1110 0
1106 -1107 0
1106 -1108 0
1106 -1109 0
1106 -1110 0
1111 0
-1111 1112 1113 1114 1115 0
1111 -1112 0
1111 -1113 0
1111 -1114 0
1111 -1115 0
1116 0
-1116 1117 1118 1119 1120 0
1116 -1117 0
1116 -1118 0
1116 -1119 0
1116 -1120 0
1121 0
-1121 1122 1123 1124 1125 0
1121 -1122 0
1121 -1123 0
1121 -1124 0
1121 -1125 0
1126 0
-1126 1127 1128 1129 1130 0
1126 -1127 0
1126 -1128 0
1126 -1129 0
1126 -1130 0
1131 0
-1131 1132 1133 1134 1135 0
1131 -1132 0
1131 -1133 0
1131 -1134 0
1131 -1135 0
-1136 0
-1136 1137 1138 1139 1140 0
1136 -1137 0
1136 -1138 0
1136 -1139 0
1136 -1140 0
-1141 0
-1141 1142 1143 1144 1145 0
1141 -1142 0
1141 -1143 0
1141 -1144 0
1141 -1145 0
-1146 0
-1146 1147 1148 1149 1150 0
1146 -1147 0
1146 -1148 0
1146 -1149 0
1146 -1150 0
-1151 0
-1151 1152 1153 1154 1155 0
1151 -1152 0
1151 -1153 0
1151 -1154 0
1151 -1155 0
1156 0
-1156 1157 1158 1159 1160 0
1156 -1157 0
1156 -1158 0
1156 -1159 0
1156 -1160 0
1161 0
-1161 1162 1163 1164 1165 0
1161 -1162 0
1161 -1163 0
1161 -1164 0
1161 -1165 0
1166 0
-1166 1167 1168 1169 1170 0
1166 -1167 0
1166 -1168 0
1166 -1169 0
1166 -1170 0
1171 0
-1171 1172 1173 1174 1175 0
1171 -1172 0
1171 -1173 0
1171 -1174 0
1171 -1175 0
1176 0
-1176 1177 1178 1179 1180 0
1176 -1177 0
1176 -1178 0
1176 -1179 0
1176 -1180 0
1181 0
-1181 1182 1183 1184 1185 0
1181 -1182 0
1181 -1183 0
1181 -1184 0
1181 -1185 0
-1186 0
-1186 1187 1188 1189 1190 0
1186 -1187 0
1186 -1188 0
1186 -1189 0
1186 -1190 0
1191 0
-1191 1192 1193 1194 1195 0
1191 -1192 0
1191 -1193 0
1191 -1194 0
1191 -1195 0
1196 0
-1196 1197 1198 1199 1200 0
1196 -1197 0
1196 -1198 0
1196 -1199 0
1196 -1200 0
-1201 0
-1202 0
-1203 0
-1204 0
-1205 0
-1206 0
-1207 0
-1208 0
-1209 0
-1210 0
-1211 0
-1212 0
-1213 0
-1214 0
-1215 0
-1216 0
-1217 0
-1218 0
-1219 0
-1220 0
-1221 0
1222 -1223 -1223 0
-1222 1223 0
-1222 1223 0
-1224 1225 1222 0
1224 -1225 0
1224 -1222 0
1226 -1223 -1227 0
-1226 1223 0
-1226 1227 0
-424 1228 1226 0
424 -1228 0
424 -1226 0
1229 -1223 -1230 0
-1229 1223 0
-1229 1230 0
-422 1231 1229 0
422 -1231 0
422 -1229 0
1232 -1233 -1230 0
-1232 1233 0
-1232 1230 0
-425 1234 1232 0
425 -1234 0
425 -1232 0
1235 -1227 -1233 0
-1235 1227 0
-1235 1233 0
-423 1236 1235 0
423 -1236 0
423 -1235 0
1237 -1227 -1227 0
-1237 1227 0
-1237 1227 0
-1238 1239 1237 0
1238 -1239 0
1238 -1237 0
1240 -1241 -1241 0
-1240 1241 0
-1240 1241 0
-1242 1243 1240 0
1242 -1243 0
1242 -1240 0
1244 -1241 -1245 0
-1244 1241 0
-1244 1245 0
-1149 1246 1244 0
1149 -1246 0
1149 -1244 0
1247 -1241 -1248 0
-1247 1241 0
-1247 1248 0
-1147 1249 1247 0
1147 -1249 0
1147 -1247 0
1250 -1251 -1248 0
-1250 1251 0
-1250 1248 0
-1150 1252 1250 0
1150 -1252 0
1150 -1250 0
1253 -1245 -1251 0
-1253 1245 0
-1253 1251 0
-1148 1254 1253 0
1148 -1254 0
1148 -1253 0
1255 -1245 -1245 0
-1255 1245 0
-1255 1245 0
-1256 1257 1255 0
1256 -1257 0
1256 -1255 0
1258 -1259 -1259 0
-1258 1259 0
-1258 1259 0
-1260 1261 1258 0
1260 -1261 0
1260 -1258 0
1262 -1259 -1263 0
-1262 1259 0
-1262 1263 0
-1094 1264 1262 0
1094 -1264 0
1094 -1262 0
1265 -1259 -1266 0
-1265 1259 0
-1265 1266 0
-1092 1267 1265 0
1092 -1267 0
1092 -1265 0
1268 -1269 -1266 0
-1268 1269 0
-1268 1266 0
-1095 1270 1268 0
1095 -1270 0
1095 -1268 0
1271 -1263 -1269 0
-1271 1263 0
-1271 1269 0
-1093 1272 1271 0
1093 -1272 0
1093 -1271 0
1273 -1263 -1263 0
-1273 1263 0
-1273 1263 0
-1274 1275 1273 0
1274 -1275 0
1274 -1273 0
1276 -1277 -1277 0
-1276 1277 0
-1276 1277 0
-1278 1279 1276 0
1278 -1279 0
1278 -1276 0
1280 -1277 -1281 0
-1280 1277 0
-1280 1281 0
-1074 1282 1280 0
1074 -1282 0
1074 -1280 0
1283 -1277 -1284 0
-1283 1277 0
-1283 1284 0
-1072 1285 1283 0
1072 -1285 0
1072 -1283 0
1286 -1287 -1284 0
-1286 1287 0
-1286 1284 0
-1075 1288 1286 0
1075 -1288 0
1075 -1286 0
1289 -1281 -1287 0
-1289 1281 0
-1289 1287 0
-1073 1290 1289 0
1073 -1290 0
1073 -1289 0
1291 -1281 -1281 0
-1291 1281 0
-1291 1281 0
-1292 1293 1291 0
1292 -1293 0
1292 -1291 0
1294 -1295 -1295 0
-1294 1295 0
-1294 1295 0
-1296 1297 1294 0
1296 -1297 0
1296 -1294 0
1298 -1295 -1299 0
-1298 1295 0
-1298 1299 0
-384 1300 1298 0
384 -1300 0
384 -1298 0
1301 -1295 -1302 0
-1301 1295 0
-1301 1302 0
-382 1303 1301 0
382 -1303 0
382 -1301 0
1304 -1305 -1302 0
-1304 1305 0
-1304 1302 0
-385 1306 1304 0
385 -1306 0
385 -1304 0
1307 -1299 -1305 0
-1307 1299 0
-1307 1305 0
-383 1308 1307 0
383 -1308 0
383 -1307 0
1309 -1299 -1299 0
-1309 1299 0
-1309 1299 0
-1310 1311 1309 0
1310 -1311 0
1310 -1309 0
1312 -1313 -1314 0
-1312 1313 0
-1312 1314 0
1315 -1314 -1314 0
-1315 1314 0
-1315 1314 0
1316 -1314 -1313 0
-1316 1314 0
-1316 1313 0
1317 -1313 -1313 -1318 0
-1317 1313 0
-1317 1313 0
-1317 1318 0
-1319 1320 1312 1315 1316 1317 0
1319 -1320 0
1319 -1312 0
1319 -1315 0
1319 -1316 0
1319 -1317 0
1321 -1313 -1322 0
-1321 1313 0
-1321 1322 0
1323 -1314 -1322 0
-1323 1314 0
-1323 1322 0
1324 -1314 -1325 0
-1324 1314 0
-1324 1325 0
1326 -1313 -1325 -1318 0
-1326 1313 0
-1326 1325 0
-1326 1318 0
-309 1327 1321 1323 1324 1326 0
309 -1327 0
309 -1321 0
309 -1323 0
309 -1324 0
309 -1326 0
1328 -1313 -1329 0
-1328 1313 0
-1328 1329 0
1330 -1314 -1331 0
-1330 1314 0
-1330 1331 0
1332 -1314 -1329 0
-1332 1314 0
-1332 1329 0
1333 -1313 -1331 -1318 0
-1333 1313 0
-1333 1331 0
-1333 1318 0
-307 1334 1328 1330 1332 1333 0
307 -1334 0
307 -1328 0
307 -1330 0
307 -1332 0
307 -1333 0
1335 -1336 -1329 0
-1335 1336 0
-1335 1329 0
1337 -1338 -1329 0
-1337 1338 0
-1337 1329 0
1339 -1338 -1331 0
-1339 1338 0
-1339 1331 0
1340 -1336 -1331 -1318 0
-1340 1336 0
-1340 1331 0
-1340 1318 0
-310 1341 1335 1337 1339 1340 0
310 -1341 0
310 -1335 0
310 -1337 0
310 -1339 0
310 -1340 0
1342 -1325 -1338 0
-1342 1325 0
-1342 1338 0
1343 -1322 -1336 0
-1343 1322 0
-1343 1336 0
1344 -1322 -1338 0
-1344 1322 0
-1344 1338 0
1345 -1325 -1336 -1318 0
-1345 1325 0
-1345 1336 0
-1345 1318 0
-308 1346 1342 1343 1344 1345 0
308 -1346 0
308 -1342 0
308 -1343 0
308 -1344 0
308 -1345 0
1347 -1325 -1322 0
-1347 1325 0
-1347 1322 0
1348 -1322 -1322 0
-1348 1322 0
-1348 1322 0
1349 -1322 -1325 0
-1349 1322 0
-1349 1325 0
1350 -1325 -1325 -1318 0
-1350 1325 0
-1350 1325 0
-1350 1318 0
-1351 1352 1347 1348 1349 1350 0
1351 -1352 0
1351 -1347 0
1351 -1348 0
1351 -1349 0
1351 -1350 0
1353 -1354 -1355 0
-1353 1354 0
-1353 1355 0
1356 -1355 -1355 0
-1356 1355 0
-1356 1355 0
1357 -1355 -1354 0
-1357 1355 0
-1357 1354 0
1358 -1354 -1354 -1359 0
-1358 1354 0
-1358 1354 0
-1358 1359 0
-1360 1361 1353 1356 1357 1358 0
1360 -1361 0
1360 -1353 0
1360 -1356 0
1360 -1357 0
1360 -1358 0
1362 -1354 -1363 0
-1362 1354 0
-1362 1363 0
1364 -1355 -1363 0
-1364 1355 0
-1364 1363 0
1365 -1355 -1366 0
-1365 1355 0
-1365 1366 0
1367 -1354 -1366 -1359 0
-1367 1354 0
-1367 1366 0
-1367 1359 0
-494 1368 1362 1364 1365 1367 0
494 -1368 0
494 -1362 0
494 -1364 0
494 -1365 0
494 -1367 0
1369 -1354 -1370 0
-1369 1354 0
-1369 1370 0
1371 -1355 -1372 0
-1371 1355 0
-1371 1372 0
1373 -1355 -1370 0
-1373 1355 0
-1373 1370 0
1374 -1354 -1372 -1359 0
-1374 1354 0
-1374 1372 0
-1374 1359 0
-492 1375 1369 1371 1373 1374 0
492 -1375 0
492 -1369 0
492 -1371 0
492 -1373 0
492 -1374 0
1376 -1377 -1370 0
-1376 1377 0
-1376 1370 0
1378 -1379 -1370 0
-1378 1379 0
-1378 1370 0
1380 -1379 -1372 0
-1380 1379 0
-1380 1372 0
1381 -1377 -1372 -1359 0
-1381 1377 0
-1381 1372 0
-1381 1359 0
-495 1382 1376 1378 1380 1381 0
495 -1382 0
495 -1376 0
495 -1378 0
495 -1380 0
495 -1381 0
1383 -1366 -1379 0
-1383 1366 0
-1383 1379 0
1384 -1363 -1377 0
-1384 1363 0
-1384 1377 0
1385 -1363 -1379 0
-1385 1363 0
-1385 1379 0
1386 -1366 -1377 -1359 0
-1386 1366 0
-1386 1377 0
-1386 1359 0
-493 1387 1383 1384 1385 1386 0
493 -1387 0
493 -1383 0
493 -1384 0
493 -1385 0
493 -1386 0
1388 -1366 -1363 0
-1388 1366 0
-1388 1363 0
1389 -1363 -1363 0
-1389 1363 0
-1389 1363 0
1390 -1363 -1366 0
-1390 1363 0
-1390 1366 0
1391 -1366 -1366 -1359 0
-1391 1366 0
-1391 1366 0
-1391 1359 0
-1392 1393 1388 1389 1390 1391 0
1392 -1393 0
1392 -1388 0
1392 -1389 0
1392 -1390 0
1392 -1391 0
1394 -1395 -1396 0
-1394 1395 0
-1394 1396 0
1397 -1396 -1396 0
-1397 1396 0
-1397 1396 0
1398 -1396 -1395 0
-1398 1396 0
-1398 1395 0
1399 -1395 -1395 -1400 0
-1399 1395 0
-1399 1395 0
-1399 1400 0
-1401 1402 1394 1397 1398 1399 0
1401 -1402 0
1401 -1394 0
1401 -1397 0
1401 -1398 0
1401 -1399 0
1403 -1395 -1404 0
-1403 1395 0
-1403 1404 0
1405 -1396 -1404 0
-1405 1396 0
-1405 1404 0
1406 -1396 -1407 0
-1406 1396 0
-1406 1407 0
1408 -1395 -1407 -1400 0
-1408 1395 0
-1408 1407 0
-1408 1400 0
-824 1409 1403 1405 1406 1408 0
824 -1409 0
824 -1403 0
824 -1405 0
824 -1406 0
824 -1408 0
1410 -1395 -1411 0
-1410 1395 0
-1410 1411 0
1412 -1396 -1413 0
-1412 1396 0
-1412 1413 0
1414 -1396 -1411 0
-1414 1396 0
-1414 1411 0
1415 -1395 -1413 -1400 0
-1415 1395 0
-1415 1413 0
-1415 1400 0
-822 1416 1410 1412 1414 1415 0
822 -1416 0
822 -1410 0
822 -1412 0
822 -1414 0
822 -1415 0
1417 -1418 -1411 0
-1417 1418 0
-1417 1411 0
1419 -1420 -1411 0
-1419 1420 0
-1419 1411 0
1421 -1420 -1413 0
-1421 1420 0
-1421 1413 0
1422 -1418 -1413 -1400 0
-1422 1418 0
-1422 1413 0
-1422 1400 0
-825 1423 1417 1419 1421 1422 0
825 -1423 0
825 -1417 0
825 -1419 0
825 -1421 0
825 -1422 0
1424 -1407 -1420 0
-1424 1407 0
-1424 1420 0
1425 -1404 -1418 0
-1425 1404 0
-1425 1418 0
1426 -1404 -1420 0
-1426 1404 0
-1426 1420 0
1427 -1407 -1418 -1400 0
-1427 1407 0
-1427 1418 0
-1427 1400 0
-823 1428 1424 1425 1426 1427 0
823 -1428 0
823 -1424 0
823 -1425 0
823 -1426 0
823 -1427 0
1429 -1407 -1404 0
-1429 1407 0
-1429 1404 0
1430 -1404 -1404 0
-1430 1404 0
-1430 1404 0
1431 -1404 -1407 0
-1431 1404 0
-1431 1407 0
1432 -1407 -1407 -1400 0
-1432 1407 0
-1432 1407 0
-1432 1400 0
-1433 1434 1429 1430 1431 1432 0
1433 -1434 0
1433 -1429 0
1433 -1430 0
1433 -1431 0
1433 -1432 0
1435 -1436 -1436 0
-1435 1436 0
-1435 1436 0
-1437 1438 1435 0
1437 -1438 0
1437 -1435 0
1439 -1436 -1440 0
-1439 1436 0
-1439 1440 0
-784 1441 1439 0
784 -1441 0
784 -1439 0
1442 -1436 -1443 0
-1442 1436 0
-1442 1443 0
-782 1444 1442 0
782 -1444 0
782 -1442 0
1445 -1446 -1443 0
-1445 1446 0
-1445 1443 0
-785 1447 1445 0
785 -1447 0
785 -1445 0
1448 -1440 -1446 0
-1448 1440 0
-1448 1446 0
-783 1449 1448 0
783 -1449 0
783 -1448 0
1450 -1440 -1440 0
-1450 1440 0
-1450 1440 0
-1451 1452 1450 0
1451 -1452 0
1451 -1450 0
1453 -1454 -1454 0
-1453 1454 0
-1453 1454 0
-1455 1456 1453 0
1455 -1456 0
1455 -1453 0
1457 -1454 -1458 0
-1457 1454 0
-1457 1458 0
-594 1459 1457 0
594 -1459 0
594 -1457 0
1460 -1454 -1461 0
-1460 1454 0
-1460 1461 0
-592 1462 1460 0
592 -1462 0
592 -1460 0
1463 -1464 -1461 0
-1463 1464 0
-1463 1461 0
-595 1465 1463 0
595 -1465 0
595 -1463 0
1466 -1458 -1464 0
-1466 1458 0
-1466 1464 0
-593 1467 1466 0
593 -1467 0
593 -1466 0
1468 -1458 -1458 0
-1468 1458 0
-1468 1458 0
-1469 1470 1468 0
1469 -1470 0
1469 -1468 0
1471 -1472 -1472 0
-1471 1472 0
-1471 1472 0
-1473 1474 1471 0
1473 -1474 0
1473 -1471 0
1475 -1472 -1476 0
-1475 1472 0
-1475 1476 0
-119 1477 1475 0
119 -1477 0
119 -1475 0
1478 -1472 -1479 0
-1478 1472 0
-1478 1479 0
-117 1480 1478 0
117 -1480 0
117 -1478 0
1481 -1482 -1479 0
-1481 1482 0
-1481 1479 0
-120 1483 1481 0
120 -1483 0
120 -1481 0
1484 -1476 -1482 0
-1484 1476 0
-1484 1482 0
-118 1485 1484 0
118 -1485 0
118 -1484 0
1486 -1476 -1476 0
-1486 1476 0
-1486 1476 0
-1487 1488 1486 0
1487 -1488 0
1487 -1486 0
1489 -1490 -1490 0
-1489 1490 0
-1489 1490 0
-1491 1492 1489 0
1491 -1492 0
1491 -1489 0
1493 -1490 -1494 0
-1493 1490 0
-1493 1494 0
-959 1495 1493 0
959 -1495 0
959 -1493 0
1496 -1490 -1497 0
-1496 1490 0
-1496 1497 0
-957 1498 1496 0
957 -1498 0
957 -1496 0
1499 -1500 -1497 0
-1499 1500 0
-1499 1497 0
-960 1501 1499 0
960 -1501 0
960 -1499 0
1502 -1494 -1500 0
-1502 1494 0
-1502 1500 0
-958 1503 1502 0
958 -1503 0
958 -1502 0
1504 -1494 -1494 0
-1504 1494 0
-1504 1494 0
-1505 1506 1504 0
1505 -1506 0
1505 -1504 0
1507 -1508 -1508 0
-1507 1508 0
-1507 1508 0
-1509 1510 1507 0
1509 -1510 0
1509 -1507 0
1511 -1508 -1512 0
-1511 1508 0
-1511 1512 0
-444 1513 1511 0
444 -1513 0
444 -1511 0
1514 -1508 -1515 0
-1514 1508 0
-1514 1515 0
-442 1516 1514 0
442 -1516 0
442 -1514 0
1517 -1518 -1515 0
-1517 1518 0
-1517 1515 0
-445 1519 1517 0
445 -1519 0
445 -1517 0
1520 -1512 -1518 0
-1520 1512 0
-1520 1518 0
-443 1521 1520 0
443 -1521 0
443 -1520 0
1522 -1512 -1512 0
-1522 1512 0
-1522 1512 0
-1523 1524 1522 0
1523 -1524 0
1523 -1522 0
1525 -1526 -1526 0
-1525 1526 0
-1525 1526 0
-1527 1528 1525 0
1527 -1528 0
1527 -1525 0
1529 -1526 -1530 0
-1529 1526 0
-1529 1530 0
-1184 1531 1529 0
1184 -1531 0
1184 -1529 0
1532 -1526 -1533 0
-1532 1526 0
-1532 1533 0
-1182 1534 1532 0
1182 -1534 0
1182 -1532 0
1535 -1536 -1533 0
-1535 1536 0
-1535 1533 0
-1185 1537 1535 0
1185 -1537 0
1185 -1535 0
1538 -1530 -1536 0
-1538 1530 0
-1538 1536 0
-1183 1539 1538 0
1183 -1539 0
1183 -1538 0
1540 -1530 -1530 0
-1540 1530 0
-1540 1530 0
-1541 1542 1540 0
1541 -1542 0
1541 -1540 0
1543 -1544 -1545 0
-1543 1544 0
-1543 1545 0
1546 -1545 -1545 0
-1546 1545 0
-1546 1545 0
1547 -1545 -1544 0
-1547 1545 0
-1547 1544 0
1548 -1544 -1544 -1549 0
-1548 1544 0
-1548 1544 0
-1548 1549 0
-1550 1551 1543 1546 1547 1548 0
1550 -1551 0
1550 -1543 0
1550 -1546 0
1550 -1547 0
1550 -1548 0
1552 -1544 -1553 0
-1552 1544 0
-1552 1553 0
1554 -1545 -1553 0
-1554 1545 0
-1554 1553 0
1555 -1545 -1556 0
-1555 1545 0
-1555 1556 0
1557 -1544 -1556 -1549 0
-1557 1544 0
-1557 1556 0
-1557 1549 0
-1024 1558 1552 1554 1555 1557 0
1024 -1558 0
1024 -1552 0
1024 -1554 0
1024 -1555 0
1024 -1557 0
1559 -1544 -1560 0
-1559 1544 0
-1559 1560 0
1561 -1545 -1562 0
-1561 1545 0
-1561 1562 0
1563 -1545 -1560 0
-1563 1545 0
-1563 1560 0
1564 -1544 -1562 -1549 0
-1564 1544 0
-1564 1562 0
-1564 1549 0
-1022 1565 1559 1561 1563 1564 0
1022 -1565 0
1022 -1559 0
1022 -1561 0
1022 -1563 0
1022 -1564 0
1566 -1567 -1560 0
-1566 1567 0
-1566 1560 0
1568 -1569 -1560 0
-1568 1569 0
-1568 1560 0
1570 -1569 -1562 0
-1570 1569 0
-1570 1562 0
1571 -1567 -1562 -1549 0
-1571 1567 0
-1571 1562 0
-1571 1549 0
-1025 1572 1566 1568 1570 1571 0
1025 -1572 0
1025 -1566 0
1025 -1568 0
1025 -1570 0
1025 -1571 0
1573 -1556 -1569 0
-1573 1556 0
-1573 1569 0
1574 -1553 -1567 0
-1574 1553 0
-1574 1567 0
1575 -1553 -1569 0
-1575 1553 0
-1575 1569 0
1576 -1556 -1567 -1549 0
-1576 1556 0
-1576 1567 0
-1576 1549 0
-1023 1577 1573 1574 1575 1576 0
1023 -1577 0
1023 -1573 0
1023 -1574 0
1023 -1575 0
1023 -1576 0
1578 -1556 -1553 0
-1578 1556 0
-1578 1553 0
1579 -1553 -1553 0
-1579 1553 0
-1579 1553 0
1580 -1553 -1556 0
-1580 1553 0
-1580 1556 0
1581 -1556 -1556 -1549 0
-1581 1556 0
-1581 1556 0
-1581 1549 0
-1582 1583 1578 1579 1580 1581 0
1582 -1583 0
1582 -1578 0
1582 -1579 0
1582 -1580 0
1582 -1581 0
1584 -1585 -1586 0
-1584 1585 0
-1584 1586 0
1587 -1586 -1586 0
-1587 1586 0
-1587 1586 0
1588 -1586 -1585 0
-1588 1586 0
-1588 1585 0
1589 -1585 -1585 -1590 0
-1589 1585 0
-1589 1585 0
-1589 1590 0
-1591 1592 1584 1587 1588 1589 0
1591 -1592 0
1591 -1584 0
1591 -1587 0
1591 -1588 0
1591 -1589 0
1593 -1585 -1594 0
-1593 1585 0
-1593 1594 0
1595 -1586 -1594 0
-1595 1586 0
-1595 1594 0
1596 -1586 -1597 0
-1596 1586 0
-1596 1597 0
1598 -1585 -1597 -1590 0
-1598 1585 0
-1598 1597 0
-1598 1590 0
-629 1599 1593 1595 1596 1598 0
629 -1599 0
629 -1593 0
629 -1595 0
629 -1596 0
629 -1598 0
1600 -1585 -1601 0
-1600 1585 0
-1600 1601 0
1602 -1586 -1603 0
-1602 1586 0
-1602 1603 0
1604 -1586 -1601 0
-1604 1586 0
-1604 1601 0
1605 -1585 -1603 -1590 0
-1605 1585 0
-1605 1603 0
-1605 1590 0
-627 1606 1600 1602 1604 1605 0
627 -1606 0
627 -1600 0
627 -1602 0
627 -1604 0
627 -1605 0
1607 -1608 -1601 0
-1607 1608 0
-1607 1601 0
1609 -1610 -1601 0
-1609 1610 0
-1609 1601 0
1611 -1610 -1603 0
-1611 1610 0
-1611 1603 0
1612 -1608 -1603 -1590 0
-1612 1608 0
-1612 1603 0
-1612 1590 0
-630 1613 1607 1609 1611 1612 0
630 -1613 0
630 -1607 0
630 -1609 0
630 -1611 0
630 -1612 0
1614 -1597 -1610 0
-1614 1597 0
-1614 1610 0
1615 -1594 -1608 0
-1615 1594 0
-1615 1608 0
1616 -1594 -1610 0
-1616 1594 0
-1616 1610 0
1617 -1597 -1608 -1590 0
-1617 1597 0
-1617 1608 0
-1617 1590 0
-628 1618 1614 1615 1616 1617 0
628 -1618 0
628 -1614 0
628 -1615 0
628 -1616 0
628 -1617 0
1619 -1597 -1594 0
-1619 1597 0
-1619 1594 0
1620 -1594 -1594 0
-1620 1594 0
-1620 1594 0
1621 -1594 -1597 0
-1621 1594 0
-1621 1597 0
1622 -1597 -1597 -1590 0
-1622 1597 0
-1622 1597 0
-1622 1590 0
-1623 1624 1619 1620 1621 1622 0
1623 -1624 0
1623 -1619 0
1623 -1620 0
1623 -1621 0
1623 -1622 0
1625 -1626 -1627 0
-1625 1626 0
-1625 1627 0
1628 -1627 -1627 0
-1628 1627 0
-1628 1627 0
1629 -1627 -1626 0
-1629 1627 0
-1629 1626 0
1630 -1626 -1626 -1631 0
-1630 1626 0
-1630 1626 0
-1630 1631 0
-1632 1633 1625 1628 1629 1630 0
1632 -1633 0
1632 -1625 0
1632 -1628 0
1632 -1629 0
1632 -1630 0
1634 -1626 -1635 0
-1634 1626 0
-1634 1635 0
1636 -1627 -1635 0
-1636 1627 0
-1636 1635 0
1637 -1627 -1638 0
-1637 1627 0
-1637 1638 0
1639 -1626 -1638 -1631 0
-1639 1626 0
-1639 1638 0
-1639 1631 0
-904 1640 1634 1636 1637 1639 0
904 -1640 0
904 -1634 0
904 -1636 0
904 -1637 0
904 -1639 0
1641 -1626 -1642 0
-1641 1626 0
-1641 1642 0
1643 -1627 -1644 0
-1643 1627 0
-1643 1644 0
1645 -1627 -1642 0
-1645 1627 0
-1645 1642 0
1646 -1626 -1644 -1631 0
-1646 1626 0
-1646 1644 0
-1646 1631 0
-902 1647 1641 1643 1645 1646 0
902 -1647 0
902 -1641 0
902 -1643 0
902 -1645 0
902 -1646 0
1648 -1649 -1642 0
-1648 1649 0
-1648 1642 0
1650 -1651 -1642 0
-1650 1651 0
-1650 1642 0
1652 -1651 -1644 0
-1652 1651 0
-1652 1644 0
1653 -1649 -1644 -1631 0
-1653 1649 0
-1653 1644 0
-1653 1631 0
-905 1654 1648 1650 1652 1653 0
905 -1654 0
905 -1648 0
905 -1650 0
905 -1652 0
905 -1653 0
1655 -1638 -1651 0
-1655 1638 0
-1655 1651 0
1656 -1635 -1649 0
-1656 1635 0
-1656 1649 0
1657 -1635 -1651 0
-1657 1635 0
-1657 1651 0
1658 -1638 -1649 -1631 0
-1658 1638 0
-1658 1649 0
-1658 1631 0
-903 1659 1655 1656 1657 1658 0
903 -1659 0
903 -1655 0
903 -1656 0
903 -1657 0
903 -1658 0
1660 -1638 -1635 0
-1660 1638 0
-1660 1635 0
1661 -1635 -1635 0
-1661 1635 0
-1661 1635 0
1662 -1635 -1638 0
-1662 1635 0
-1662 1638 0
1663 -1638 -1638 -1631 0
-1663 1638 0
-1663 1638 0
-1663 1631 0
-1664 1665 1660 1661 1662 1663 0
1664 -1665 0
1664 -1660 0
1664 -1661 0
1664 -1662 0
1664 -1663 0
1666 -1667 -1667 0
-1666 1667 0
-1666 1667 0
-1668 1669 1666 0
1668 -1669 0
1668 -1666 0
1670 -1667 -1671 0
-1670 1667 0
-1670 1671 0
-439 1672 1670 0
439 -1672 0
439 -1670 0
1673 -1667 -1674 0
-1673 1667 0
-1673 1674 0
-437 1675 1673 0
437 -1675 0
437 -1673 0
1676 -1677 -1674 0
-1676 1677 0
-1676 1674 0
-440 1678 1676 0
440 -1678 0
440 -1676 0
1679 -1671 -1677 0
-1679 1671 0
-1679 1677 0
-438 1680 1679 0
438 -1680 0
438 -1679 0
1681 -1671 -1671 0
-1681 1671 0
-1681 1671 0
-1682 1683 1681 0
1682 -1683 0
1682 -1681 0
1684 -1685 -1685 0
-1684 1685 0
-1684 1685 0
-1686 1687 1684 0
1686 -1687 0
1686 -1684 0
1688 -1685 -1689 0
-1688 1685 0
-1688 1689 0
-1129 1690 1688 0
1129 -1690 0
1129 -1688 0
1691 -1685 -1692 0
-1691 1685 0
-1691 1692 0
-1127 1693 1691 0
1127 -1693 0
1127 -1691 0
1694 -1695 -1692 0
-1694 1695 0
-1694 1692 0
-1130 1696 1694 0
1130 -1696 0
1130 -1694 0
1697 -1689 -1695 0
-1697 1689 0
-1697 1695 0
-1128 1698 1697 0
1128 -1698 0
1128 -1697 0
1699 -1689 -1689 0
-1699 1689 0
-1699 1689 0
-1700 1701 1699 0
1700 -1701 0
1700 -1699 0
1702 -1703 -1703 0
-1702 1703 0
-1702 1703 0
-1704 1705 1702 0
1704 -1705 0
1704 -1702 0
1706 -1703 -1707 0
-1706 1703 0
-1706 1707 0
-409 1708 1706 0
409 -1708 0
409 -1706 0
1709 -1703 -1710 0
-1709 1703 0
-1709 1710 0
-407 1711 1709 0
407 -1711 0
407 -1709 0
1712 -1713 -1710 0
-1712 1713 0
-1712 1710 0
-410 1714 1712 0
410 -1714 0
410 -1712 0
1715 -1707 -1713 0
-1715 1707 0
-1715 1713 0
-408 1716 1715 0
408 -1716 0
408 -1715 0
1717 -1707 -1707 0
-1717 1707 0
-1717 1707 0
-1718 1719 1717 0
1718 -1719 0
1718 -1717 0
1720 -1721 -1721 0
-1720 1721 0
-1720 1721 0
-1722 1723 1720 0
1722 -1723 0
1722 -1720 0
1724 -1721 -1725 0
-1724 1721 0
-1724 1725 0
-359 1726 1724 0
359 -1726 0
359 -1724 0
1727 -1721 -1728 0
-1727 1721 0
-1727 1728 0
-357 1729 1727 0
357 -1729 0
357 -1727 0
1730 -1731 -1728 0
-1730 1731 0
-1730 1728 0
-360 1732 1730 0
360 -1732 0
360 -1730 0
1733 -1725 -1731 0
-1733 1725 0
-1733 1731 0
-358 1734 1733 0
358 -1734 0
358 -1733 0
1735 -1725 -1725 0
-1735 1725 0
-1735 1725 0
-1736 1737 1735 0
1736 -1737 0
1736 -1735 0
1738 -1739 -1739 0
-1738 1739 0
-1738 1739 0
-1740 1741 1738 0
1740 -1741 0
1740 -1738 0
1742 -1739 -1743 0
-1742 1739 0
-1742 1743 0
-159 1744 1742 0
159 -1744 0
159 -1742 0
1745 -1739 -1746 0
-1745 1739 0
-1745 1746 0
-157 1747 1745 0
157 -1747 0
157 -1745 0
1748 -1749 -1746 0
-1748 1749 0
-1748 1746 0
-160 1750 1748 0
160 -1750 0
160 -1748 0
1751 -1743 -1749 0
-1751 1743 0
-1751 1749 0
-158 1752 1751 0
158 -1752 0
158 -1751 0
1753 -1743 -1743 0
-1753 1743 0
-1753 1743 0
-1754 1755 1753 0
1754 -1755 0
1754 -1753 0
1756 -1757 -1757 0
-1756 1757 0
-1756 1757 0
-1758 1759 1756 0
1758 -1759 0
1758 -1756 0
1760 -1757 -1761 0
-1760 1757 0
-1760 1761 0
-834 1762 1760 0
834 -1762 0
834 -1760 0
1763 -1757 -1764 0
-1763 1757 0
-1763 1764 0
-832 1765 1763 0
832 -1765 0
832 -1763 0
1766 -1767 -1764 0
-1766 1767 0
-1766 1764 0
-835 1768 1766 0
835 -1768 0
835 -1766 0
1769 -1761 -1767 0
-1769 1761 0
-1769 1767 0
-833 1770 1769 0
833 -1770 0
833 -1769 0
1771 -1761 -1761 0
-1771 1761 0
-1771 1761 0
-1772 1773 1771 0
1772 -1773 0
1772 -1771 0
1774 -1775 -1776 0
-1774 1775 0
-1774 1776 0
1777 -1776 -1776 0
-1777 1776 0
-1777 1776 0
1778 -1776 -1775 0
-1778 1776 0
-1778 1775 0
1779 -1775 -1775 -1780 0
-1779 1775 0
-1779 1775 0
-1779 1780 0
-1781 1782 1774 1777 1778 1779 0
1781 -1782 0
1781 -1774 0
1781 -1777 0
1781 -1778 0
1781 -1779 0
1783 -1775 -1784 0
-1783 1775 0
-1783 1784 0
1785 -1776 -1784 0
-1785 1776 0
-1785 1784 0
1786 -1776 -1787 0
-1786 1776 0
-1786 1787 0
1788 -1775 -1787 -1780 0
-1788 1775 0
-1788 1787 0
-1788 1780 0
-349 1789 1783 1785 1786 1788 0
349 -1789 0
349 -1783 0
349 -1785 0
349 -1786 0
349 -1788 0
1790 -1775 -1791 0
-1790 1775 0
-1790 1791 0
1792 -1776 -1793 0
-1792 1776 0
-1792 1793 0
1794 -1776 -1791 0
-1794 1776 0
-1794 1791 0
1795 -1775 -1793 -1780 0
-1795 1775 0
-1795 1793 0
-1795 1780 0
-347 1796 1790 1792 1794 1795 0
347 -1796 0
347 -1790 0
347 -1792 0
347 -1794 0
347 -1795 0
1797 -1798 -1791 0
-1797 1798 0
-1797 1791 0
1799 -1800 -1791 0
-1799 1800 0
-1799 1791 0
1801 -1800 -1793 0
-1801 1800 0
-1801 1793 0
1802 -1798 -1793 -1780 0
-1802 1798 0
-1802 1793 0
-1802 1780 0
-350 1803 1797 1799 1801 1802 0
350 -1803 0
350 -1797 0
350 -1799 0
350 -1801 0
350 -1802 0
1804 -1787 -1800 0
-1804 1787 0
-1804 1800 0
1805 -1784 -1798 0
-1805 1784 0
-1805 1798 0
1806 -1784 -1800 0
-1806 1784 0
-1806 1800 0
1807 -1787 -1798 -1780 0
-1807 1787 0
-1807 1798 0
-1807 1780 0
-348 1808 1804 1805 1806 1807 0
348 -1808 0
348 -1804 0
348 -1805 0
348 -1806 0
348 -1807 0
1809 -1787 -1784 0
-1809 1787 0
-1809 1784 0
1810 -1784 -1784 0
-1810 1784 0
-1810 1784 0
1811 -1784 -1787 0
-1811 1784 0
-1811 1787 0
1812 -1787 -1787 -1780 0
-1812 1787 0
-1812 1787 0
-1812 1780 0
-1813 1814 1809 1810 1811 1812 0
1813 -1814 0
1813 -1809 0
1813 -1810 0
1813 -1811 0
1813 -1812 0
1815 -1816 -1817 0
-1815 1816 0
-1815 1817 0
1818 -1817 -1817 0
-1818 1817 0
-1818 1817 0
1819 -1817 -1816 0
-1819 1817 0
-1819 1816 0
1820 -1816 -1816 -1821 0
-1820 1816 0
-1820 1816 0
-1820 1821 0
-1822 1823 1815 1818 1819 1820 0
1822 -1823 0
1822 -1815 0
1822 -1818 0
1822 -1819 0
1822 -1820 0
1824 -1816 -1825 0
-1824 1816 0
-1824 1825 0
1826 -1817 -1825 0
-1826 1817 0
-1826 1825 0
1827 -1817 -1828 0
-1827 1817 0
-1827 1828 0
1829 -1816 -1828 -1821 0
-1829 1816 0
-1829 1828 0
-1829 1821 0
-554 1830 1824 1826 1827 1829 0
554 -1830 0
554 -1824 0
554 -1826 0
554 -1827 0
554 -1829 0
1831 -1816 -1832 0
-1831 1816 0
-1831 1832 0
1833 -1817 -1834 0
-1833 1817 0
-1833 1834 0
1835 -1817 -1832 0
-1835 1817 0
-1835 1832 0
1836 -1816 -1834 -1821 0
-1836 1816 0
-1836 1834 0
-1836 1821 0
-552 1837 1831 1833 1835 1836 0
552 -1837 0
552 -1831 0
552 -1833 0
552 -1835 0
552 -1836 0
1838 -1839 -1832 0
-1838 1839 0
-1838 1832 0
1840 -1841 -1832 0
-1840 1841 0
-1840 1832 0
1842 -1841 -1834 0
-1842 1841 0
-1842 1834 0
1843 -1839 -1834 -1821 0
-1843 1839 0
-1843 1834 0
-1843 1821 0
-555 1844 1838 1840 1842 1843 0
555 -1844 0
555 -1838 0
555 -1840 0
555 -1842 0
555 -1843 0
1845 -1828 -1841 0
-1845 1828 0
-1845 1841 0
1846 -1825 -1839 0
-1846 1825 0
-1846 1839 0
1847 -1825 -1841 0
-1847 1825 0
-1847 1841 0
1848 -1828 -1839 -1821 0
-1848 1828 0
-1848 1839 0
-1848 1821 0
-553 1849 1845 1846 1847 1848 0
553 -1849 0
553 -1845 0
553 -1846 0
553 -1847 0
553 -1848 0
1850 -1828 -1825 0
-1850 1828 0
-1850 1825 0
1851 -1825 -1825 0
-1851 1825 0
-1851 1825 0
1852 -1825 -1828 0
-1852 1825 0
-1852 1828 0
1853 -1828 -1828 -1821 0
-1853 1828 0
-1853 1828 0
-1853 1821 0
-1854 1855 1850 1851 1852 1853 0
1854 -1855 0
1854 -1850 0
1854 -1851 0
1854 -1852 0
1854 -1853 0
1856 -1857 -1857 0
-1856 1857 0
-1856 1857 0
-1858 1859 1856 0
1858 -1859 0
1858 -1856 0
1860 -1857 -1861 0
-1860 1857 0
-1860 1861 0
-829 1862 1860 0
829 -1862 0
829 -1860 0
1863 -1857 -1864 0
-1863 1857 0
-1863 1864 0
-827 1865 1863 0
827 -1865 0
827 -1863 0
1866 -1867 -1864 0
-1866 1867 0
-1866 1864 0
-830 1868 1866 0
830 -1868 0
830 -1866 0
1869 -1861 -1867 0
-1869 1861 0
-1869 1867 0
-828 1870 1869 0
828 -1870 0
828 -1869 0
1871 -1861 -1861 0
-1871 1861 0
-1871 1861 0
-1872 1873 1871 0
1872 -1873 0
1872 -1871 0
1874 -1875 -1875 0
-1874 1875 0
-1874 1875 0
-1876 1877 1874 0
1876 -1877 0
1876 -1874 0
1878 -1875 -1879 0
-1878 1875 0
-1878 1879 0
-1009 1880 1878 0
1009 -1880 0
1009 -1878 0
1881 -1875 -1882 0
-1881 1875 0
-1881 1882 0
-1007 1883 1881 0
1007 -1883 0
1007 -1881 0
1884 -1885 -1882 0
-1884 1885 0
-1884 1882 0
-1010 1886 1884 0
1010 -1886 0
1010 -1884 0
1887 -1879 -1885 0
-1887 1879 0
-1887 1885 0
-1008 1888 1887 0
1008 -1888 0
1008 -1887 0
1889 -1879 -1879 0
-1889 1879 0
-1889 1879 0
-1890 1891 1889 0
1890 -1891 0
1890 -1889 0
1892 -1893 -1893 0
-1892 1893 0
-1892 1893 0
-1894 1895 1892 0
1894 -1895 0
1894 -1892 0
1896 -1893 -1897 0
-1896 1893 0
-1896 1897 0
-1189 1898 1896 0
1189 -1898 0
1189 -1896 0
1899 -1893 -1900 0
-1899 1893 0
-1899 1900 0
-1187 1901 1899 0
1187 -1901 0
1187 -1899 0
1902 -1903 -1900 0
-1902 1903 0
-1902 1900 0
-1190 1904 1902 0
1190 -1904 0
1190 -1902 0
1905 -1897 -1903 0
-1905 1897 0
-1905 1903 0
-1188 1906 1905 0
1188 -1906 0
1188 -1905 0
1907 -1897 -1897 0
-1907 1897 0
-1907 1897 0
-1908 1909 1907 0
1908 -1909 0
1908 -1907 0
1910 -1832 -1832 0
-1910 1832 0
-1910 1832 0
-1911 1821 1910 0
1911 -1821 0
1911 -1910 0
1912 -1832 -1837 0
-1912 1832 0
-1912 1837 0
-839 1817 1912 0
839 -1817 0
839 -1912 0
1913 -1832 -1844 0
-1913 1832 0
-1913 1844 0
-837 1841 1913 0
837 -1841 0
837 -1913 0
1914 -1834 -1844 0
-1914 1834 0
-1914 1844 0
-840 1839 1914 0
840 -1839 0
840 -1914 0
1915 -1837 -1834 0
-1915 1837 0
-1915 1834 0
-838 1816 1915 0
838 -1816 0
838 -1915 0
1916 -1837 -1837 0
-1916 1837 0
-1916 1837 0
-1917 1823 1916 0
1917 -1823 0
1917 -1916 0
1918 -1693 -1690 0
-1918 1693 0
-1918 1690 0
1919 -1690 -1690 0
-1919 1690 0
-1919 1690 0
1920 -1690 -1693 0
-1920 1690 0
-1920 1693 0
1921 -1693 -1693 -1701 0
-1921 1693 0
-1921 1693 0
-1921 1701 0
-1922 1687 1918 1919 1920 1921 0
1922 -1687 0
1922 -1918 0
1922 -1919 0
1922 -1920 0
1922 -1921 0
1923 -1693 -1924 0
-1923 1693 0
-1923 1924 0
1925 -1690 -1924 0
-1925 1690 0
-1925 1924 0
1926 -1690 -1927 0
-1926 1690 0
-1926 1927 0
1928 -1693 -1927 -1701 0
-1928 1693 0
-1928 1927 0
-1928 1701 0
-864 1929 1923 1925 1926 1928 0
864 -1929 0
864 -1923 0
864 -1925 0
864 -1926 0
864 -1928 0
1930 -1693 -1689 0
-1930 1693 0
-1930 1689 0
1931 -1690 -1692 0
-1931 1690 0
-1931 1692 0
1932 -1690 -1689 0
-1932 1690 0
-1932 1689 0
1933 -1693 -1692 -1701 0
-1933 1693 0
-1933 1692 0
-1933 1701 0
-862 1685 1930 1931 1932 1933 0
862 -1685 0
862 -1930 0
862 -1931 0
862 -1932 0
862 -1933 0
1934 -1696 -1689 0
-1934 1696 0
-1934 1689 0
1935 -1698 -1689 0
-1935 1698 0
-1935 1689 0
1936 -1698 -1692 0
-1936 1698 0
-1936 1692 0
1937 -1696 -1692 -1701 0
-1937 1696 0
-1937 1692 0
-1937 1701 0
-865 1695 1934 1935 1936 1937 0
865 -1695 0
865 -1934 0
865 -1935 0
865 -1936 0
865 -1937 0
1938 -1927 -1698 0
-1938 1927 0
-1938 1698 0
1939 -1924 -1696 0
-1939 1924 0
-1939 1696 0
1940 -1924 -1698 0
-1940 1924 0
-1940 1698 0
1941 -1927 -1696 -1701 0
-1941 1927 0
-1941 1696 0
-1941 1701 0
-863 1942 1938 1939 1940 1941 0
863 -1942 0
863 -1938 0
863 -1939 0
863 -1940 0
863 -1941 0
1943 -1927 -1924 0
-1943 1927 0
-1943 1924 0
1944 -1924 -1924 0
-1944 1924 0
-1944 1924 0
1945 -1924 -1927 0
-1945 1924 0
-1945 1927 0
1946 -1927 -1927 -1701 0
-1946 1927 0
-1946 1927 0
-1946 1701 0
-1947 1948 1943 1944 1945 1946 0
1947 -1948 0
1947 -1943 0
1947 -1944 0
1947 -1945 0
1947 -1946 0
1949 -1950 -1950 0
-1949 1950 0
-1949 1950 0
-1951 1952 1949 0
1951 -1952 0
1951 -1949 0
1953 -1950 -1954 0
-1953 1950 0
-1953 1954 0
-754 1955 1953 0
754 -1955 0
754 -1953 0
1956 -1950 -1957 0
-1956 1950 0
-1956 1957 0
-752 1958 1956 0
752 -1958 0
752 -1956 0
1959 -1960 -1957 0
-1959 1960 0
-1959 1957 0
-755 1961 1959 0
755 -1961 0
755 -1959 0
1962 -1954 -1960 0
-1962 1954 0
-1962 1960 0
-753 1963 1962 0
753 -1963 0
753 -1962 0
1964 -1954 -1954 0
-1964 1954 0
-1964 1954 0
-1965 1966 1964 0
1965 -1966 0
1965 -1964 0
1967 -1693 -1693 0
-1967 1693 0
-1967 1693 0
-1968 1687 1967 0
1968 -1687 0
1968 -1967 0
1969 -1693 -1927 0
-1969 1693 0
-1969 1927 0
-1134 1929 1969 0
1134 -1929 0
1134 -1969 0
1970 -1693 -1692 0
-1970 1693 0
-1970 1692 0
-1132 1685 1970 0
1132 -1685 0
1132 -1970 0
1971 -1696 -1692 0
-1971 1696 0
-1971 1692 0
-1135 1695 1971 0
1135 -1695 0
1135 -1971 0
1972 -1927 -1696 0
-1972 1927 0
-1972 1696 0
-1133 1942 1972 0
1133 -1942 0
1133 -1972 0
1973 -1927 -1927 0
-1973 1927 0
-1973 1927 0
-1974 1948 1973 0
1974 -1948 0
1974 -1973 0
1975 -1976 -1977 0
-1975 1976 0
-1975 1977 0
1978 -1977 -1977 0
-1978 1977 0
-1978 1977 0
1979 -1977 -1976 0
-1979 1977 0
-1979 1976 0
1980 -1976 -1976 -1981 0
-1980 1976 0
-1980 1976 0
-1980 1981 0
-1982 1983 1975 1978 1979 1980 0
1982 -1983 0
1982 -1975 0
1982 -1978 0
1982 -1979 0
1982 -1980 0
1984 -1976 -1985 0
-1984 1976 0
-1984 1985 0
1986 -1977 -1985 0
-1986 1977 0
-1986 1985 0
1987 -1977 -1988 0
-1987 1977 0
-1987 1988 0
1989 -1976 -1988 -1981 0
-1989 1976 0
-1989 1988 0
-1989 1981 0
-519 1990 1984 1986 1987 1989 0
519 -1990 0
519 -1984 0
519 -1986 0
519 -1987 0
519 -1989 0
1991 -1976 -1992 0
-1991 1976 0
-1991 1992 0
1993 -1977 -1994 0
-1993 1977 0
-1993 1994 0
1995 -1977 -1992 0
-1995 1977 0
-1995 1992 0
1996 -1976 -1994 -1981 0
-1996 1976 0
-1996 1994 0
-1996 1981 0
-517 1997 1991 1993 1995 1996 0
517 -1997 0
517 -1991 0
517 -1993 0
517 -1995 0
517 -1996 0
1998 -1999 -1992 0
-1998 1999 0
-1998 1992 0
2000 -2001 -1992 0
-2000 2001 0
-2000 1992 0
2002 -2001 -1994 0
-2002 2001 0
-2002 1994 0
2003 -1999 -1994 -1981 0
-2003 1999 0
-2003 1994 0
-2003 1981 0
-520 2004 1998 2000 2002 2003 0
520 -2004 0
520 -1998 0
520 -2000 0
520 -2002 0
520 -2003 0
2005 -1988 -2001 0
-2005 1988 0
-2005 2001 0
2006 -1985 -1999 0
-2006 1985 0
-2006 1999 0
2007 -1985 -2001 0
-2007 1985 0
-2007 2001 0
2008 -1988 -1999 -1981 0
-2008 1988 0
-2008 1999 0
-2008 1981 0
-518 2009 2005 2006 2007 2008 0
518 -2009 0
518 -2005 0
518 -2006 0
518 -2007 0
518 -2008 0
2010 -1988 -1985 0
-2010 1988 0
-2010 1985 0
2011 -1985 -1985 0
-2011 1985 0
-2011 1985 0
2012 -1985 -1988 0
-2012 1985 0
-2012 1988 0
2013 -1988 -1988 -1981 0
-2013 1988 0
-2013 1988 0
-2013 1981 0
-2014 2015 2010 2011 2012 2013 0
2014 -2015 0
2014 -2010 0
2014 -2011 0
2014 -2012 0
2014 -2013 0
2016 -2017 -2017 0
-2016 2017 0
-2016 2017 0
-2018 2019 2016 0
2018 -2019 0
2018 -2016 0
2020 -2017 -2021 0
-2020 2017 0
-2020 2021 0
-319 2022 2020 0
319 -2022 0
319 -2020 0
2023 -2017 -2024 0
-2023 2017 0
-2023 2024 0
-317 2025 2023 0
317 -2025 0
317 -2023 0
2026 -2027 -2024 0
-2026 2027 0
-2026 2024 0
-320 2028 2026 0
320 -2028 0
320 -2026 0
2029 -2021 -2027 0
-2029 2021 0
-2029 2027 0
-318 2030 2029 0
318 -2030 0
318 -2029 0
2031 -2021 -2021 0
-2031 2021 0
-2031 2021 0
-2032 2033 2031 0
2032 -2033 0
2032 -2031 0
2034 -1841 -1841 0
-2034 1841 0
-2034 1841 0
-2035 1821 2034 0
2035 -1821 0
2035 -2034 0
2036 -1841 -1849 0
-2036 1841 0
-2036 1849 0
-859 1825 2036 0
859 -1825 0
859 -2036 0
2037 -1841 -1844 0
-2037 1841 0
-2037 1844 0
-857 1832 2037 0
857 -1832 0
857 -2037 0
2038 -1839 -1844 0
-2038 1839 0
-2038 1844 0
-860 1834 2038 0
860 -1834 0
860 -2038 0
2039 -1849 -1839 0
-2039 1849 0
-2039 1839 0
-858 1828 2039 0
858 -1828 0
858 -2039 0
2040 -1849 -1849 0
-2040 1849 0
-2040 1849 0
-2041 1855 2040 0
2041 -1855 0
2041 -2040 0
2042 -2043 -2043 0
-2042 2043 0
-2042 2043 0
-2044 2045 2042 0
2044 -2045 0
2044 -2042 0
2046 -2043 -2047 0
-2046 2043 0
-2046 2047 0
-724 2048 2046 0
724 -2048 0
724 -2046 0
2049 -2043 -2050 0
-2049 2043 0
-2049 2050 0
-722 2051 2049 0
722 -2051 0
722 -2049 0
2052 -2053 -2050 0
-2052 2053 0
-2052 2050 0
-725 2054 2052 0
725 -2054 0
725 -2052 0
2055 -2047 -2053 0
-2055 2047 0
-2055 2053 0
-723 2056 2055 0
723 -2056 0
723 -2055 0
2057 -2047 -2047 0
-2057 2047 0
-2057 2047 0
-2058 2059 2057 0
2058 -2059 0
2058 -2057 0
2060 -1313 -1313 0
-2060 1313 0
-2060 1313 0
-2061 1320 2060 0
2061 -1320 0
2061 -2060 0
2062 -1313 -1325 0
-2062 1313 0
-2062 1325 0
-714 1327 2062 0
714 -1327 0
714 -2062 0
2063 -1313 -1331 0
-2063 1313 0
-2063 1331 0
-712 1334 2063 0
712 -1334 0
712 -2063 0
2064 -1336 -1331 0
-2064 1336 0
-2064 1331 0
-715 1341 2064 0
715 -1341 0
715 -2064 0
2065 -1325 -1336 0
-2065 1325 0
-2065 1336 0
-713 1346 2065 0
713 -1346 0
713 -2065 0
2066 -1325 -1325 0
-2066 1325 0
-2066 1325 0
-2067 1352 2066 0
2067 -1352 0
2067 -2066 0
2068 -2069 -2070 0
-2068 2069 0
-2068 2070 0
2071 -2070 -2070 0
-2071 2070 0
-2071 2070 0
2072 -2070 -2069 0
-2072 2070 0
-2072 2069 0
2073 -2069 -2069 -2074 0
-2073 2069 0
-2073 2069 0
-2073 2074 0
-2075 2076 2068 2071 2072 2073 0
2075 -2076 0
2075 -2068 0
2075 -2071 0
2075 -2072 0
2075 -2073 0
2077 -2069 -2078 0
-2077 2069 0
-2077 2078 0
2079 -2070 -2078 0
-2079 2070 0
-2079 2078 0
2080 -2070 -2081 0
-2080 2070 0
-2080 2081 0
2082 -2069 -2081 -2074 0
-2082 2069 0
-2082 2081 0
-2082 2074 0
-224 2083 2077 2079 2080 2082 0
224 -2083 0
224 -2077 0
224 -2079 0
224 -2080 0
224 -2082 0
2084 -2069 -2085 0
-2084 2069 0
-2084 2085 0
2086 -2070 -2087 0
-2086 2070 0
-2086 2087 0
2088 -2070 -2085 0
-2088 2070 0
-2088 2085 0
2089 -2069 -2087 -2074 0
-2089 2069 0
-2089 2087 0
-2089 2074 0
-222 2090 2084 2086 2088 2089 0
222 -2090 0
222 -2084 0
222 -2086 0
222 -2088 0
222 -2089 0
2091 -2092 -2085 0
-2091 2092 0
-2091 2085 0
2093 -2094 -2085 0
-2093 2094 0
-2093 2085 0
2095 -2094 -2087 0
-2095 2094 0
-2095 2087 0
2096 -2092 -2087 -2074 0
-2096 2092 0
-2096 2087 0
-2096 2074 0
-225 2097 2091 2093 2095 2096 0
225 -2097 0
225 -2091 0
225 -2093 0
225 -2095 0
225 -2096 0
2098 -2081 -2094 0
-2098 2081 0
-2098 2094 0
2099 -2078 -2092 0
-2099 2078 0
-2099 2092 0
2100 -2078 -2094 0
-2100 2078 0
-2100 2094 0
2101 -2081 -2092 -2074 0
-2101 2081 0
-2101 2092 0
-2101 2074 0
-223 2102 2098 2099 2100 2101 0
223 -2102 0
223 -2098 0
223 -2099 0
223 -2100 0
223 -2101 0
2103 -2081 -2078 0
-2103 2081 0
-2103 2078 0
2104 -2078 -2078 0
-2104 2078 0
-2104 2078 0
2105 -2078 -2081 0
-2105 2078 0
-2105 2081 0
2106 -2081 -2081 -2074 0
-2106 2081 0
-2106 2081 0
-2106 2074 0
-2107 2108 2103 2104 2105 2106 0
2107 -2108 0
2107 -2103 0
2107 -2104 0
2107 -2105 0
2107 -2106 0
2109 -2110 -2111 0
-2109 2110 0
-2109 2111 0
2112 -2111 -2111 0
-2112 2111 0
-2112 2111 0
2113 -2111 -2110 0
-2113 2111 0
-2113 2110 0
2114 -2110 -2110 -2115 0
-2114 2110 0
-2114 2110 0
-2114 2115 0
-2116 2117 2109 2112 2113 2114 0
2116 -2117 0
2116 -2109 0
2116 -2112 0
2116 -2113 0
2116 -2114 0
2118 -2110 -2119 0
-2118 2110 0
-2118 2119 0
2120 -2111 -2119 0
-2120 2111 0
-2120 2119 0
2121 -2111 -2122 0
-2121 2111 0
-2121 2122 0
2123 -2110 -2122 -2115 0
-2123 2110 0
-2123 2122 0
-2123 2115 0
-254 2124 2118 2120 2121 2123 0
254 -2124 0
254 -2118 0
254 -2120 0
254 -2121 0
254 -2123 0
2125 -2110 -2126 0
-2125 2110 0
-2125 2126 0
2127 -2111 -2128 0
-2127 2111 0
-2127 2128 0
2129 -2111 -2126 0
-2129 2111 0
-2129 2126 0
2130 -2110 -2128 -2115 0
-2130 2110 0
-2130 2128 0
-2130 2115 0
-252 2131 2125 2127 2129 2130 0
252 -2131 0
252 -2125 0
252 -2127 0
252 -2129 0
252 -2130 0
2132 -2133 -2126 0
-2132 2133 0
-2132 2126 0
2134 -2135 -2126 0
-2134 2135 0
-2134 2126 0
2136 -2135 -2128 0
-2136 2135 0
-2136 2128 0
2137 -2133 -2128 -2115 0
-2137 2133 0
-2137 2128 0
-2137 2115 0
-255 2138 2132 2134 2136 2137 0
255 -2138 0
255 -2132 0
255 -2134 0
255 -2136 0
255 -2137 0
2139 -2122 -2135 0
-2139 2122 0
-2139 2135 0
2140 -2119 -2133 0
-2140 2119 0
-2140 2133 0
2141 -2119 -2135 0
-2141 2119 0
-2141 2135 0
2142 -2122 -2133 -2115 0
-2142 2122 0
-2142 2133 0
-2142 2115 0
-253 2143 2139 2140 2141 2142 0
253 -2143 0
253 -2139 0
253 -2140 0
253 -2141 0
253 -2142 0
2144 -2122 -2119 0
-2144 2122 0
-2144 2119 0
2145 -2119 -2119 0
-2145 2119 0
-2145 2119 0
2146 -2119 -2122 0
-2146 2119 0
-2146 2122 0
2147 -2122 -2122 -2115 0
-2147 2122 0
-2147 2122 0
-2147 2115 0
-2148 2149 2144 2145 2146 2147 0
2148 -2149 0
2148 -2144 0
2148 -2145 0
2148 -2146 0
2148 -2147 0
2150 -1626 -1626 0
-2150 1626 0
-2150 1626 0
-2151 1633 2150 0
2151 -1633 0
2151 -2150 0
2152 -1626 -1638 0
-2152 1626 0
-2152 1638 0
-1144 1640 2152 0
1144 -1640 0
1144 -2152 0
2153 -1626 -1644 0
-2153 1626 0
-2153 1644 0
-1142 1647 2153 0
1142 -1647 0
1142 -2153 0
2154 -1649 -1644 0
-2154 1649 0
-2154 1644 0
-1145 1654 2154 0
1145 -1654 0
1145 -2154 0
2155 -1638 -1649 0
-2155 1638 0
-2155 1649 0
-1143 1659 2155 0
1143 -1659 0
1143 -2155 0
2156 -1638 -1638 0
-2156 1638 0
-2156 1638 0
-2157 1665 2156 0
2157 -1665 0
2157 -2156 0
2158 -2159 -2160 0
-2158 2159 0
-2158 2160 0
2161 -2160 -2160 0
-2161 2160 0
-2161 2160 0
2162 -2160 -2159 0
-2162 2160 0
-2162 2159 0
2163 -2159 -2159 -2164 0
-2163 2159 0
-2163 2159 0
-2163 2164 0
-2165 2166 2158 2161 2162 2163 0
2165 -2166 0
2165 -2158 0
2165 -2161 0
2165 -2162 0
2165 -2163 0
2167 -2159 -2168 0
-2167 2159 0
-2167 2168 0
2169 -2160 -2168 0
-2169 2160 0
-2169 2168 0
2170 -2160 -2171 0
-2170 2160 0
-2170 2171 0
2172 -2159 -2171 -2164 0
-2172 2159 0
-2172 2171 0
-2172 2164 0
-1104 2173 2167 2169 2170 2172 0
1104 -2173 0
1104 -2167 0
1104 -2169 0
1104 -2170 0
1104 -2172 0
2174 -2159 -2175 0
-2174 2159 0
-2174 2175 0
2176 -2160 -2177 0
-2176 2160 0
-2176 2177 0
2178 -2160 -2175 0
-2178 2160 0
-2178 2175 0
2179 -2159 -2177 -2164 0
-2179 2159 0
-2179 2177 0
-2179 2164 0
-1102 2180 2174 2176 2178 2179 0
1102 -2180 0
1102 -2174 0
1102 -2176 0
1102 -2178 0
1102 -2179 0
2181 -2182 -2175 0
-2181 2182 0
-2181 2175 0
2183 -2184 -2175 0
-2183 2184 0
-2183 2175 0
2185 -2184 -2177 0
-2185 2184 0
-2185 2177 0
2186 -2182 -2177 -2164 0
-2186 2182 0
-2186 2177 0
-2186 2164 0
-1105 2187 2181 2183 2185 2186 0
1105 -2187 0
1105 -2181 0
1105 -2183 0
1105 -2185 0
1105 -2186 0
2188 -2171 -2184 0
-2188 2171 0
-2188 2184 0
2189 -2168 -2182 0
-2189 2168 0
-2189 2182 0
2190 -2168 -2184 0
-2190 2168 0
-2190 2184 0
2191 -2171 -2182 -2164 0
-2191 2171 0
-2191 2182 0
-2191 2164 0
-1103 2192 2188 2189 2190 2191 0
1103 -2192 0
1103 -2188 0
1103 -2189 0
1103 -2190 0
1103 -2191 0
2193 -2171 -2168 0
-2193 2171 0
-2193 2168 0
2194 -2168 -2168 0
-2194 2168 0
-2194 2168 0
2195 -2168 -2171 0
-2195 2168 0
-2195 2171 0
2196 -2171 -2171 -2164 0
-2196 2171 0
-2196 2171 0
-2196 2164 0
-2197 2198 2193 2194 2195 2196 0
2197 -2198 0
2197 -2193 0
2197 -2194 0
2197 -2195 0
2197 -2196 0
2199 -1739 -2200 0
-2199 1739 0
-2199 2200 0
2201 -2200 -2200 0
-2201 2200 0
-2201 2200 0
2202 -2200 -1739 0
-2202 2200 0
-2202 1739 0
2203 -1739 -1739 -2204 0
-2203 1739 0
-2203 1739 0
-2203 2204 0
-2205 1741 2199 2201 2202 2203 0
2205 -1741 0
2205 -2199 0
2205 -2201 0
2205 -2202 0
2205 -2203 0
2206 -1739 -2207 0
-2206 1739 0
-2206 2207 0
2208 -2200 -2207 0
-2208 2200 0
-2208 2207 0
2209 -2200 -1743 0
-2209 2200 0
-2209 1743 0
2210 -1739 -1743 -2204 0
-2210 1739 0
-2210 1743 0
-2210 2204 0
-24 1744 2206 2208 2209 2210 0
24 -1744 0
24 -2206 0
24 -2208 0
24 -2209 0
24 -2210 0
2211 -1739 -2212 0
-2211 1739 0
-2211 2212 0
2213 -2200 -1746 0
-2213 2200 0
-2213 1746 0
2214 -2200 -2212 0
-2214 2200 0
-2214 2212 0
2215 -1739 -1746 -2204 0
-2215 1739 0
-2215 1746 0
-2215 2204 0
-22 1747 2211 2213 2214 2215 0
22 -1747 0
22 -2211 0
22 -2213 0
22 -2214 0
22 -2215 0
2216 -1749 -2212 0
-2216 1749 0
-2216 2212 0
2217 -2218 -2212 0
-2217 2218 0
-2217 2212 0
2219 -2218 -1746 0
-2219 2218 0
-2219 1746 0
2220 -1749 -1746 -2204 0
-2220 1749 0
-2220 1746 0
-2220 2204 0
-25 1750 2216 2217 2219 2220 0
25 -1750 0
25 -2216 0
25 -2217 0
25 -2219 0
25 -2220 0
2221 -1743 -2218 0
-2221 1743 0
-2221 2218 0
2222 -2207 -1749 0
-2222 2207 0
-2222 1749 0
2223 -2207 -2218 0
-2223 2207 0
-2223 2218 0
2224 -1743 -1749 -2204 0
-2224 1743 0
-2224 1749 0
-2224 2204 0
-23 1752 2221 2222 2223 2224 0
23 -1752 0
23 -2221 0
23 -2222 0
23 -2223 0
23 -2224 0
2225 -1743 -2207 0
-2225 1743 0
-2225 2207 0
2226 -2207 -2207 0
-2226 2207 0
-2226 2207 0
2227 -2207 -1743 0
-2227 2207 0
-2227 1743 0
2228 -1743 -1743 -2204 0
-2228 1743 0
-2228 1743 0
-2228 2204 0
-2229 1755 2225 2226 2227 2228 0
2229 -1755 0
2229 -2225 0
2229 -2226 0
2229 -2227 0
2229 -2228 0
2230 -2231 -2231 0
-2230 2231 0
-2230 2231 0
-2232 2233 2230 0
2232 -2233 0
2232 -2230 0
2234 -2231 -2235 0
-2234 2231 0
-2234 2235 0
-949 2236 2234 0
949 -2236 0
949 -2234 0
2237 -2231 -2238 0
-2237 2231 0
-2237 2238 0
-947 2239 2237 0
947 -2239 0
947 -2237 0
2240 -2241 -2238 0
-2240 2241 0
-2240 2238 0
-950 2242 2240 0
950 -2242 0
950 -2240 0
2243 -2235 -2241 0
-2243 2235 0
-2243 2241 0
-948 2244 2243 0
948 -2244 0
948 -2243 0
2245 -2235 -2235 0
-2245 2235 0
-2245 2235 0
-2246 2247 2245 0
2246 -2247 0
2246 -2245 0
2248 -1277 -2249 0
-2248 1277 0
-2248 2249 0
2250 -2249 -2249 0
-2250 2249 0
-2250 2249 0
2251 -2249 -1277 0
-2251 2249 0
-2251 1277 0
2252 -1277 -1277 -2253 0
-2252 1277 0
-2252 1277 0
-2252 2253 0
-2254 1279 2248 2250 2251 2252 0
2254 -1279 0
2254 -2248 0
2254 -2250 0
2254 -2251 0
2254 -2252 0
2255 -1277 -2256 0
-2255 1277 0
-2255 2256 0
2257 -2249 -2256 0
-2257 2249 0
-2257 2256 0
2258 -2249 -1281 0
-2258 2249 0
-2258 1281 0
2259 -1277 -1281 -2253 0
-2259 1277 0
-2259 1281 0
-2259 2253 0
-759 1282 2255 2257 2258 2259 0
759 -1282 0
759 -2255 0
759 -2257 0
759 -2258 0
759 -2259 0
2260 -1277 -2261 0
-2260 1277 0
-2260 2261 0
2262 -2249 -1284 0
-2262 2249 0
-2262 1284 0
2263 -2249 -2261 0
-2263 2249 0
-2263 2261 0
2264 -1277 -1284 -2253 0
-2264 1277 0
-2264 1284 0
-2264 2253 0
-757 1285 2260 2262 2263 2264 0
757 -1285 0
757 -2260 0
757 -2262 0
757 -2263 0
757 -2264 0
2265 -1287 -2261 0
-2265 1287 0
-2265 2261 0
2266 -2267 -2261 0
-2266 2267 0
-2266 2261 0
2268 -2267 -1284 0
-2268 2267 0
-2268 1284 0
2269 -1287 -1284 -2253 0
-2269 1287 0
-2269 1284 0
-2269 2253 0
-760 1288 2265 2266 2268 2269 0
760 -1288 0
760 -2265 0
760 -2266 0
760 -2268 0
760 -2269 0
2270 -1281 -2267 0
-2270 1281 0
-2270 2267 0
2271 -2256 -1287 0
-2271 2256 0
-2271 1287 0
2272 -2256 -2267 0
-2272 2256 0
-2272 2267 0
2273 -1281 -1287 -2253 0
-2273 1281 0
-2273 1287 0
-2273 2253 0
-758 1290 2270 2271 2272 2273 0
758 -1290 0
758 -2270 0
758 -2271 0
758 -2272 0
758 -2273 0
2274 -1281 -2256 0
-2274 1281 0
-2274 2256 0
2275 -2256 -2256 0
-2275 2256 0
-2275 2256 0
2276 -2256 -1281 0
-2276 2256 0
-2276 1281 0
2277 -1281 -1281 -2253 0
-2277 1281 0
-2277 1281 0
-2277 2253 0
-2278 1293 2274 2275 2276 2277 0
2278 -1293 0
2278 -2274 0
2278 -2275 0
2278 -2276 0
2278 -2277 0
2279 -2218 -2218 0
-2279 2218 0
-2279 2218 0
-2280 2204 2279 0
2280 -2204 0
2280 -2279 0
2281 -2218 -1752 0
-2281 2218 0
-2281 1752 0
-239 2207 2281 0
239 -2207 0
239 -2281 0
2282 -2218 -1750 0
-2282 2218 0
-2282 1750 0
-237 2212 2282 0
237 -2212 0
237 -2282 0
2283 -1749 -1750 0
-2283 1749 0
-2283 1750 0
-240 1746 2283 0
240 -1746 0
240 -2283 0
2284 -1752 -1749 0
-2284 1752 0
-2284 1749 0
-238 1743 2284 0
238 -1743 0
238 -2284 0
2285 -1752 -1752 0
-2285 1752 0
-2285 1752 0
-2286 1755 2285 0
2286 -1755 0
2286 -2285 0
2287 -2288 -2288 0
-2287 2288 0
-2287 2288 0
-2289 2290 2287 0
2289 -2290 0
2289 -2287 0
2291 -2288 -2292 0
-2291 2288 0
-2291 2292 0
-339 2293 2291 0
339 -2293 0
339 -2291 0
2294 -2288 -2295 0
-2294 2288 0
-2294 2295 0
-337 2296 2294 0
337 -2296 0
337 -2294 0
2297 -2298 -2295 0
-2297 2298 0
-2297 2295 0
-340 2299 2297 0
340 -2299 0
340 -2297 0
2300 -2292 -2298 0
-2300 2292 0
-2300 2298 0
-338 2301 2300 0
338 -2301 0
338 -2300 0
2302 -2292 -2292 0
-2302 2292 0
-2302 2292 0
-2303 2304 2302 0
2303 -2304 0
2303 -2302 0
2305 -1667 -2306 0
-2305 1667 0
-2305 2306 0
2307 -2306 -2306 0
-2307 2306 0
-2307 2306 0
2308 -2306 -1667 0
-2308 2306 0
-2308 1667 0
2309 -1667 -1667 -2310 0
-2309 1667 0
-2309 1667 0
-2309 2310 0
-2311 1669 2305 2307 2308 2309 0
2311 -1669 0
2311 -2305 0
2311 -2307 0
2311 -2308 0
2311 -2309 0
2312 -1667 -2313 0
-2312 1667 0
-2312 2313 0
2314 -2306 -2313 0
-2314 2306 0
-2314 2313 0
2315 -2306 -1671 0
-2315 2306 0
-2315 1671 0
2316 -1667 -1671 -2310 0
-2316 1667 0
-2316 1671 0
-2316 2310 0
-124 1672 2312 2314 2315 2316 0
124 -1672 0
124 -2312 0
124 -2314 0
124 -2315 0
124 -2316 0
2317 -1667 -2318 0
-2317 1667 0
-2317 2318 0
2319 -2306 -1674 0
-2319 2306 0
-2319 1674 0
2320 -2306 -2318 0
-2320 2306 0
-2320 2318 0
2321 -1667 -1674 -2310 0
-2321 1667 0
-2321 1674 0
-2321 2310 0
-122 1675 2317 2319 2320 2321 0
122 -1675 0
122 -2317 0
122 -2319 0
122 -2320 0
122 -2321 0
2322 -1677 -2318 0
-2322 1677 0
-2322 2318 0
2323 -2324 -2318 0
-2323 2324 0
-2323 2318 0
2325 -2324 -1674 0
-2325 2324 0
-2325 1674 0
2326 -1677 -1674 -2310 0
-2326 1677 0
-2326 1674 0
-2326 2310 0
-125 1678 2322 2323 2325 2326 0
125 -1678 0
125 -2322 0
125 -2323 0
125 -2325 0
125 -2326 0
2327 -1671 -2324 0
-2327 1671 0
-2327 2324 0
2328 -2313 -1677 0
-2328 2313 0
-2328 1677 0
2329 -2313 -2324 0
-2329 2313 0
-2329 2324 0
2330 -1671 -1677 -2310 0
-2330 1671 0
-2330 1677 0
-2330 2310 0
-123 1680 2327 2328 2329 2330 0
123 -1680 0
123 -2327 0
123 -2328 0
123 -2329 0
123 -2330 0
2331 -1671 -2313 0
-2331 1671 0
-2331 2313 0
2332 -2313 -2313 0
-2332 2313 0
-2332 2313 0
2333 -2313 -1671 0
-2333 2313 0
-2333 1671 0
2334 -1671 -1671 -2310 0
-2334 1671 0
-2334 1671 0
-2334 2310 0
-2335 1683 2331 2332 2333 2334 0
2335 -1683 0
2335 -2331 0
2335 -2332 0
2335 -2333 0
2335 -2334 0
2336 -1711 -1708 0
-2336 1711 0
-2336 1708 0
2337 -1708 -1708 0
-2337 1708 0
-2337 1708 0
2338 -1708 -1711 0
-2338 1708 0
-2338 1711 0
2339 -1711 -1711 -1719 0
-2339 1711 0
-2339 1711 0
-2339 1719 0
-2340 1705 2336 2337 2338 2339 0
2340 -1705 0
2340 -2336 0
2340 -2337 0
2340 -2338 0
2340 -2339 0
2341 -1711 -2342 0
-2341 1711 0
-2341 2342 0
2343 -1708 -2342 0
-2343 1708 0
-2343 2342 0
2344 -1708 -2345 0
-2344 1708 0
-2344 2345 0
2346 -1711 -2345 -1719 0
-2346 1711 0
-2346 2345 0
-2346 1719 0
-84 2347 2341 2343 2344 2346 0
84 -2347 0
84 -2341 0
84 -2343 0
84 -2344 0
84 -2346 0
2348 -1711 -1707 0
-2348 1711 0
-2348 1707 0
2349 -1708 -1710 0
-2349 1708 0
-2349 1710 0
2350 -1708 -1707 0
-2350 1708 0
-2350 1707 0
2351 -1711 -1710 -1719 0
-2351 1711 0
-2351 1710 0
-2351 1719 0
-82 1703 2348 2349 2350 2351 0
82 -1703 0
82 -2348 0
82 -2349 0
82 -2350 0
82 -2351 0
2352 -1714 -1707 0
-2352 1714 0
-2352 1707 0
2353 -1716 -1707 0
-2353 1716 0
-2353 1707 0
2354 -1716 -1710 0
-2354 1716 0
-2354 1710 0
2355 -1714 -1710 -1719 0
-2355 1714 0
-2355 1710 0
-2355 1719 0
-85 1713 2352 2353 2354 2355 0
85 -1713 0
85 -2352 0
85 -2353 0
85 -2354 0
85 -2355 0
2356 -2345 -1716 0
-2356 2345 0
-2356 1716 0
2357 -2342 -1714 0
-2357 2342 0
-2357 1714 0
2358 -2342 -1716 0
-2358 2342 0
-2358 1716 0
2359 -2345 -1714 -1719 0
-2359 2345 0
-2359 1714 0
-2359 1719 0
-83 2360 2356 2357 2358 2359 0
83 -2360 0
83 -2356 0
83 -2357 0
83 -2358 0
83 -2359 0
2361 -2345 -2342 0
-2361 2345 0
-2361 2342 0
2362 -2342 -2342 0
-2362 2342 0
-2362 2342 0
2363 -2342 -2345 0
-2363 2342 0
-2363 2345 0
2364 -2345 -2345 -1719 0
-2364 2345 0
-2364 2345 0
-2364 1719 0
-2365 2366 2361 2362 2363 2364 0
2365 -2366 0
2365 -2361 0
2365 -2362 0
2365 -2363 0
2365 -2364 0
2367 -2368 -2368 0
-2367 2368 0
-2367 2368 0
-2369 2370 2367 0
2369 -2370 0
2369 -2367 0
2371 -2368 -2244 0
-2371 2368 0
-2371 2244 0
-869 2372 2371 0
869 -2372 0
869 -2371 0
2373 -2368 -2242 0
-2373 2368 0
-2373 2242 0
-867 2374 2373 0
867 -2374 0
867 -2373 0
2375 -2241 -2242 0
-2375 2241 0
-2375 2242 0
-870 2238 2375 0
870 -2238 0
870 -2375 0
2376 -2244 -2241 0
-2376 2244 0
-2376 2241 0
-868 2235 2376 0
868 -2235 0
868 -2376 0
2377 -2244 -2244 0
-2377 2244 0
-2377 2244 0
-2378 2247 2377 0
2378 -2247 0
2378 -2377 0
2379 -2380 -2380 0
-2379 2380 0
-2379 2380 0
-2381 2382 2379 0
2381 -2382 0
2381 -2379 0
2383 -2380 -1521 0
-2383 2380 0
-2383 1521 0
-564 2384 2383 0
564 -2384 0
564 -2383 0
2385 -2380 -1519 0
-2385 2380 0
-2385 1519 0
-562 2386 2385 0
562 -2386 0
562 -2385 0
2387 -1518 -1519 0
-2387 1518 0
-2387 1519 0
-565 1515 2387 0
565 -1515 0
565 -2387 0
2388 -1521 -1518 0
-2388 1521 0
-2388 1518 0
-563 1512 2388 0
563 -1512 0
563 -2388 0
2389 -1521 -1521 0
-2389 1521 0
-2389 1521 0
-2390 1524 2389 0
2390 -1524 0
2390 -2389 0
2391 -2392 -2393 0
-2391 2392 0
-2391 2393 0
2394 -2393 -2393 0
-2394 2393 0
-2394 2393 0
2395 -2393 -2392 0
-2395 2393 0
-2395 2392 0
2396 -2392 -2392 -1456 0
-2396 2392 0
-2396 2392 0
-2396 1456 0
-2397 2398 2391 2394 2395 2396 0
2397 -2398 0
2397 -2391 0
2397 -2394 0
2397 -2395 0
2397 -2396 0
2399 -2392 -1459 0
-2399 2392 0
-2399 1459 0
2400 -2393 -1459 0
-2400 2393 0
-2400 1459 0
2401 -2393 -1467 0
-2401 2393 0
-2401 1467 0
2402 -2392 -1467 -1456 0
-2402 2392 0
-2402 1467 0
-2402 1456 0
-149 2403 2399 2400 2401 2402 0
149 -2403 0
149 -2399 0
149 -2400 0
149 -2401 0
149 -2402 0
2404 -2392 -1462 0
-2404 2392 0
-2404 1462 0
2405 -2393 -1465 0
-2405 2393 0
-2405 1465 0
2406 -2393 -1462 0
-2406 2393 0
-2406 1462 0
2407 -2392 -1465 -1456 0
-2407 2392 0
-2407 1465 0
-2407 1456 0
-147 2408 2404 2405 2406 2407 0
147 -2408 0
147 -2404 0
147 -2405 0
147 -2406 0
147 -2407 0
2409 -1464 -1462 0
-2409 1464 0
-2409 1462 0
2410 -1454 -1462 0
-2410 1454 0
-2410 1462 0
2411 -1454 -1465 0
-2411 1454 0
-2411 1465 0
2412 -1464 -1465 -1456 0
-2412 1464 0
-2412 1465 0
-2412 1456 0
-150 1461 2409 2410 2411 2412 0
150 -1461 0
150 -2409 0
150 -2410 0
150 -2411 0
150 -2412 0
2413 -1467 -1454 0
-2413 1467 0
-2413 1454 0
2414 -1459 -1464 0
-2414 1459 0
-2414 1464 0
2415 -1459 -1454 0
-2415 1459 0
-2415 1454 0
2416 -1467 -1464 -1456 0
-2416 1467 0
-2416 1464 0
-2416 1456 0
-148 1458 2413 2414 2415 2416 0
148 -1458 0
148 -2413 0
148 -2414 0
148 -2415 0
148 -2416 0
2417 -1467 -1459 0
-2417 1467 0
-2417 1459 0
2418 -1459 -1459 0
-2418 1459 0
-2418 1459 0
2419 -1459 -1467 0
-2419 1459 0
-2419 1467 0
2420 -1467 -1467 -1456 0
-2420 1467 0
-2420 1467 0
-2420 1456 0
-2421 1470 2417 2418 2419 2420 0
2421 -1470 0
2421 -2417 0
2421 -2418 0
2421 -2419 0
2421 -2420 0
2422 -2423 -2423 0
-2422 2423 0
-2422 2423 0
-2424 2425 2422 0
2424 -2425 0
2424 -2422 0
2426 -2423 -2427 0
-2426 2423 0
-2426 2427 0
-79 2428 2426 0
79 -2428 0
79 -2426 0
2429 -2423 -2430 0
-2429 2423 0
-2429 2430 0
-77 2431 2429 0
77 -2431 0
77 -2429 0
2432 -2433 -2430 0
-2432 2433 0
-2432 2430 0
-80 2434 2432 0
80 -2434 0
80 -2432 0
2435 -2427 -2433 0
-2435 2427 0
-2435 2433 0
-78 2436 2435 0
78 -2436 0
78 -2435 0
2437 -2427 -2427 0
-2437 2427 0
-2437 2427 0
-2438 2439 2437 0
2438 -2439 0
2438 -2437 0
2440 -2001 -2001 0
-2440 2001 0
-2440 2001 0
-2441 1981 2440 0
2441 -1981 0
2441 -2440 0
2442 -2001 -2009 0
-2442 2001 0
-2442 2009 0
-994 1985 2442 0
994 -1985 0
994 -2442 0
2443 -2001 -2004 0
-2443 2001 0
-2443 2004 0
-992 1992 2443 0
992 -1992 0
992 -2443 0
2444 -1999 -2004 0
-2444 1999 0
-2444 2004 0
-995 1994 2444 0
995 -1994 0
995 -2444 0
2445 -2009 -1999 0
-2445 2009 0
-2445 1999 0
-993 1988 2445 0
993 -1988 0
993 -2445 0
2446 -2009 -2009 0
-2446 2009 0
-2446 2009 0
-2447 2015 2446 0
2447 -2015 0
2447 -2446 0
2448 -2360 -2347 0
-2448 2360 0
-2448 2347 0
2449 -2347 -2347 0
-2449 2347 0
-2449 2347 0
2450 -2347 -2360 0
-2450 2347 0
-2450 2360 0
2451 -2360 -2360 -1705 0
-2451 2360 0
-2451 2360 0
-2451 1705 0
-2452 2366 2448 2449 2450 2451 0
2452 -2366 0
2452 -2448 0
2452 -2449 0
2452 -2450 0
2452 -2451 0
2453 -2360 -1708 0
-2453 2360 0
-2453 1708 0
2454 -2347 -1708 0
-2454 2347 0
-2454 1708 0
2455 -2347 -1716 0
-2455 2347 0
-2455 1716 0
2456 -2360 -1716 -1705 0
-2456 2360 0
-2456 1716 0
-2456 1705 0
-184 2342 2453 2454 2455 2456 0
184 -2342 0
184 -2453 0
184 -2454 0
184 -2455 0
184 -2456 0
2457 -2360 -1711 0
-2457 2360 0
-2457 1711 0
2458 -2347 -1714 0
-2458 2347 0
-2458 1714 0
2459 -2347 -1711 0
-2459 2347 0
-2459 1711 0
2460 -2360 -1714 -1705 0
-2460 2360 0
-2460 1714 0
-2460 1705 0
-182 2345 2457 2458 2459 2460 0
182 -2345 0
182 -2457 0
182 -2458 0
182 -2459 0
182 -2460 0
2461 -1713 -1711 0
-2461 1713 0
-2461 1711 0
2462 -1703 -1711 0
-2462 1703 0
-2462 1711 0
2463 -1703 -1714 0
-2463 1703 0
-2463 1714 0
2464 -1713 -1714 -1705 0
-2464 1713 0
-2464 1714 0
-2464 1705 0
-185 1710 2461 2462 2463 2464 0
185 -1710 0
185 -2461 0
185 -2462 0
185 -2463 0
185 -2464 0
2465 -1716 -1703 0
-2465 1716 0
-2465 1703 0
2466 -1708 -1713 0
-2466 1708 0
-2466 1713 0
2467 -1708 -1703 0
-2467 1708 0
-2467 1703 0
2468 -1716 -1713 -1705 0
-2468 1716 0
-2468 1713 0
-2468 1705 0
-183 1707 2465 2466 2467 2468 0
183 -1707 0
183 -2465 0
183 -2466 0
183 -2467 0
183 -2468 0
2469 -1716 -1708 0
-2469 1716 0
-2469 1708 0
2337 -1708 -1708 0
-2337 1708 0
-2337 1708 0
2470 -1708 -1716 0
-2470 1708 0
-2470 1716 0
2471 -1716 -1716 -1705 0
-2471 1716 0
-2471 1716 0
-2471 1705 0
-2472 1719 2469 2337 2470 2471 0
2472 -1719 0
2472 -2469 0
2472 -2337 0
2472 -2470 0
2472 -2471 0
2473 -2474 -2475 0
-2473 2474 0
-2473 2475 0
2476 -2475 -2475 0
-2476 2475 0
-2476 2475 0
2477 -2475 -2474 0
-2477 2475 0
-2477 2474 0
2478 -2474 -2474 -2479 0
-2478 2474 0
-2478 2474 0
-2478 2479 0
-2480 2481 2473 2476 2477 2478 0
2480 -2481 0
2480 -2473 0
2480 -2476 0
2480 -2477 0
2480 -2478 0
2482 -2474 -2483 0
-2482 2474 0
-2482 2483 0
2484 -2475 -2483 0
-2484 2475 0
-2484 2483 0
2485 -2475 -2486 0
-2485 2475 0
-2485 2486 0
2487 -2474 -2486 -2479 0
-2487 2474 0
-2487 2486 0
-2487 2479 0
-154 2488 2482 2484 2485 2487 0
154 -2488 0
154 -2482 0
154 -2484 0
154 -2485 0
154 -2487 0
2489 -2474 -2490 0
-2489 2474 0
-2489 2490 0
2491 -2475 -2492 0
-2491 2475 0
-2491 2492 0
2493 -2475 -2490 0
-2493 2475 0
-2493 2490 0
2494 -2474 -2492 -2479 0
-2494 2474 0
-2494 2492 0
-2494 2479 0
-152 2495 2489 2491 2493 2494 0
152 -2495 0
152 -2489 0
152 -2491 0
152 -2493 0
152 -2494 0
2496 -2497 -2490 0
-2496 2497 0
-2496 2490 0
2498 -2499 -2490 0
-2498 2499 0
-2498 2490 0
2500 -2499 -2492 0
-2500 2499 0
-2500 2492 0
2501 -2497 -2492 -2479 0
-2501 2497 0
-2501 2492 0
-2501 2479 0
-155 2502 2496 2498 2500 2501 0
155 -2502 0
155 -2496 0
155 -2498 0
155 -2500 0
155 -2501 0
2503 -2486 -2499 0
-2503 2486 0
-2503 2499 0
2504 -2483 -2497 0
-2504 2483 0
-2504 2497 0
2505 -2483 -2499 0
-2505 2483 0
-2505 2499 0
2506 -2486 -2497 -2479 0
-2506 2486 0
-2506 2497 0
-2506 2479 0
-153 2507 2503 2504 2505 2506 0
153 -2507 0
153 -2503 0
153 -2504 0
153 -2505 0
153 -2506 0
2508 -2486 -2483 0
-2508 2486 0
-2508 2483 0
2509 -2483 -2483 0
-2509 2483 0
-2509 2483 0
2510 -2483 -2486 0
-2510 2483 0
-2510 2486 0
2511 -2486 -2486 -2479 0
-2511 2486 0
-2511 2486 0
-2511 2479 0
-2512 2513 2508 2509 2510 2511 0
2512 -2513 0
2512 -2508 0
2512 -2509 0
2512 -2510 0
2512 -2511 0
2514 -2515 -2515 0
-2514 2515 0
-2514 2515 0
-2516 2517 2514 0
2516 -2517 0
2516 -2514 0
2518 -2515 -1236 0
-2518 2515 0
-2518 1236 0
-544 2519 2518 0
544 -2519 0
544 -2518 0
2520 -2515 -1234 0
-2520 2515 0
-2520 1234 0
-542 2521 2520 0
542 -2521 0
542 -2520 0
2522 -1233 -1234 0
-2522 1233 0
-2522 1234 0
-545 1230 2522 0
545 -1230 0
545 -2522 0
2523 -1236 -1233 0
-2523 1236 0
-2523 1233 0
-543 1227 2523 0
543 -1227 0
543 -2523 0
2524 -1236 -1236 0
-2524 1236 0
-2524 1236 0
-2525 1239 2524 0
2525 -1239 0
2525 -2524 0
2526 -2527 -2527 0
-2526 2527 0
-2526 2527 0
-2528 2529 2526 0
2528 -2529 0
2528 -2526 0
2530 -2527 -1485 0
-2530 2527 0
-2530 1485 0
-199 2531 2530 0
199 -2531 0
199 -2530 0
2532 -2527 -1483 0
-2532 2527 0
-2532 1483 0
-197 2533 2532 0
197 -2533 0
197 -2532 0
2534 -1482 -1483 0
-2534 1482 0
-2534 1483 0
-200 1479 2534 0
200 -1479 0
200 -2534 0
2535 -1485 -1482 0
-2535 1485 0
-2535 1482 0
-198 1476 2535 0
198 -1476 0
198 -2535 0
2536 -1485 -1485 0
-2536 1485 0
-2536 1485 0
-2537 1488 2536 0
2537 -1488 0
2537 -2536 0
2538 -2539 -2540 0
-2538 2539 0
-2538 2540 0
2541 -2540 -2540 0
-2541 2540 0
-2541 2540 0
2542 -2540 -2539 0
-2542 2540 0
-2542 2539 0
2543 -2539 -2539 -2544 0
-2543 2539 0
-2543 2539 0
-2543 2544 0
-2545 2546 2538 2541 2542 2543 0
2545 -2546 0
2545 -2538 0
2545 -2541 0
2545 -2542 0
2545 -2543 0
2547 -2539 -2548 0
-2547 2539 0
-2547 2548 0
2549 -2540 -2548 0
-2549 2540 0
-2549 2548 0
2550 -2540 -2551 0
-2550 2540 0
-2550 2551 0
2552 -2539 -2551 -2544 0
-2552 2539 0
-2552 2551 0
-2552 2544 0
-294 2553 2547 2549 2550 2552 0
294 -2553 0
294 -2547 0
294 -2549 0
294 -2550 0
294 -2552 0
2554 -2539 -2555 0
-2554 2539 0
-2554 2555 0
2556 -2540 -2557 0
-2556 2540 0
-2556 2557 0
2558 -2540 -2555 0
-2558 2540 0
-2558 2555 0
2559 -2539 -2557 -2544 0
-2559 2539 0
-2559 2557 0
-2559 2544 0
-292 2560 2554 2556 2558 2559 0
292 -2560 0
292 -2554 0
292 -2556 0
292 -2558 0
292 -2559 0
2561 -2562 -2555 0
-2561 2562 0
-2561 2555 0
2563 -2564 -2555 0
-2563 2564 0
-2563 2555 0
2565 -2564 -2557 0
-2565 2564 0
-2565 2557 0
2566 -2562 -2557 -2544 0
-2566 2562 0
-2566 2557 0
-2566 2544 0
-295 2567 2561 2563 2565 2566 0
295 -2567 0
295 -2561 0
295 -2563 0
295 -2565 0
295 -2566 0
2568 -2551 -2564 0
-2568 2551 0
-2568 2564 0
2569 -2548 -2562 0
-2569 2548 0
-2569 2562 0
2570 -2548 -2564 0
-2570 2548 0
-2570 2564 0
2571 -2551 -2562 -2544 0
-2571 2551 0
-2571 2562 0
-2571 2544 0
-293 2572 2568 2569 2570 2571 0
293 -2572 0
293 -2568 0
293 -2569 0
293 -2570 0
293 -2571 0
2573 -2551 -2548 0
-2573 2551 0
-2573 2548 0
2574 -2548 -2548 0
-2574 2548 0
-2574 2548 0
2575 -2548 -2551 0
-2575 2548 0
-2575 2551 0
2576 -2551 -2551 -2544 0
-2576 2551 0
-2576 2551 0
-2576 2544 0
-2577 2578 2573 2574 2575 2576 0
2577 -2578 0
2577 -2573 0
2577 -2574 0
2577 -2575 0
2577 -2576 0
2579 -2580 -2581 0
-2579 2580 0
-2579 2581 0
2582 -2581 -2581 0
-2582 2581 0
-2582 2581 0
2583 -2581 -2580 0
-2583 2581 0
-2583 2580 0
2584 -2580 -2580 -2585 0
-2584 2580 0
-2584 2580 0
-2584 2585 0
-2586 2587 2579 2582 2583 2584 0
2586 -2587 0
2586 -2579 0
2586 -2582 0
2586 -2583 0
2586 -2584 0
2588 -2580 -2589 0
-2588 2580 0
-2588 2589 0
2590 -2581 -2589 0
-2590 2581 0
-2590 2589 0
2591 -2581 -2592 0
-2591 2581 0
-2591 2592 0
2593 -2580 -2592 -2585 0
-2593 2580 0
-2593 2592 0
-2593 2585 0
-689 2594 2588 2590 2591 2593 0
689 -2594 0
689 -2588 0
689 -2590 0
689 -2591 0
689 -2593 0
2595 -2580 -2596 0
-2595 2580 0
-2595 2596 0
2597 -2581 -2598 0
-2597 2581 0
-2597 2598 0
2599 -2581 -2596 0
-2599 2581 0
-2599 2596 0
2600 -2580 -2598 -2585 0
-2600 2580 0
-2600 2598 0
-2600 2585 0
-687 2601 2595 2597 2599 2600 0
687 -2601 0
687 -2595 0
687 -2597 0
687 -2599 0
687 -2600 0
2602 -2603 -2596 0
-2602 2603 0
-2602 2596 0
2604 -2605 -2596 0
-2604 2605 0
-2604 2596 0
2606 -2605 -2598 0
-2606 2605 0
-2606 2598 0
2607 -2603 -2598 -2585 0
-2607 2603 0
-2607 2598 0
-2607 2585 0
-690 2608 2602 2604 2606 2607 0
690 -2608 0
690 -2602 0
690 -2604 0
690 -2606 0
690 -2607 0
2609 -2592 -2605 0
-2609 2592 0
-2609 2605 0
2610 -2589 -2603 0
-2610 2589 0
-2610 2603 0
2611 -2589 -2605 0
-2611 2589 0
-2611 2605 0
2612 -2592 -2603 -2585 0
-2612 2592 0
-2612 2603 0
-2612 2585 0
-688 2613 2609 2610 2611 2612 0
688 -2613 0
688 -2609 0
688 -2610 0
688 -2611 0
688 -2612 0
2614 -2592 -2589 0
-2614 2592 0
-2614 2589 0
2615 -2589 -2589 0
-2615 2589 0
-2615 2589 0
2616 -2589 -2592 0
-2616 2589 0
-2616 2592 0
2617 -2592 -2592 -2585 0
-2617 2592 0
-2617 2592 0
-2617 2585 0
-2618 2619 2614 2615 2616 2617 0
2618 -2619 0
2618 -2614 0
2618 -2615 0
2618 -2616 0
2618 -2617 0
2620 -1259 -2621 0
-2620 1259 0
-2620 2621 0
2622 -2621 -2621 0
-2622 2621 0
-2622 2621 0
2623 -2621 -1259 0
-2623 2621 0
-2623 1259 0
2624 -1259 -1259 -2625 0
-2624 1259 0
-2624 1259 0
-2624 2625 0
-2626 1261 2620 2622 2623 2624 0
2626 -1261 0
2626 -2620 0
2626 -2622 0
2626 -2623 0
2626 -2624 0
2627 -1259 -2628 0
-2627 1259 0
-2627 2628 0
2629 -2621 -2628 0
-2629 2621 0
-2629 2628 0
2630 -2621 -1263 0
-2630 2621 0
-2630 1263 0
2631 -1259 -1263 -2625 0
-2631 1259 0
-2631 1263 0
-2631 2625 0
-789 1264 2627 2629 2630 2631 0
789 -1264 0
789 -2627 0
789 -2629 0
789 -2630 0
789 -2631 0
2632 -1259 -2633 0
-2632 1259 0
-2632 2633 0
2634 -2621 -1266 0
-2634 2621 0
-2634 1266 0
2635 -2621 -2633 0
-2635 2621 0
-2635 2633 0
2636 -1259 -1266 -2625 0
-2636 1259 0
-2636 1266 0
-2636 2625 0
-787 1267 2632 2634 2635 2636 0
787 -1267 0
787 -2632 0
787 -2634 0
787 -2635 0
787 -2636 0
2637 -1269 -2633 0
-2637 1269 0
-2637 2633 0
2638 -2639 -2633 0
-2638 2639 0
-2638 2633 0
2640 -2639 -1266 0
-2640 2639 0
-2640 1266 0
2641 -1269 -1266 -2625 0
-2641 1269 0
-2641 1266 0
-2641 2625 0
-790 1270 2637 2638 2640 2641 0
790 -1270 0
790 -2637 0
790 -2638 0
790 -2640 0
790 -2641 0
2642 -1263 -2639 0
-2642 1263 0
-2642 2639 0
2643 -2628 -1269 0
-2643 2628 0
-2643 1269 0
2644 -2628 -2639 0
-2644 2628 0
-2644 2639 0
2645 -1263 -1269 -2625 0
-2645 1263 0
-2645 1269 0
-2645 2625 0
-788 1272 2642 2643 2644 2645 0
788 -1272 0
788 -2642 0
788 -2643 0
788 -2644 0
788 -2645 0
2646 -1263 -2628 0
-2646 1263 0
-2646 2628 0
2647 -2628 -2628 0
-2647 2628 0
-2647 2628 0
2648 -2628 -1263 0
-2648 2628 0
-2648 1263 0
2649 -1263 -1263 -2625 0
-2649 1263 0
-2649 1263 0
-2649 2625 0
-2650 1275 2646 2647 2648 2649 0
2650 -1275 0
2650 -2646 0
2650 -2647 0
2650 -2648 0
2650 -2649 0
2651 -2652 -2653 0
-2651 2652 0
-2651 2653 0
2654 -2653 -2653 0
-2654 2653 0
-2654 2653 0
2655 -2653 -2652 0
-2655 2653 0
-2655 2652 0
2656 -2652 -2652 -2657 0
-2656 2652 0
-2656 2652 0
-2656 2657 0
-2658 2659 2651 2654 2655 2656 0
2658 -2659 0
2658 -2651 0
2658 -2654 0
2658 -2655 0
2658 -2656 0
2660 -2652 -2661 0
-2660 2652 0
-2660 2661 0
2662 -2653 -2661 0
-2662 2653 0
-2662 2661 0
2663 -2653 -2664 0
-2663 2653 0
-2663 2664 0
2665 -2652 -2664 -2657 0
-2665 2652 0
-2665 2664 0
-2665 2657 0
-19 2666 2660 2662 2663 2665 0
19 -2666 0
19 -2660 0
19 -2662 0
19 -2663 0
19 -2665 0
2667 -2652 -2668 0
-2667 2652 0
-2667 2668 0
2669 -2653 -2670 0
-2669 2653 0
-2669 2670 0
2671 -2653 -2668 0
-2671 2653 0
-2671 2668 0
2672 -2652 -2670 -2657 0
-2672 2652 0
-2672 2670 0
-2672 2657 0
-17 2673 2667 2669 2671 2672 0
17 -2673 0
17 -2667 0
17 -2669 0
17 -2671 0
17 -2672 0
2674 -2675 -2668 0
-2674 2675 0
-2674 2668 0
2676 -2677 -2668 0
-2676 2677 0
-2676 2668 0
2678 -2677 -2670 0
-2678 2677 0
-2678 2670 0
2679 -2675 -2670 -2657 0
-2679 2675 0
-2679 2670 0
-2679 2657 0
-20 2680 2674 2676 2678 2679 0
20 -2680 0
20 -2674 0
20 -2676 0
20 -2678 0
20 -2679 0
2681 -2664 -2677 0
-2681 2664 0
-2681 2677 0
2682 -2661 -2675 0
-2682 2661 0
-2682 2675 0
2683 -2661 -2677 0
-2683 2661 0
-2683 2677 0
2684 -2664 -2675 -2657 0
-2684 2664 0
-2684 2675 0
-2684 2657 0
-18 2685 2681 2682 2683 2684 0
18 -2685 0
18 -2681 0
18 -2682 0
18 -2683 0
18 -2684 0
2686 -2664 -2661 0
-2686 2664 0
-2686 2661 0
2687 -2661 -2661 0
-2687 2661 0
-2687 2661 0
2688 -2661 -2664 0
-2688 2661 0
-2688 2664 0
2689 -2664 -2664 -2657 0
-2689 2664 0
-2689 2664 0
-2689 2657 0
-2690 2691 2686 2687 2688 2689 0
2690 -2691 0
2690 -2686 0
2690 -2687 0
2690 -2688 0
2690 -2689 0
2692 -2693 -2694 0
-2692 2693 0
-2692 2694 0
2695 -2694 -2694 0
-2695 2694 0
-2695 2694 0
2696 -2694 -2693 0
-2696 2694 0
-2696 2693 0
2697 -2693 -2693 -2698 0
-2697 2693 0
-2697 2693 0
-2697 2698 0
-2699 2700 2692 2695 2696 2697 0
2699 -2700 0
2699 -2692 0
2699 -2695 0
2699 -2696 0
2699 -2697 0
2701 -2693 -2702 0
-2701 2693 0
-2701 2702 0
2703 -2694 -2702 0
-2703 2694 0
-2703 2702 0
2704 -2694 -2705 0
-2704 2694 0
-2704 2705 0
2706 -2693 -2705 -2698 0
-2706 2693 0
-2706 2705 0
-2706 2698 0
-579 2707 2701 2703 2704 2706 0
579 -2707 0
579 -2701 0
579 -2703 0
579 -2704 0
579 -2706 0
2708 -2693 -2709 0
-2708 2693 0
-2708 2709 0
2710 -2694 -2711 0
-2710 2694 0
-2710 2711 0
2712 -2694 -2709 0
-2712 2694 0
-2712 2709 0
2713 -2693 -2711 -2698 0
-2713 2693 0
-2713 2711 0
-2713 2698 0
-577 2714 2708 2710 2712 2713 0
577 -2714 0
577 -2708 0
577 -2710 0
577 -2712 0
577 -2713 0
2715 -2716 -2709 0
-2715 2716 0
-2715 2709 0
2717 -2718 -2709 0
-2717 2718 0
-2717 2709 0
2719 -2718 -2711 0
-2719 2718 0
-2719 2711 0
2720 -2716 -2711 -2698 0
-2720 2716 0
-2720 2711 0
-2720 2698 0
-580 2721 2715 2717 2719 2720 0
580 -2721 0
580 -2715 0
580 -2717 0
580 -2719 0
580 -2720 0
2722 -2705 -2718 0
-2722 2705 0
-2722 2718 0
2723 -2702 -2716 0
-2723 2702 0
-2723 2716 0
2724 -2702 -2718 0
-2724 2702 0
-2724 2718 0
2725 -2705 -2716 -2698 0
-2725 2705 0
-2725 2716 0
-2725 2698 0
-578 2726 2722 2723 2724 2725 0
578 -2726 0
578 -2722 0
578 -2723 0
578 -2724 0
578 -2725 0
2727 -2705 -2702 0
-2727 2705 0
-2727 2702 0
2728 -2702 -2702 0
-2728 2702 0
-2728 2702 0
2729 -2702 -2705 0
-2729 2702 0
-2729 2705 0
2730 -2705 -2705 -2698 0
-2730 2705 0
-2730 2705 0
-2730 2698 0
-2731 2732 2727 2728 2729 2730 0
2731 -2732 0
2731 -2727 0
2731 -2728 0
2731 -2729 0
2731 -2730 0
2733 -1508 -2734 0
-2733 1508 0
-2733 2734 0
2735 -2734 -2734 0
-2735 2734 0
-2735 2734 0
2736 -2734 -1508 0
-2736 2734 0
-2736 1508 0
2737 -1508 -1508 -2382 0
-2737 1508 0
-2737 1508 0
-2737 2382 0
-2738 1510 2733 2735 2736 2737 0
2738 -1510 0
2738 -2733 0
2738 -2735 0
2738 -2736 0
2738 -2737 0
2739 -1508 -2384 0
-2739 1508 0
-2739 2384 0
2740 -2734 -2384 0
-2740 2734 0
-2740 2384 0
2741 -2734 -1512 0
-2741 2734 0
-2741 1512 0
2742 -1508 -1512 -2382 0
-2742 1508 0
-2742 1512 0
-2742 2382 0
-129 1513 2739 2740 2741 2742 0
129 -1513 0
129 -2739 0
129 -2740 0
129 -2741 0
129 -2742 0
2743 -1508 -2386 0
-2743 1508 0
-2743 2386 0
2744 -2734 -1515 0
-2744 2734 0
-2744 1515 0
2745 -2734 -2386 0
-2745 2734 0
-2745 2386 0
2746 -1508 -1515 -2382 0
-2746 1508 0
-2746 1515 0
-2746 2382 0
-127 1516 2743 2744 2745 2746 0
127 -1516 0
127 -2743 0
127 -2744 0
127 -2745 0
127 -2746 0
2747 -1518 -2386 0
-2747 1518 0
-2747 2386 0
2748 -2380 -2386 0
-2748 2380 0
-2748 2386 0
2749 -2380 -1515 0
-2749 2380 0
-2749 1515 0
2750 -1518 -1515 -2382 0
-2750 1518 0
-2750 1515 0
-2750 2382 0
-130 1519 2747 2748 2749 2750 0
130 -1519 0
130 -2747 0
130 -2748 0
130 -2749 0
130 -2750 0
2751 -1512 -2380 0
-2751 1512 0
-2751 2380 0
2752 -2384 -1518 0
-2752 2384 0
-2752 1518 0
2753 -2384 -2380 0
-2753 2384 0
-2753 2380 0
2754 -1512 -1518 -2382 0
-2754 1512 0
-2754 1518 0
-2754 2382 0
-128 1521 2751 2752 2753 2754 0
128 -1521 0
128 -2751 0
128 -2752 0
128 -2753 0
128 -2754 0
2755 -1512 -2384 0
-2755 1512 0
-2755 2384 0
2756 -2384 -2384 0
-2756 2384 0
-2756 2384 0
2757 -2384 -1512 0
-2757 2384 0
-2757 1512 0
2758 -1512 -1512 -2382 0
-2758 1512 0
-2758 1512 0
-2758 2382 0
-2759 1524 2755 2756 2757 2758 0
2759 -1524 0
2759 -2755 0
2759 -2756 0
2759 -2757 0
2759 -2758 0
2760 -2761 -2761 0
-2760 2761 0
-2760 2761 0
-2762 2763 2760 0
2762 -2763 0
2762 -2760 0
2764 -2761 -2765 0
-2764 2761 0
-2764 2765 0
-1159 2766 2764 0
1159 -2766 0
1159 -2764 0
2767 -2761 -2768 0
-2767 2761 0
-2767 2768 0
-1157 2769 2767 0
1157 -2769 0
1157 -2767 0
2770 -2771 -2768 0
-2770 2771 0
-2770 2768 0
-1160 2772 2770 0
1160 -2772 0
1160 -2770 0
2773 -2765 -2771 0
-2773 2765 0
-2773 2771 0
-1158 2774 2773 0
1158 -2774 0
1158 -2773 0
2775 -2765 -2765 0
-2775 2765 0
-2775 2765 0
-2776 2777 2775 0
2776 -2777 0
2776 -2775 0
2778 -1865 -1862 0
-2778 1865 0
-2778 1862 0
2779 -1862 -1862 0
-2779 1862 0
-2779 1862 0
2780 -1862 -1865 0
-2780 1862 0
-2780 1865 0
2781 -1865 -1865 -1873 0
-2781 1865 0
-2781 1865 0
-2781 1873 0
-2782 1859 2778 2779 2780 2781 0
2782 -1859 0
2782 -2778 0
2782 -2779 0
2782 -2780 0
2782 -2781 0
2783 -1865 -2784 0
-2783 1865 0
-2783 2784 0
2785 -1862 -2784 0
-2785 1862 0
-2785 2784 0
2786 -1862 -2787 0
-2786 1862 0
-2786 2787 0
2788 -1865 -2787 -1873 0
-2788 1865 0
-2788 2787 0
-2788 1873 0
-419 2789 2783 2785 2786 2788 0
419 -2789 0
419 -2783 0
419 -2785 0
419 -2786 0
419 -2788 0
2790 -1865 -1861 0
-2790 1865 0
-2790 1861 0
2791 -1862 -1864 0
-2791 1862 0
-2791 1864 0
2792 -1862 -1861 0
-2792 1862 0
-2792 1861 0
2793 -1865 -1864 -1873 0
-2793 1865 0
-2793 1864 0
-2793 1873 0
-417 1857 2790 2791 2792 2793 0
417 -1857 0
417 -2790 0
417 -2791 0
417 -2792 0
417 -2793 0
2794 -1868 -1861 0
-2794 1868 0
-2794 1861 0
2795 -1870 -1861 0
-2795 1870 0
-2795 1861 0
2796 -1870 -1864 0
-2796 1870 0
-2796 1864 0
2797 -1868 -1864 -1873 0
-2797 1868 0
-2797 1864 0
-2797 1873 0
-420 1867 2794 2795 2796 2797 0
420 -1867 0
420 -2794 0
420 -2795 0
420 -2796 0
420 -2797 0
2798 -2787 -1870 0
-2798 2787 0
-2798 1870 0
2799 -2784 -1868 0
-2799 2784 0
-2799 1868 0
2800 -2784 -1870 0
-2800 2784 0
-2800 1870 0
2801 -2787 -1868 -1873 0
-2801 2787 0
-2801 1868 0
-2801 1873 0
-418 2802 2798 2799 2800 2801 0
418 -2802 0
418 -2798 0
418 -2799 0
418 -2800 0
418 -2801 0
2803 -2787 -2784 0
-2803 2787 0
-2803 2784 0
2804 -2784 -2784 0
-2804 2784 0
-2804 2784 0
2805 -2784 -2787 0
-2805 2784 0
-2805 2787 0
2806 -2787 -2787 -1873 0
-2806 2787 0
-2806 2787 0
-2806 1873 0
-2807 2808 2803 2804 2805 2806 0
2807 -2808 0
2807 -2803 0
2807 -2804 0
2807 -2805 0
2807 -2806 0
2809 -1770 -1762 0
-2809 1770 0
-2809 1762 0
2810 -1762 -1762 0
-2810 1762 0
-2810 1762 0
2811 -1762 -1770 0
-2811 1762 0
-2811 1770 0
2812 -1770 -1770 -1759 0
-2812 1770 0
-2812 1770 0
-2812 1759 0
-2813 1773 2809 2810 2811 2812 0
2813 -1773 0
2813 -2809 0
2813 -2810 0
2813 -2811 0
2813 -2812 0
2814 -1770 -2815 0
-2814 1770 0
-2814 2815 0
2816 -1762 -2815 0
-2816 1762 0
-2816 2815 0
2817 -1762 -2818 0
-2817 1762 0
-2817 2818 0
2819 -1770 -2818 -1759 0
-2819 1770 0
-2819 2818 0
-2819 1759 0
-549 2820 2814 2816 2817 2819 0
549 -2820 0
549 -2814 0
549 -2816 0
549 -2817 0
549 -2819 0
2821 -1770 -1757 0
-2821 1770 0
-2821 1757 0
2822 -1762 -1767 0
-2822 1762 0
-2822 1767 0
2823 -1762 -1757 0
-2823 1762 0
-2823 1757 0
2824 -1770 -1767 -1759 0
-2824 1770 0
-2824 1767 0
-2824 1759 0
-547 1761 2821 2822 2823 2824 0
547 -1761 0
547 -2821 0
547 -2822 0
547 -2823 0
547 -2824 0
2825 -1768 -1757 0
-2825 1768 0
-2825 1757 0
2826 -1765 -1757 0
-2826 1765 0
-2826 1757 0
2827 -1765 -1767 0
-2827 1765 0
-2827 1767 0
2828 -1768 -1767 -1759 0
-2828 1768 0
-2828 1767 0
-2828 1759 0
-550 1764 2825 2826 2827 2828 0
550 -1764 0
550 -2825 0
550 -2826 0
550 -2827 0
550 -2828 0
2829 -2818 -1765 0
-2829 2818 0
-2829 1765 0
2830 -2815 -1768 0
-2830 2815 0
-2830 1768 0
2831 -2815 -1765 0
-2831 2815 0
-2831 1765 0
2832 -2818 -1768 -1759 0
-2832 2818 0
-2832 1768 0
-2832 1759 0
-548 2833 2829 2830 2831 2832 0
548 -2833 0
548 -2829 0
548 -2830 0
548 -2831 0
548 -2832 0
2834 -2818 -2815 0
-2834 2818 0
-2834 2815 0
2835 -2815 -2815 0
-2835 2815 0
-2835 2815 0
2836 -2815 -2818 0
-2836 2815 0
-2836 2818 0
2837 -2818 -2818 -1759 0
-2837 2818 0
-2837 2818 0
-2837 1759 0
-2838 2839 2834 2835 2836 2837 0
2838 -2839 0
2838 -2834 0
2838 -2835 0
2838 -2836 0
2838 -2837 0
2840 -2841 -2842 0
-2840 2841 0
-2840 2842 0
2843 -2842 -2842 0
-2843 2842 0
-2843 2842 0
2844 -2842 -2841 0
-2844 2842 0
-2844 2841 0
2845 -2841 -2841 -2846 0
-2845 2841 0
-2845 2841 0
-2845 2846 0
-2847 2848 2840 2843 2844 2845 0
2847 -2848 0
2847 -2840 0
2847 -2843 0
2847 -2844 0
2847 -2845 0
2849 -2841 -2850 0
-2849 2841 0
-2849 2850 0
2851 -2842 -2850 0
-2851 2842 0
-2851 2850 0
2852 -2842 -2853 0
-2852 2842 0
-2852 2853 0
2854 -2841 -2853 -2846 0
-2854 2841 0
-2854 2853 0
-2854 2846 0
-809 2855 2849 2851 2852 2854 0
809 -2855 0
809 -2849 0
809 -2851 0
809 -2852 0
809 -2854 0
2856 -2841 -2857 0
-2856 2841 0
-2856 2857 0
2858 -2842 -2859 0
-2858 2842 0
-2858 2859 0
2860 -2842 -2857 0
-2860 2842 0
-2860 2857 0
2861 -2841 -2859 -2846 0
-2861 2841 0
-2861 2859 0
-2861 2846 0
-807 2862 2856 2858 2860 2861 0
807 -2862 0
807 -2856 0
807 -2858 0
807 -2860 0
807 -2861 0
2863 -2864 -2857 0
-2863 2864 0
-2863 2857 0
2865 -2866 -2857 0
-2865 2866 0
-2865 2857 0
2867 -2866 -2859 0
-2867 2866 0
-2867 2859 0
2868 -2864 -2859 -2846 0
-2868 2864 0
-2868 2859 0
-2868 2846 0
-810 2869 2863 2865 2867 2868 0
810 -2869 0
810 -2863 0
810 -2865 0
810 -2867 0
810 -2868 0
2870 -2853 -2866 0
-2870 2853 0
-2870 2866 0
2871 -2850 -2864 0
-2871 2850 0
-2871 2864 0
2872 -2850 -2866 0
-2872 2850 0
-2872 2866 0
2873 -2853 -2864 -2846 0
-2873 2853 0
-2873 2864 0
-2873 2846 0
-808 2874 2870 2871 2872 2873 0
808 -2874 0
808 -2870 0
808 -2871 0
808 -2872 0
808 -2873 0
2875 -2853 -2850 0
-2875 2853 0
-2875 2850 0
2876 -2850 -2850 0
-2876 2850 0
-2876 2850 0
2877 -2850 -2853 0
-2877 2850 0
-2877 2853 0
2878 -2853 -2853 -2846 0
-2878 2853 0
-2878 2853 0
-2878 2846 0
-2879 2880 2875 2876 2877 2878 0
2879 -2880 0
2879 -2875 0
2879 -2876 0
2879 -2877 0
2879 -2878 0
2881 -2882 -2883 0
-2881 2882 0
-2881 2883 0
2884 -2883 -2883 0
-2884 2883 0
-2884 2883 0
2885 -2883 -2882 0
-2885 2883 0
-2885 2882 0
2886 -2882 -2882 -2887 0
-2886 2882 0
-2886 2882 0
-2886 2887 0
-2888 2889 2881 2884 2885 2886 0
2888 -2889 0
2888 -2881 0
2888 -2884 0
2888 -2885 0
2888 -2886 0
2890 -2882 -2891 0
-2890 2882 0
-2890 2891 0
2892 -2883 -2891 0
-2892 2883 0
-2892 2891 0
2893 -2883 -2894 0
-2893 2883 0
-2893 2894 0
2895 -2882 -2894 -2887 0
-2895 2882 0
-2895 2894 0
-2895 2887 0
-674 2896 2890 2892 2893 2895 0
674 -2896 0
674 -2890 0
674 -2892 0
674 -2893 0
674 -2895 0
2897 -2882 -2898 0
-2897 2882 0
-2897 2898 0
2899 -2883 -2900 0
-2899 2883 0
-2899 2900 0
2901 -2883 -2898 0
-2901 2883 0
-2901 2898 0
2902 -2882 -2900 -2887 0
-2902 2882 0
-2902 2900 0
-2902 2887 0
-672 2903 2897 2899 2901 2902 0
672 -2903 0
672 -2897 0
672 -2899 0
672 -2901 0
672 -2902 0
2904 -2905 -2898 0
-2904 2905 0
-2904 2898 0
2906 -2907 -2898 0
-2906 2907 0
-2906 2898 0
2908 -2907 -2900 0
-2908 2907 0
-2908 2900 0
2909 -2905 -2900 -2887 0
-2909 2905 0
-2909 2900 0
-2909 2887 0
-675 2910 2904 2906 2908 2909 0
675 -2910 0
675 -2904 0
675 -2906 0
675 -2908 0
675 -2909 0
2911 -2894 -2907 0
-2911 2894 0
-2911 2907 0
2912 -2891 -2905 0
-2912 2891 0
-2912 2905 0
2913 -2891 -2907 0
-2913 2891 0
-2913 2907 0
2914 -2894 -2905 -2887 0
-2914 2894 0
-2914 2905 0
-2914 2887 0
-673 2915 2911 2912 2913 2914 0
673 -2915 0
673 -2911 0
673 -2912 0
673 -2913 0
673 -2914 0
2916 -2894 -2891 0
-2916 2894 0
-2916 2891 0
2917 -2891 -2891 0
-2917 2891 0
-2917 2891 0
2918 -2891 -2894 0
-2918 2891 0
-2918 2894 0
2919 -2894 -2894 -2887 0
-2919 2894 0
-2919 2894 0
-2919 2887 0
-2920 2921 2916 2917 2918 2919 0
2920 -2921 0
2920 -2916 0
2920 -2917 0
2920 -2918 0
2920 -2919 0
2922 -2580 -2580 0
-2922 2580 0
-2922 2580 0
-2923 2587 2922 0
2923 -2587 0
2923 -2922 0
2924 -2580 -2592 0
-2924 2580 0
-2924 2592 0
-1029 2594 2924 0
1029 -2594 0
1029 -2924 0
2925 -2580 -2598 0
-2925 2580 0
-2925 2598 0
-1027 2601 2925 0
1027 -2601 0
1027 -2925 0
2926 -2603 -2598 0
-2926 2603 0
-2926 2598 0
-1030 2608 2926 0
1030 -2608 0
1030 -2926 0
2927 -2592 -2603 0
-2927 2592 0
-2927 2603 0
-1028 2613 2927 0
1028 -2613 0
1028 -2927 0
2928 -2592 -2592 0
-2928 2592 0
-2928 2592 0
-2929 2619 2928 0
2929 -2619 0
2929 -2928 0
2930 -1770 -1770 0
-2930 1770 0
-2930 1770 0
-2931 1773 2930 0
2931 -1773 0
2931 -2930 0
2932 -1770 -2818 0
-2932 1770 0
-2932 2818 0
-934 2820 2932 0
934 -2820 0
934 -2932 0
2933 -1770 -1767 0
-2933 1770 0
-2933 1767 0
-932 1761 2933 0
932 -1761 0
932 -2933 0
2934 -1768 -1767 0
-2934 1768 0
-2934 1767 0
-935 1764 2934 0
935 -1764 0
935 -2934 0
2935 -2818 -1768 0
-2935 2818 0
-2935 1768 0
-933 2833 2935 0
933 -2833 0
933 -2935 0
2936 -2818 -2818 0
-2936 2818 0
-2936 2818 0
-2937 2839 2936 0
2937 -2839 0
2937 -2936 0
2938 -2939 -2940 0
-2938 2939 0
-2938 2940 0
2941 -2940 -2940 0
-2941 2940 0
-2941 2940 0
2942 -2940 -2939 0
-2942 2940 0
-2942 2939 0
2943 -2939 -2939 -2944 0
-2943 2939 0
-2943 2939 0
-2943 2944 0
-2945 2946 2938 2941 2942 2943 0
2945 -2946 0
2945 -2938 0
2945 -2941 0
2945 -2942 0
2945 -2943 0
2947 -2939 -2948 0
-2947 2939 0
-2947 2948 0
2949 -2940 -2948 0
-2949 2940 0
-2949 2948 0
2950 -2940 -2951 0
-2950 2940 0
-2950 2951 0
2952 -2939 -2951 -2944 0
-2952 2939 0
-2952 2951 0
-2952 2944 0
-369 2953 2947 2949 2950 2952 0
369 -2953 0
369 -2947 0
369 -2949 0
369 -2950 0
369 -2952 0
2954 -2939 -2955 0
-2954 2939 0
-2954 2955 0
2956 -2940 -2957 0
-2956 2940 0
-2956 2957 0
2958 -2940 -2955 0
-2958 2940 0
-2958 2955 0
2959 -2939 -2957 -2944 0
-2959 2939 0
-2959 2957 0
-2959 2944 0
-367 2960 2954 2956 2958 2959 0
367 -2960 0
367 -2954 0
367 -2956 0
367 -2958 0
367 -2959 0
2961 -2962 -2955 0
-2961 2962 0
-2961 2955 0
2963 -2964 -2955 0
-2963 2964 0
-2963 2955 0
2965 -2964 -2957 0
-2965 2964 0
-2965 2957 0
2966 -2962 -2957 -2944 0
-2966 2962 0
-2966 2957 0
-2966 2944 0
-370 2967 2961 2963 2965 2966 0
370 -2967 0
370 -2961 0
370 -2963 0
370 -2965 0
370 -2966 0
2968 -2951 -2964 0
-2968 2951 0
-2968 2964 0
2969 -2948 -2962 0
-2969 2948 0
-2969 2962 0
2970 -2948 -2964 0
-2970 2948 0
-2970 2964 0
2971 -2951 -2962 -2944 0
-2971 2951 0
-2971 2962 0
-2971 2944 0
-368 2972 2968 2969 2970 2971 0
368 -2972 0
368 -2968 0
368 -2969 0
368 -2970 0
368 -2971 0
2973 -2951 -2948 0
-2973 2951 0
-2973 2948 0
2974 -2948 -2948 0
-2974 2948 0
-2974 2948 0
2975 -2948 -2951 0
-2975 2948 0
-2975 2951 0
2976 -2951 -2951 -2944 0
-2976 2951 0
-2976 2951 0
-2976 2944 0
-2977 2978 2973 2974 2975 2976 0
2977 -2978 0
2977 -2973 0
2977 -2974 0
2977 -2975 0
2977 -2976 0
2979 -1231 -1231 0
-2979 1231 0
-2979 1231 0
-2980 1225 2979 0
2980 -1225 0
2980 -2979 0
2981 -1231 -2521 0
-2981 1231 0
-2981 2521 0
-394 2982 2981 0
394 -2982 0
394 -2981 0
2983 -1231 -1230 0
-2983 1231 0
-2983 1230 0
-392 1223 2983 0
392 -1223 0
392 -2983 0
2984 -1234 -1230 0
-2984 1234 0
-2984 1230 0
-395 1233 2984 0
395 -1233 0
395 -2984 0
2985 -2521 -1234 0
-2985 2521 0
-2985 1234 0
-393 2515 2985 0
393 -2515 0
393 -2985 0
2986 -2521 -2521 0
-2986 2521 0
-2986 2521 0
-2987 2517 2986 0
2987 -2517 0
2987 -2986 0
2988 -2677 -2653 0
-2988 2677 0
-2988 2653 0
2654 -2653 -2653 0
-2654 2653 0
-2654 2653 0
2989 -2653 -2677 0
-2989 2653 0
-2989 2677 0
2990 -2677 -2677 -2659 0
-2990 2677 0
-2990 2677 0
-2990 2659 0
-2991 2657 2988 2654 2989 2990 0
2991 -2657 0
2991 -2988 0
2991 -2654 0
2991 -2989 0
2991 -2990 0
2992 -2677 -2666 0
-2992 2677 0
-2992 2666 0
2993 -2653 -2666 0
-2993 2653 0
-2993 2666 0
2994 -2653 -2685 0
-2994 2653 0
-2994 2685 0
2995 -2677 -2685 -2659 0
-2995 2677 0
-2995 2685 0
-2995 2659 0
-39 2661 2992 2993 2994 2995 0
39 -2661 0
39 -2992 0
39 -2993 0
39 -2994 0
39 -2995 0
2996 -2677 -2673 0
-2996 2677 0
-2996 2673 0
2997 -2653 -2680 0
-2997 2653 0
-2997 2680 0
2998 -2653 -2673 0
-2998 2653 0
-2998 2673 0
2999 -2677 -2680 -2659 0
-2999 2677 0
-2999 2680 0
-2999 2659 0
-37 2668 2996 2997 2998 2999 0
37 -2668 0
37 -2996 0
37 -2997 0
37 -2998 0
37 -2999 0
3000 -2675 -2673 0
-3000 2675 0
-3000 2673 0
3001 -2652 -2673 0
-3001 2652 0
-3001 2673 0
3002 -2652 -2680 0
-3002 2652 0
-3002 2680 0
3003 -2675 -2680 -2659 0
-3003 2675 0
-3003 2680 0
-3003 2659 0
-40 2670 3000 3001 3002 3003 0
40 -2670 0
40 -3000 0
40 -3001 0
40 -3002 0
40 -3003 0
3004 -2685 -2652 0
-3004 2685 0
-3004 2652 0
3005 -2666 -2675 0
-3005 2666 0
-3005 2675 0
3006 -2666 -2652 0
-3006 2666 0
-3006 2652 0
3007 -2685 -2675 -2659 0
-3007 2685 0
-3007 2675 0
-3007 2659 0
-38 2664 3004 3005 3006 3007 0
38 -2664 0
38 -3004 0
38 -3005 0
38 -3006 0
38 -3007 0
3008 -2685 -2666 0
-3008 2685 0
-3008 2666 0
3009 -2666 -2666 0
-3009 2666 0
-3009 2666 0
3010 -2666 -2685 0
-3010 2666 0
-3010 2685 0
3011 -2685 -2685 -2659 0
-3011 2685 0
-3011 2685 0
-3011 2659 0
-3012 2691 3008 3009 3010 3011 0
3012 -2691 0
3012 -3008 0
3012 -3009 0
3012 -3010 0
3012 -3011 0
3013 -3014 -3015 0
-3013 3014 0
-3013 3015 0
3016 -3015 -3015 0
-3016 3015 0
-3016 3015 0
3017 -3015 -3014 0
-3017 3015 0
-3017 3014 0
3018 -3014 -3014 -3019 0
-3018 3014 0
-3018 3014 0
-3018 3019 0
-3020 3021 3013 3016 3017 3018 0
3020 -3021 0
3020 -3013 0
3020 -3016 0
3020 -3017 0
3020 -3018 0
3022 -3014 -3023 0
-3022 3014 0
-3022 3023 0
3024 -3015 -3023 0
-3024 3015 0
-3024 3023 0
3025 -3015 -3026 0
-3025 3015 0
-3025 3026 0
3027 -3014 -3026 -3019 0
-3027 3014 0
-3027 3026 0
-3027 3019 0
-644 3028 3022 3024 3025 3027 0
644 -3028 0
644 -3022 0
644 -3024 0
644 -3025 0
644 -3027 0
3029 -3014 -3030 0
-3029 3014 0
-3029 3030 0
3031 -3015 -3032 0
-3031 3015 0
-3031 3032 0
3033 -3015 -3030 0
-3033 3015 0
-3033 3030 0
3034 -3014 -3032 -3019 0
-3034 3014 0
-3034 3032 0
-3034 3019 0
-642 3035 3029 3031 3033 3034 0
642 -3035 0
642 -3029 0
642 -3031 0
642 -3033 0
642 -3034 0
3036 -3037 -3030 0
-3036 3037 0
-3036 3030 0
3038 -3039 -3030 0
-3038 3039 0
-3038 3030 0
3040 -3039 -3032 0
-3040 3039 0
-3040 3032 0
3041 -3037 -3032 -3019 0
-3041 3037 0
-3041 3032 0
-3041 3019 0
-645 3042 3036 3038 3040 3041 0
645 -3042 0
645 -3036 0
645 -3038 0
645 -3040 0
645 -3041 0
3043 -3026 -3039 0
-3043 3026 0
-3043 3039 0
3044 -3023 -3037 0
-3044 3023 0
-3044 3037 0
3045 -3023 -3039 0
-3045 3023 0
-3045 3039 0
3046 -3026 -3037 -3019 0
-3046 3026 0
-3046 3037 0
-3046 3019 0
-643 3047 3043 3044 3045 3046 0
643 -3047 0
643 -3043 0
643 -3044 0
643 -3045 0
643 -3046 0
3048 -3026 -3023 0
-3048 3026 0
-3048 3023 0
3049 -3023 -3023 0
-3049 3023 0
-3049 3023 0
3050 -3023 -3026 0
-3050 3023 0
-3050 3026 0
3051 -3026 -3026 -3019 0
-3051 3026 0
-3051 3026 0
-3051 3019 0
-3052 3053 3048 3049 3050 3051 0
3052 -3053 0
3052 -3048 0
3052 -3049 0
3052 -3050 0
3052 -3051 0
3054 -3055 -3055 0
-3054 3055 0
-3054 3055 0
-3056 3057 3054 0
3056 -3057 0
3056 -3054 0
3058 -3055 -3059 0
-3058 3055 0
-3058 3059 0
-1114 3060 3058 0
1114 -3060 0
1114 -3058 0
3061 -3055 -3062 0
-3061 3055 0
-3061 3062 0
-1112 3063 3061 0
1112 -3063 0
1112 -3061 0
3064 -3065 -3062 0
-3064 3065 0
-3064 3062 0
-1115 3066 3064 0
1115 -3066 0
1115 -3064 0
3067 -3059 -3065 0
-3067 3059 0
-3067 3065 0
-1113 3068 3067 0
1113 -3068 0
1113 -3067 0
3069 -3059 -3059 0
-3069 3059 0
-3069 3059 0
-3070 3071 3069 0
3070 -3071 0
3070 -3069 0
3072 -1651 -1627 0
-3072 1651 0
-3072 1627 0
1628 -1627 -1627 0
-1628 1627 0
-1628 1627 0
3073 -1627 -1651 0
-3073 1627 0
-3073 1651 0
3074 -1651 -1651 -1633 0
-3074 1651 0
-3074 1651 0
-3074 1633 0
-3075 1631 3072 1628 3073 3074 0
3075 -1631 0
3075 -3072 0
3075 -1628 0
3075 -3073 0
3075 -3074 0
3076 -1651 -1640 0
-3076 1651 0
-3076 1640 0
3077 -1627 -1640 0
-3077 1627 0
-3077 1640 0
3078 -1627 -1659 0
-3078 1627 0
-3078 1659 0
3079 -1651 -1659 -1633 0
-3079 1651 0
-3079 1659 0
-3079 1633 0
-984 1635 3076 3077 3078 3079 0
984 -1635 0
984 -3076 0
984 -3077 0
984 -3078 0
984 -3079 0
3080 -1651 -1647 0
-3080 1651 0
-3080 1647 0
3081 -1627 -1654 0
-3081 1627 0
-3081 1654 0
3082 -1627 -1647 0
-3082 1627 0
-3082 1647 0
3083 -1651 -1654 -1633 0
-3083 1651 0
-3083 1654 0
-3083 1633 0
-982 1642 3080 3081 3082 3083 0
982 -1642 0
982 -3080 0
982 -3081 0
982 -3082 0
982 -3083 0
3084 -1649 -1647 0
-3084 1649 0
-3084 1647 0
3085 -1626 -1647 0
-3085 1626 0
-3085 1647 0
3086 -1626 -1654 0
-3086 1626 0
-3086 1654 0
3087 -1649 -1654 -1633 0
-3087 1649 0
-3087 1654 0
-3087 1633 0
-985 1644 3084 3085 3086 3087 0
985 -1644 0
985 -3084 0
985 -3085 0
985 -3086 0
985 -3087 0
3088 -1659 -1626 0
-3088 1659 0
-3088 1626 0
3089 -1640 -1649 0
-3089 1640 0
-3089 1649 0
3090 -1640 -1626 0
-3090 1640 0
-3090 1626 0
3091 -1659 -1649 -1633 0
-3091 1659 0
-3091 1649 0
-3091 1633 0
-983 1638 3088 3089 3090 3091 0
983 -1638 0
983 -3088 0
983 -3089 0
983 -3090 0
983 -3091 0
3092 -1659 -1640 0
-3092 1659 0
-3092 1640 0
3093 -1640 -1640 0
-3093 1640 0
-3093 1640 0
3094 -1640 -1659 0
-3094 1640 0
-3094 1659 0
3095 -1659 -1659 -1633 0
-3095 1659 0
-3095 1659 0
-3095 1633 0
-3096 1665 3092 3093 3094 3095 0
3096 -1665 0
3096 -3092 0
3096 -3093 0
3096 -3094 0
3096 -3095 0
3097 -3098 -3098 0
-3097 3098 0
-3097 3098 0
-3099 3100 3097 0
3099 -3100 0
3099 -3097 0
3101 -3098 -3102 0
-3101 3098 0
-3101 3102 0
-969 3103 3101 0
969 -3103 0
969 -3101 0
3104 -3098 -3105 0
-3104 3098 0
-3104 3105 0
-967 3106 3104 0
967 -3106 0
967 -3104 0
3107 -3108 -3105 0
-3107 3108 0
-3107 3105 0
-970 3109 3107 0
970 -3109 0
970 -3107 0
3110 -3102 -3108 0
-3110 3102 0
-3110 3108 0
-968 3111 3110 0
968 -3111 0
968 -3110 0
3112 -3102 -3102 0
-3112 3102 0
-3112 3102 0
-3113 3114 3112 0
3113 -3114 0
3113 -3112 0
3115 -3116 -3116 0
-3115 3116 0
-3115 3116 0
-3117 3118 3115 0
3117 -3118 0
3117 -3115 0
3119 -3116 -3120 0
-3119 3116 0
-3119 3120 0
-1069 3121 3119 0
1069 -3121 0
1069 -3119 0
3122 -3116 -3123 0
-3122 3116 0
-3122 3123 0
-1067 3124 3122 0
1067 -3124 0
1067 -3122 0
3125 -3126 -3123 0
-3125 3126 0
-3125 3123 0
-1070 3127 3125 0
1070 -3127 0
1070 -3125 0
3128 -3120 -3126 0
-3128 3120 0
-3128 3126 0
-1068 3129 3128 0
1068 -3129 0
1068 -3128 0
3130 -3120 -3120 0
-3130 3120 0
-3130 3120 0
-3131 3132 3130 0
3131 -3132 0
3131 -3130 0
3133 -3134 -3135 0
-3133 3134 0
-3133 3135 0
3136 -3135 -3135 0
-3136 3135 0
-3136 3135 0
3137 -3135 -3134 0
-3137 3135 0
-3137 3134 0
3138 -3134 -3134 -3139 0
-3138 3134 0
-3138 3134 0
-3138 3139 0
-3140 3141 3133 3136 3137 3138 0
3140 -3141 0
3140 -3133 0
3140 -3136 0
3140 -3137 0
3140 -3138 0
3142 -3134 -3143 0
-3142 3134 0
-3142 3143 0
3144 -3135 -3143 0
-3144 3135 0
-3144 3143 0
3145 -3135 -3146 0
-3145 3135 0
-3145 3146 0
3147 -3134 -3146 -3139 0
-3147 3134 0
-3147 3146 0
-3147 3139 0
-54 3148 3142 3144 3145 3147 0
54 -3148 0
54 -3142 0
54 -3144 0
54 -3145 0
54 -3147 0
3149 -3134 -3150 0
-3149 3134 0
-3149 3150 0
3151 -3135 -3152 0
-3151 3135 0
-3151 3152 0
3153 -3135 -3150 0
-3153 3135 0
-3153 3150 0
3154 -3134 -3152 -3139 0
-3154 3134 0
-3154 3152 0
-3154 3139 0
-52 3155 3149 3151 3153 3154 0
52 -3155 0
52 -3149 0
52 -3151 0
52 -3153 0
52 -3154 0
3156 -3157 -3150 0
-3156 3157 0
-3156 3150 0
3158 -3159 -3150 0
-3158 3159 0
-3158 3150 0
3160 -3159 -3152 0
-3160 3159 0
-3160 3152 0
3161 -3157 -3152 -3139 0
-3161 3157 0
-3161 3152 0
-3161 3139 0
-55 3162 3156 3158 3160 3161 0
55 -3162 0
55 -3156 0
55 -3158 0
55 -3160 0
55 -3161 0
3163 -3146 -3159 0
-3163 3146 0
-3163 3159 0
3164 -3143 -3157 0
-3164 3143 0
-3164 3157 0
3165 -3143 -3159 0
-3165 3143 0
-3165 3159 0
3166 -3146 -3157 -3139 0
-3166 3146 0
-3166 3157 0
-3166 3139 0
-53 3167 3163 3164 3165 3166 0
53 -3167 0
53 -3163 0
53 -3164 0
53 -3165 0
53 -3166 0
3168 -3146 -3143 0
-3168 3146 0
-3168 3143 0
3169 -3143 -3143 0
-3169 3143 0
-3169 3143 0
3170 -3143 -3146 0
-3170 3143 0
-3170 3146 0
3171 -3146 -3146 -3139 0
-3171 3146 0
-3171 3146 0
-3171 3139 0
-3172 3173 3168 3169 3170 3171 0
3172 -3173 0
3172 -3168 0
3172 -3169 0
3172 -3170 0
3172 -3171 0
3174 -3175 -3176 0
-3174 3175 0
-3174 3176 0
3177 -3176 -3176 0
-3177 3176 0
-3177 3176 0
3178 -3176 -3175 0
-3178 3176 0
-3178 3175 0
3179 -3175 -3175 -3180 0
-3179 3175 0
-3179 3175 0
-3179 3180 0
-3181 3182 3174 3177 3178 3179 0
3181 -3182 0
3181 -3174 0
3181 -3177 0
3181 -3178 0
3181 -3179 0
3183 -3175 -3184 0
-3183 3175 0
-3183 3184 0
3185 -3176 -3184 0
-3185 3176 0
-3185 3184 0
3186 -3176 -3187 0
-3186 3176 0
-3186 3187 0
3188 -3175 -3187 -3180 0
-3188 3175 0
-3188 3187 0
-3188 3180 0
-734 3189 3183 3185 3186 3188 0
734 -3189 0
734 -3183 0
734 -3185 0
734 -3186 0
734 -3188 0
3190 -3175 -3191 0
-3190 3175 0
-3190 3191 0
3192 -3176 -3193 0
-3192 3176 0
-3192 3193 0
3194 -3176 -3191 0
-3194 3176 0
-3194 3191 0
3195 -3175 -3193 -3180 0
-3195 3175 0
-3195 3193 0
-3195 3180 0
-732 3196 3190 3192 3194 3195 0
732 -3196 0
732 -3190 0
732 -3192 0
732 -3194 0
732 -3195 0
3197 -3198 -3191 0
-3197 3198 0
-3197 3191 0
3199 -3200 -3191 0
-3199 3200 0
-3199 3191 0
3201 -3200 -3193 0
-3201 3200 0
-3201 3193 0
3202 -3198 -3193 -3180 0
-3202 3198 0
-3202 3193 0
-3202 3180 0
-735 3203 3197 3199 3201 3202 0
735 -3203 0
735 -3197 0
735 -3199 0
735 -3201 0
735 -3202 0
3204 -3187 -3200 0
-3204 3187 0
-3204 3200 0
3205 -3184 -3198 0
-3205 3184 0
-3205 3198 0
3206 -3184 -3200 0
-3206 3184 0
-3206 3200 0
3207 -3187 -3198 -3180 0
-3207 3187 0
-3207 3198 0
-3207 3180 0
-733 3208 3204 3205 3206 3207 0
733 -3208 0
733 -3204 0
733 -3205 0
733 -3206 0
733 -3207 0
3209 -3187 -3184 0
-3209 3187 0
-3209 3184 0
3210 -3184 -3184 0
-3210 3184 0
-3210 3184 0
3211 -3184 -3187 0
-3211 3184 0
-3211 3187 0
3212 -3187 -3187 -3180 0
-3212 3187 0
-3212 3187 0
-3212 3180 0
-3213 3214 3209 3210 3211 3212 0
3213 -3214 0
3213 -3209 0
3213 -3210 0
3213 -3211 0
3213 -3212 0
3215 -1379 -1355 0
-3215 1379 0
-3215 1355 0
1356 -1355 -1355 0
-1356 1355 0
-1356 1355 0
3216 -1355 -1379 0
-3216 1355 0
-3216 1379 0
3217 -1379 -1379 -1361 0
-3217 1379 0
-3217 1379 0
-3217 1361 0
-3218 1359 3215 1356 3216 3217 0
3218 -1359 0
3218 -3215 0
3218 -1356 0
3218 -3216 0
3218 -3217 0
3219 -1379 -1368 0
-3219 1379 0
-3219 1368 0
3220 -1355 -1368 0
-3220 1355 0
-3220 1368 0
3221 -1355 -1387 0
-3221 1355 0
-3221 1387 0
3222 -1379 -1387 -1361 0
-3222 1379 0
-3222 1387 0
-3222 1361 0
-614 1363 3219 3220 3221 3222 0
614 -1363 0
614 -3219 0
614 -3220 0
614 -3221 0
614 -3222 0
3223 -1379 -1375 0
-3223 1379 0
-3223 1375 0
3224 -1355 -1382 0
-3224 1355 0
-3224 1382 0
3225 -1355 -1375 0
-3225 1355 0
-3225 1375 0
3226 -1379 -1382 -1361 0
-3226 1379 0
-3226 1382 0
-3226 1361 0
-612 1370 3223 3224 3225 3226 0
612 -1370 0
612 -3223 0
612 -3224 0
612 -3225 0
612 -3226 0
3227 -1377 -1375 0
-3227 1377 0
-3227 1375 0
3228 -1354 -1375 0
-3228 1354 0
-3228 1375 0
3229 -1354 -1382 0
-3229 1354 0
-3229 1382 0
3230 -1377 -1382 -1361 0
-3230 1377 0
-3230 1382 0
-3230 1361 0
-615 1372 3227 3228 3229 3230 0
615 -1372 0
615 -3227 0
615 -3228 0
615 -3229 0
615 -3230 0
3231 -1387 -1354 0
-3231 1387 0
-3231 1354 0
3232 -1368 -1377 0
-3232 1368 0
-3232 1377 0
3233 -1368 -1354 0
-3233 1368 0
-3233 1354 0
3234 -1387 -1377 -1361 0
-3234 1387 0
-3234 1377 0
-3234 1361 0
-613 1366 3231 3232 3233 3234 0
613 -1366 0
613 -3231 0
613 -3232 0
613 -3233 0
613 -3234 0
3235 -1387 -1368 0
-3235 1387 0
-3235 1368 0
3236 -1368 -1368 0
-3236 1368 0
-3236 1368 0
3237 -1368 -1387 0
-3237 1368 0
-3237 1387 0
3238 -1387 -1387 -1361 0
-3238 1387 0
-3238 1387 0
-3238 1361 0
-3239 1393 3235 3236 3237 3238 0
3239 -1393 0
3239 -3235 0
3239 -3236 0
3239 -3237 0
3239 -3238 0
3240 -3241 -3242 0
-3240 3241 0
-3240 3242 0
3243 -3242 -3242 0
-3243 3242 0
-3243 3242 0
3244 -3242 -3241 0
-3244 3242 0
-3244 3241 0
3245 -3241 -3241 -3246 0
-3245 3241 0
-3245 3241 0
-3245 3246 0
-3247 3248 3240 3243 3244 3245 0
3247 -3248 0
3247 -3240 0
3247 -3243 0
3247 -3244 0
3247 -3245 0
3249 -3241 -3250 0
-3249 3241 0
-3249 3250 0
3251 -3242 -3250 0
-3251 3242 0
-3251 3250 0
3252 -3242 -3253 0
-3252 3242 0
-3252 3253 0
3254 -3241 -3253 -3246 0
-3254 3241 0
-3254 3253 0
-3254 3246 0
-329 3255 3249 3251 3252 3254 0
329 -3255 0
329 -3249 0
329 -3251 0
329 -3252 0
329 -3254 0
3256 -3241 -3257 0
-3256 3241 0
-3256 3257 0
3258 -3242 -3259 0
-3258 3242 0
-3258 3259 0
3260 -3242 -3257 0
-3260 3242 0
-3260 3257 0
3261 -3241 -3259 -3246 0
-3261 3241 0
-3261 3259 0
-3261 3246 0
-327 3262 3256 3258 3260 3261 0
327 -3262 0
327 -3256 0
327 -3258 0
327 -3260 0
327 -3261 0
3263 -3264 -3257 0
-3263 3264 0
-3263 3257 0
3265 -3266 -3257 0
-3265 3266 0
-3265 3257 0
3267 -3266 -3259 0
-3267 3266 0
-3267 3259 0
3268 -3264 -3259 -3246 0
-3268 3264 0
-3268 3259 0
-3268 3246 0
-330 3269 3263 3265 3267 3268 0
330 -3269 0
330 -3263 0
330 -3265 0
330 -3267 0
330 -3268 0
3270 -3253 -3266 0
-3270 3253 0
-3270 3266 0
3271 -3250 -3264 0
-3271 3250 0
-3271 3264 0
3272 -3250 -3266 0
-3272 3250 0
-3272 3266 0
3273 -3253 -3264 -3246 0
-3273 3253 0
-3273 3264 0
-3273 3246 0
-328 3274 3270 3271 3272 3273 0
328 -3274 0
328 -3270 0
328 -3271 0
328 -3272 0
328 -3273 0
3275 -3253 -3250 0
-3275 3253 0
-3275 3250 0
3276 -3250 -3250 0
-3276 3250 0
-3276 3250 0
3277 -3250 -3253 0
-3277 3250 0
-3277 3253 0
3278 -3253 -3253 -3246 0
-3278 3253 0
-3278 3253 0
-3278 3246 0
-3279 3280 3275 3276 3277 3278 0
3279 -3280 0
3279 -3275 0
3279 -3276 0
3279 -3277 0
3279 -3278 0
3281 -3282 -3283 0
-3281 3282 0
-3281 3283 0
3284 -3283 -3283 0
-3284 3283 0
-3284 3283 0
3285 -3283 -3282 0
-3285 3283 0
-3285 3282 0
3286 -3282 -3282 -3287 0
-3286 3282 0
-3286 3282 0
-3286 3287 0
-3288 3289 3281 3284 3285 3286 0
3288 -3289 0
3288 -3281 0
3288 -3284 0
3288 -3285 0
3288 -3286 0
3290 -3282 -3291 0
-3290 3282 0
-3290 3291 0
3292 -3283 -3291 0
-3292 3283 0
-3292 3291 0
3293 -3283 -3294 0
-3293 3283 0
-3293 3294 0
3295 -3282 -3294 -3287 0
-3295 3282 0
-3295 3294 0
-3295 3287 0
-729 3296 3290 3292 3293 3295 0
729 -3296 0
729 -3290 0
729 -3292 0
729 -3293 0
729 -3295 0
3297 -3282 -3298 0
-3297 3282 0
-3297 3298 0
3299 -3283 -3300 0
-3299 3283 0
-3299 3300 0
3301 -3283 -3298 0
-3301 3283 0
-3301 3298 0
3302 -3282 -3300 -3287 0
-3302 3282 0
-3302 3300 0
-3302 3287 0
-727 3303 3297 3299 3301 3302 0
727 -3303 0
727 -3297 0
727 -3299 0
727 -3301 0
727 -3302 0
3304 -3305 -3298 0
-3304 3305 0
-3304 3298 0
3306 -3307 -3298 0
-3306 3307 0
-3306 3298 0
3308 -3307 -3300 0
-3308 3307 0
-3308 3300 0
3309 -3305 -3300 -3287 0
-3309 3305 0
-3309 3300 0
-3309 3287 0
-730 3310 3304 3306 3308 3309 0
730 -3310 0
730 -3304 0
730 -3306 0
730 -3308 0
730 -3309 0
3311 -3294 -3307 0
-3311 3294 0
-3311 3307 0
3312 -3291 -3305 0
-3312 3291 0
-3312 3305 0
3313 -3291 -3307 0
-3313 3291 0
-3313 3307 0
3314 -3294 -3305 -3287 0
-3314 3294 0
-3314 3305 0
-3314 3287 0
-728 3315 3311 3312 3313 3314 0
728 -3315 0
728 -3311 0
728 -3312 0
728 -3313 0
728 -3314 0
3316 -3294 -3291 0
-3316 3294 0
-3316 3291 0
3317 -3291 -3291 0
-3317 3291 0
-3317 3291 0
3318 -3291 -3294 0
-3318 3291 0
-3318 3294 0
3319 -3294 -3294 -3287 0
-3319 3294 0
-3319 3294 0
-3319 3287 0
-3320 3321 3316 3317 3318 3319 0
3320 -3321 0
3320 -3316 0
3320 -3317 0
3320 -3318 0
3320 -3319 0
3322 -2159 -2159 0
-3322 2159 0
-3322 2159 0
-3323 2166 3322 0
3323 -2166 0
3323 -3322 0
3324 -2159 -2171 0
-3324 2159 0
-3324 2171 0
-1194 2173 3324 0
1194 -2173 0
1194 -3324 0
3325 -2159 -2177 0
-3325 2159 0
-3325 2177 0
-1192 2180 3325 0
1192 -2180 0
1192 -3325 0
3326 -2182 -2177 0
-3326 2182 0
-3326 2177 0
-1195 2187 3326 0
1195 -2187 0
1195 -3326 0
3327 -2171 -2182 0
-3327 2171 0
-3327 2182 0
-1193 2192 3327 0
1193 -2192 0
1193 -3327 0
3328 -2171 -2171 0
-3328 2171 0
-3328 2171 0
-3329 2198 3328 0
3329 -2198 0
3329 -3328 0
3330 -2094 -2070 0
-3330 2094 0
-3330 2070 0
2071 -2070 -2070 0
-2071 2070 0
-2071 2070 0
3331 -2070 -2094 0
-3331 2070 0
-3331 2094 0
3332 -2094 -2094 -2076 0
-3332 2094 0
-3332 2094 0
-3332 2076 0
-3333 2074 3330 2071 3331 3332 0
3333 -2074 0
3333 -3330 0
3333 -2071 0
3333 -3331 0
3333 -3332 0
3334 -2094 -2083 0
-3334 2094 0
-3334 2083 0
3335 -2070 -2083 0
-3335 2070 0
-3335 2083 0
3336 -2070 -2102 0
-3336 2070 0
-3336 2102 0
3337 -2094 -2102 -2076 0
-3337 2094 0
-3337 2102 0
-3337 2076 0
-144 2078 3334 3335 3336 3337 0
144 -2078 0
144 -3334 0
144 -3335 0
144 -3336 0
144 -3337 0
3338 -2094 -2090 0
-3338 2094 0
-3338 2090 0
3339 -2070 -2097 0
-3339 2070 0
-3339 2097 0
3340 -2070 -2090 0
-3340 2070 0
-3340 2090 0
3341 -2094 -2097 -2076 0
-3341 2094 0
-3341 2097 0
-3341 2076 0
-142 2085 3338 3339 3340 3341 0
142 -2085 0
142 -3338 0
142 -3339 0
142 -3340 0
142 -3341 0
3342 -2092 -2090 0
-3342 2092 0
-3342 2090 0
3343 -2069 -2090 0
-3343 2069 0
-3343 2090 0
3344 -2069 -2097 0
-3344 2069 0
-3344 2097 0
3345 -2092 -2097 -2076 0
-3345 2092 0
-3345 2097 0
-3345 2076 0
-145 2087 3342 3343 3344 3345 0
145 -2087 0
145 -3342 0
145 -3343 0
145 -3344 0
145 -3345 0
3346 -2102 -2069 0
-3346 2102 0
-3346 2069 0
3347 -2083 -2092 0
-3347 2083 0
-3347 2092 0
3348 -2083 -2069 0
-3348 2083 0
-3348 2069 0
3349 -2102 -2092 -2076 0
-3349 2102 0
-3349 2092 0
-3349 2076 0
-143 2081 3346 3347 3348 3349 0
143 -2081 0
143 -3346 0
143 -3347 0
143 -3348 0
143 -3349 0
3350 -2102 -2083 0
-3350 2102 0
-3350 2083 0
3351 -2083 -2083 0
-3351 2083 0
-3351 2083 0
3352 -2083 -2102 0
-3352 2083 0
-3352 2102 0
3353 -2102 -2102 -2076 0
-3353 2102 0
-3353 2102 0
-3353 2076 0
-3354 2108 3350 3351 3352 3353 0
3354 -2108 0
3354 -3350 0
3354 -3351 0
3354 -3352 0
3354 -3353 0
3355 -3356 -3356 0
-3355 3356 0
-3355 3356 0
-3357 3358 3355 0
3357 -3358 0
3357 -3355 0
3359 -3356 -2774 0
-3359 3356 0
-3359 2774 0
-1139 3360 3359 0
1139 -3360 0
1139 -3359 0
3361 -3356 -2772 0
-3361 3356 0
-3361 2772 0
-1137 3362 3361 0
1137 -3362 0
1137 -3361 0
3363 -2771 -2772 0
-3363 2771 0
-3363 2772 0
-1140 2768 3363 0
1140 -2768 0
1140 -3363 0
3364 -2774 -2771 0
-3364 2774 0
-3364 2771 0
-1138 2765 3364 0
1138 -2765 0
1138 -3364 0
3365 -2774 -2774 0
-3365 2774 0
-3365 2774 0
-3366 2777 3365 0
3366 -2777 0
3366 -3365 0
3367 -3368 -3368 0
-3367 3368 0
-3367 3368 0
-3369 3370 3367 0
3369 -3370 0
3369 -3367 0
3371 -3368 -3372 0
-3371 3368 0
-3371 3372 0
-499 3373 3371 0
499 -3373 0
499 -3371 0
3374 -3368 -3375 0
-3374 3368 0
-3374 3375 0
-497 3376 3374 0
497 -3376 0
497 -3374 0
3377 -3378 -3375 0
-3377 3378 0
-3377 3375 0
-500 3379 3377 0
500 -3379 0
500 -3377 0
3380 -3372 -3378 0
-3380 3372 0
-3380 3378 0
-498 3381 3380 0
498 -3381 0
498 -3380 0
3382 -3372 -3372 0
-3382 3372 0
-3382 3372 0
-3383 3384 3382 0
3383 -3384 0
3383 -3382 0
3385 -1698 -1690 0
-3385 1698 0
-3385 1690 0
1919 -1690 -1690 0
-1919 1690 0
-1919 1690 0
3386 -1690 -1698 0
-3386 1690 0
-3386 1698 0
3387 -1698 -1698 -1687 0
-3387 1698 0
-3387 1698 0
-3387 1687 0
-3388 1701 3385 1919 3386 3387 0
3388 -1701 0
3388 -3385 0
3388 -1919 0
3388 -3386 0
3388 -3387 0
3389 -1698 -1929 0
-3389 1698 0
-3389 1929 0
3390 -1690 -1929 0
-3390 1690 0
-3390 1929 0
3391 -1690 -1942 0
-3391 1690 0
-3391 1942 0
3392 -1698 -1942 -1687 0
-3392 1698 0
-3392 1942 0
-3392 1687 0
-944 1924 3389 3390 3391 3392 0
944 -1924 0
944 -3389 0
944 -3390 0
944 -3391 0
944 -3392 0
3393 -1698 -1685 0
-3393 1698 0
-3393 1685 0
3394 -1690 -1695 0
-3394 1690 0
-3394 1695 0
3395 -1690 -1685 0
-3395 1690 0
-3395 1685 0
3396 -1698 -1695 -1687 0
-3396 1698 0
-3396 1695 0
-3396 1687 0
-942 1689 3393 3394 3395 3396 0
942 -1689 0
942 -3393 0
942 -3394 0
942 -3395 0
942 -3396 0
3397 -1696 -1685 0
-3397 1696 0
-3397 1685 0
3398 -1693 -1685 0
-3398 1693 0
-3398 1685 0
3399 -1693 -1695 0
-3399 1693 0
-3399 1695 0
3400 -1696 -1695 -1687 0
-3400 1696 0
-3400 1695 0
-3400 1687 0
-945 1692 3397 3398 3399 3400 0
945 -1692 0
945 -3397 0
945 -3398 0
945 -3399 0
945 -3400 0
3401 -1942 -1693 0
-3401 1942 0
-3401 1693 0
3402 -1929 -1696 0
-3402 1929 0
-3402 1696 0
3403 -1929 -1693 0
-3403 1929 0
-3403 1693 0
3404 -1942 -1696 -1687 0
-3404 1942 0
-3404 1696 0
-3404 1687 0
-943 1927 3401 3402 3403 3404 0
943 -1927 0
943 -3401 0
943 -3402 0
943 -3403 0
943 -3404 0
3405 -1942 -1929 0
-3405 1942 0
-3405 1929 0
3406 -1929 -1929 0
-3406 1929 0
-3406 1929 0
3407 -1929 -1942 0
-3407 1929 0
-3407 1942 0
3408 -1942 -1942 -1687 0
-3408 1942 0
-3408 1942 0
-3408 1687 0
-3409 1948 3405 3406 3407 3408 0
3409 -1948 0
3409 -3405 0
3409 -3406 0
3409 -3407 0
3409 -3408 0
3410 -1231 -1228 0
-3410 1231 0
-3410 1228 0
3411 -1228 -1228 0
-3411 1228 0
-3411 1228 0
3412 -1228 -1231 0
-3412 1228 0
-3412 1231 0
3413 -1231 -1231 -1239 0
-3413 1231 0
-3413 1231 0
-3413 1239 0
-3414 1225 3410 3411 3412 3413 0
3414 -1225 0
3414 -3410 0
3414 -3411 0
3414 -3412 0
3414 -3413 0
3415 -1231 -2519 0
-3415 1231 0
-3415 2519 0
3416 -1228 -2519 0
-3416 1228 0
-3416 2519 0
3417 -1228 -2521 0
-3417 1228 0
-3417 2521 0
3418 -1231 -2521 -1239 0
-3418 1231 0
-3418 2521 0
-3418 1239 0
-94 2982 3415 3416 3417 3418 0
94 -2982 0
94 -3415 0
94 -3416 0
94 -3417 0
94 -3418 0
3419 -1231 -1227 0
-3419 1231 0
-3419 1227 0
3420 -1228 -1230 0
-3420 1228 0
-3420 1230 0
3421 -1228 -1227 0
-3421 1228 0
-3421 1227 0
3422 -1231 -1230 -1239 0
-3422 1231 0
-3422 1230 0
-3422 1239 0
-92 1223 3419 3420 3421 3422 0
92 -1223 0
92 -3419 0
92 -3420 0
92 -3421 0
92 -3422 0
3423 -1234 -1227 0
-3423 1234 0
-3423 1227 0
3424 -1236 -1227 0
-3424 1236 0
-3424 1227 0
3425 -1236 -1230 0
-3425 1236 0
-3425 1230 0
3426 -1234 -1230 -1239 0
-3426 1234 0
-3426 1230 0
-3426 1239 0
-95 1233 3423 3424 3425 3426 0
95 -1233 0
95 -3423 0
95 -3424 0
95 -3425 0
95 -3426 0
3427 -2521 -1236 0
-3427 2521 0
-3427 1236 0
3428 -2519 -1234 0
-3428 2519 0
-3428 1234 0
3429 -2519 -1236 0
-3429 2519 0
-3429 1236 0
3430 -2521 -1234 -1239 0
-3430 2521 0
-3430 1234 0
-3430 1239 0
-93 2515 3427 3428 3429 3430 0
93 -2515 0
93 -3427 0
93 -3428 0
93 -3429 0
93 -3430 0
3431 -2521 -2519 0
-3431 2521 0
-3431 2519 0
3432 -2519 -2519 0
-3432 2519 0
-3432 2519 0
3433 -2519 -2521 0
-3433 2519 0
-3433 2521 0
3434 -2521 -2521 -1239 0
-3434 2521 0
-3434 2521 0
-3434 1239 0
-3435 2517 3431 3432 3433 3434 0
3435 -2517 0
3435 -3431 0
3435 -3432 0
3435 -3433 0
3435 -3434 0
3436 -3437 -3438 0
-3436 3437 0
-3436 3438 0
3439 -3438 -3438 0
-3439 3438 0
-3439 3438 0
3440 -3438 -3437 0
-3440 3438 0
-3440 3437 0
3441 -3437 -3437 -3442 0
-3441 3437 0
-3441 3437 0
-3441 3442 0
-3443 3444 3436 3439 3440 3441 0
3443 -3444 0
3443 -3436 0
3443 -3439 0
3443 -3440 0
3443 -3441 0
3445 -3437 -3446 0
-3445 3437 0
-3445 3446 0
3447 -3438 -3446 0
-3447 3438 0
-3447 3446 0
3448 -3438 -3449 0
-3448 3438 0
-3448 3449 0
3450 -3437 -3449 -3442 0
-3450 3437 0
-3450 3449 0
-3450 3442 0
-169 3451 3445 3447 3448 3450 0
169 -3451 0
169 -3445 0
169 -3447 0
169 -3448 0
169 -3450 0
3452 -3437 -3453 0
-3452 3437 0
-3452 3453 0
3454 -3438 -3455 0
-3454 3438 0
-3454 3455 0
3456 -3438 -3453 0
-3456 3438 0
-3456 3453 0
3457 -3437 -3455 -3442 0
-3457 3437 0
-3457 3455 0
-3457 3442 0
-167 3458 3452 3454 3456 3457 0
167 -3458 0
167 -3452 0
167 -3454 0
167 -3456 0
167 -3457 0
3459 -3460 -3453 0
-3459 3460 0
-3459 3453 0
3461 -3462 -3453 0
-3461 3462 0
-3461 3453 0
3463 -3462 -3455 0
-3463 3462 0
-3463 3455 0
3464 -3460 -3455 -3442 0
-3464 3460 0
-3464 3455 0
-3464 3442 0
-170 3465 3459 3461 3463 3464 0
170 -3465 0
170 -3459 0
170 -3461 0
170 -3463 0
170 -3464 0
3466 -3449 -3462 0
-3466 3449 0
-3466 3462 0
3467 -3446 -3460 0
-3467 3446 0
-3467 3460 0
3468 -3446 -3462 0
-3468 3446 0
-3468 3462 0
3469 -3449 -3460 -3442 0
-3469 3449 0
-3469 3460 0
-3469 3442 0
-168 3470 3466 3467 3468 3469 0
168 -3470 0
168 -3466 0
168 -3467 0
168 -3468 0
168 -3469 0
3471 -3449 -3446 0
-3471 3449 0
-3471 3446 0
3472 -3446 -3446 0
-3472 3446 0
-3472 3446 0
3473 -3446 -3449 0
-3473 3446 0
-3473 3449 0
3474 -3449 -3449 -3442 0
-3474 3449 0
-3474 3449 0
-3474 3442 0
-3475 3476 3471 3472 3473 3474 0
3475 -3476 0
3475 -3471 0
3475 -3472 0
3475 -3473 0
3475 -3474 0
3477 -3478 -3478 0
-3477 3478 0
-3477 3478 0
-3479 3480 3477 0
3479 -3480 0
3479 -3477 0
3481 -3478 -3482 0
-3481 3478 0
-3481 3482 0
-1099 3483 3481 0
1099 -3483 0
1099 -3481 0
3484 -3478 -3485 0
-3484 3478 0
-3484 3485 0
-1097 3486 3484 0
1097 -3486 0
1097 -3484 0
3487 -3488 -3485 0
-3487 3488 0
-3487 3485 0
-1100 3489 3487 0
1100 -3489 0
1100 -3487 0
3490 -3482 -3488 0
-3490 3482 0
-3490 3488 0
-1098 3491 3490 0
1098 -3491 0
1098 -3490 0
3492 -3482 -3482 0
-3492 3482 0
-3492 3482 0
-3493 3494 3492 0
3493 -3494 0
3493 -3492 0
3495 -3462 -3438 0
-3495 3462 0
-3495 3438 0
3439 -3438 -3438 0
-3439 3438 0
-3439 3438 0
3496 -3438 -3462 0
-3496 3438 0
-3496 3462 0
3497 -3462 -3462 -3444 0
-3497 3462 0
-3497 3462 0
-3497 3444 0
-3498 3442 3495 3439 3496 3497 0
3498 -3442 0
3498 -3495 0
3498 -3439 0
3498 -3496 0
3498 -3497 0
3499 -3462 -3451 0
-3499 3462 0
-3499 3451 0
3500 -3438 -3451 0
-3500 3438 0
-3500 3451 0
3501 -3438 -3470 0
-3501 3438 0
-3501 3470 0
3502 -3462 -3470 -3444 0
-3502 3462 0
-3502 3470 0
-3502 3444 0
-249 3446 3499 3500 3501 3502 0
249 -3446 0
249 -3499 0
249 -3500 0
249 -3501 0
249 -3502 0
3503 -3462 -3458 0
-3503 3462 0
-3503 3458 0
3504 -3438 -3465 0
-3504 3438 0
-3504 3465 0
3505 -3438 -3458 0
-3505 3438 0
-3505 3458 0
3506 -3462 -3465 -3444 0
-3506 3462 0
-3506 3465 0
-3506 3444 0
-247 3453 3503 3504 3505 3506 0
247 -3453 0
247 -3503 0
247 -3504 0
247 -3505 0
247 -3506 0
3507 -3460 -3458 0
-3507 3460 0
-3507 3458 0
3508 -3437 -3458 0
-3508 3437 0
-3508 3458 0
3509 -3437 -3465 0
-3509 3437 0
-3509 3465 0
3510 -3460 -3465 -3444 0
-3510 3460 0
-3510 3465 0
-3510 3444 0
-250 3455 3507 3508 3509 3510 0
250 -3455 0
250 -3507 0
250 -3508 0
250 -3509 0
250 -3510 0
3511 -3470 -3437 0
-3511 3470 0
-3511 3437 0
3512 -3451 -3460 0
-3512 3451 0
-3512 3460 0
3513 -3451 -3437 0
-3513 3451 0
-3513 3437 0
3514 -3470 -3460 -3444 0
-3514 3470 0
-3514 3460 0
-3514 3444 0
-248 3449 3511 3512 3513 3514 0
248 -3449 0
248 -3511 0
248 -3512 0
248 -3513 0
248 -3514 0
3515 -3470 -3451 0
-3515 3470 0
-3515 3451 0
3516 -3451 -3451 0
-3516 3451 0
-3516 3451 0
3517 -3451 -3470 0
-3517 3451 0
-3517 3470 0
3518 -3470 -3470 -3444 0
-3518 3470 0
-3518 3470 0
-3518 3444 0
-3519 3476 3515 3516 3517 3518 0
3519 -3476 0
3519 -3515 0
3519 -3516 0
3519 -3517 0
3519 -3518 0
3520 -1490 -3521 0
-3520 1490 0
-3520 3521 0
3522 -3521 -3521 0
-3522 3521 0
-3522 3521 0
3523 -3521 -1490 0
-3523 3521 0
-3523 1490 0
3524 -1490 -1490 -3525 0
-3524 1490 0
-3524 1490 0
-3524 3525 0
-3526 1492 3520 3522 3523 3524 0
3526 -1492 0
3526 -3520 0
3526 -3522 0
3526 -3523 0
3526 -3524 0
3527 -1490 -3528 0
-3527 1490 0
-3527 3528 0
3529 -3521 -3528 0
-3529 3521 0
-3529 3528 0
3530 -3521 -1494 0
-3530 3521 0
-3530 1494 0
3531 -1490 -1494 -3525 0
-3531 1490 0
-3531 1494 0
-3531 3525 0
-584 1495 3527 3529 3530 3531 0
584 -1495 0
584 -3527 0
584 -3529 0
584 -3530 0
584 -3531 0
3532 -1490 -3533 0
-3532 1490 0
-3532 3533 0
3534 -3521 -1497 0
-3534 3521 0
-3534 1497 0
3535 -3521 -3533 0
-3535 3521 0
-3535 3533 0
3536 -1490 -1497 -3525 0
-3536 1490 0
-3536 1497 0
-3536 3525 0
-582 1498 3532 3534 3535 3536 0
582 -1498 0
582 -3532 0
582 -3534 0
582 -3535 0
582 -3536 0
3537 -1500 -3533 0
-3537 1500 0
-3537 3533 0
3538 -3539 -3533 0
-3538 3539 0
-3538 3533 0
3540 -3539 -1497 0
-3540 3539 0
-3540 1497 0
3541 -1500 -1497 -3525 0
-3541 1500 0
-3541 1497 0
-3541 3525 0
-585 1501 3537 3538 3540 3541 0
585 -1501 0
585 -3537 0
585 -3538 0
585 -3540 0
585 -3541 0
3542 -1494 -3539 0
-3542 1494 0
-3542 3539 0
3543 -3528 -1500 0
-3543 3528 0
-3543 1500 0
3544 -3528 -3539 0
-3544 3528 0
-3544 3539 0
3545 -1494 -1500 -3525 0
-3545 1494 0
-3545 1500 0
-3545 3525 0
-583 1503 3542 3543 3544 3545 0
583 -1503 0
583 -3542 0
583 -3543 0
583 -3544 0
583 -3545 0
3546 -1494 -3528 0
-3546 1494 0
-3546 3528 0
3547 -3528 -3528 0
-3547 3528 0
-3547 3528 0
3548 -3528 -1494 0
-3548 3528 0
-3548 1494 0
3549 -1494 -1494 -3525 0
-3549 1494 0
-3549 1494 0
-3549 3525 0
-3550 1506 3546 3547 3548 3549 0
3550 -1506 0
3550 -3546 0
3550 -3547 0
3550 -3548 0
3550 -3549 0
3551 -3552 -3553 0
-3551 3552 0
-3551 3553 0
3554 -3553 -3553 0
-3554 3553 0
-3554 3553 0
3555 -3553 -3552 0
-3555 3553 0
-3555 3552 0
3556 -3552 -3552 -3557 0
-3556 3552 0
-3556 3552 0
-3556 3557 0
-3558 3559 3551 3554 3555 3556 0
3558 -3559 0
3558 -3551 0
3558 -3554 0
3558 -3555 0
3558 -3556 0
3560 -3552 -3561 0
-3560 3552 0
-3560 3561 0
3562 -3553 -3561 0
-3562 3553 0
-3562 3561 0
3563 -3553 -3564 0
-3563 3553 0
-3563 3564 0
3565 -3552 -3564 -3557 0
-3565 3552 0
-3565 3564 0
-3565 3557 0
-324 3566 3560 3562 3563 3565 0
324 -3566 0
324 -3560 0
324 -3562 0
324 -3563 0
324 -3565 0
3567 -3552 -3568 0
-3567 3552 0
-3567 3568 0
3569 -3553 -3570 0
-3569 3553 0
-3569 3570 0
3571 -3553 -3568 0
-3571 3553 0
-3571 3568 0
3572 -3552 -3570 -3557 0
-3572 3552 0
-3572 3570 0
-3572 3557 0
-322 3573 3567 3569 3571 3572 0
322 -3573 0
322 -3567 0
322 -3569 0
322 -3571 0
322 -3572 0
3574 -3575 -3568 0
-3574 3575 0
-3574 3568 0
3576 -3577 -3568 0
-3576 3577 0
-3576 3568 0
3578 -3577 -3570 0
-3578 3577 0
-3578 3570 0
3579 -3575 -3570 -3557 0
-3579 3575 0
-3579 3570 0
-3579 3557 0
-325 3580 3574 3576 3578 3579 0
325 -3580 0
325 -3574 0
325 -3576 0
325 -3578 0
325 -3579 0
3581 -3564 -3577 0
-3581 3564 0
-3581 3577 0
3582 -3561 -3575 0
-3582 3561 0
-3582 3575 0
3583 -3561 -3577 0
-3583 3561 0
-3583 3577 0
3584 -3564 -3575 -3557 0
-3584 3564 0
-3584 3575 0
-3584 3557 0
-323 3585 3581 3582 3583 3584 0
323 -3585 0
323 -3581 0
323 -3582 0
323 -3583 0
323 -3584 0
3586 -3564 -3561 0
-3586 3564 0
-3586 3561 0
3587 -3561 -3561 0
-3587 3561 0
-3587 3561 0
3588 -3561 -3564 0
-3588 3561 0
-3588 3564 0
3589 -3564 -3564 -3557 0
-3589 3564 0
-3589 3564 0
-3589 3557 0
-3590 3591 3586 3587 3588 3589 0
3590 -3591 0
3590 -3586 0
3590 -3587 0
3590 -3588 0
3590 -3589 0
3592 -3593 -3594 0
-3592 3593 0
-3592 3594 0
3595 -3594 -3594 0
-3595 3594 0
-3595 3594 0
3596 -3594 -3593 0
-3596 3594 0
-3596 3593 0
3597 -3593 -3593 -3598 0
-3597 3593 0
-3597 3593 0
-3597 3598 0
-3599 3600 3592 3595 3596 3597 0
3599 -3600 0
3599 -3592 0
3599 -3595 0
3599 -3596 0
3599 -3597 0
3601 -3593 -3602 0
-3601 3593 0
-3601 3602 0
3603 -3594 -3602 0
-3603 3594 0
-3603 3602 0
3604 -3594 -3605 0
-3604 3594 0
-3604 3605 0
3606 -3593 -3605 -3598 0
-3606 3593 0
-3606 3605 0
-3606 3598 0
-779 3607 3601 3603 3604 3606 0
779 -3607 0
779 -3601 0
779 -3603 0
779 -3604 0
779 -3606 0
3608 -3593 -3609 0
-3608 3593 0
-3608 3609 0
3610 -3594 -3611 0
-3610 3594 0
-3610 3611 0
3612 -3594 -3609 0
-3612 3594 0
-3612 3609 0
3613 -3593 -3611 -3598 0
-3613 3593 0
-3613 3611 0
-3613 3598 0
-777 3614 3608 3610 3612 3613 0
777 -3614 0
777 -3608 0
777 -3610 0
777 -3612 0
777 -3613 0
3615 -3616 -3609 0
-3615 3616 0
-3615 3609 0
3617 -3618 -3609 0
-3617 3618 0
-3617 3609 0
3619 -3618 -3611 0
-3619 3618 0
-3619 3611 0
3620 -3616 -3611 -3598 0
-3620 3616 0
-3620 3611 0
-3620 3598 0
-780 3621 3615 3617 3619 3620 0
780 -3621 0
780 -3615 0
780 -3617 0
780 -3619 0
780 -3620 0
3622 -3605 -3618 0
-3622 3605 0
-3622 3618 0
3623 -3602 -3616 0
-3623 3602 0
-3623 3616 0
3624 -3602 -3618 0
-3624 3602 0
-3624 3618 0
3625 -3605 -3616 -3598 0
-3625 3605 0
-3625 3616 0
-3625 3598 0
-778 3626 3622 3623 3624 3625 0
778 -3626 0
778 -3622 0
778 -3623 0
778 -3624 0
778 -3625 0
3627 -3605 -3602 0
-3627 3605 0
-3627 3602 0
3628 -3602 -3602 0
-3628 3602 0
-3628 3602 0
3629 -3602 -3605 0
-3629 3602 0
-3629 3605 0
3630 -3605 -3605 -3598 0
-3630 3605 0
-3630 3605 0
-3630 3598 0
-3631 3632 3627 3628 3629 3630 0
3631 -3632 0
3631 -3627 0
3631 -3628 0
3631 -3629 0
3631 -3630 0
3633 -3634 -3635 0
-3633 3634 0
-3633 3635 0
3636 -3635 -3635 0
-3636 3635 0
-3636 3635 0
3637 -3635 -3634 0
-3637 3635 0
-3637 3634 0
3638 -3634 -3634 -1243 0
-3638 3634 0
-3638 3634 0
-3638 1243 0
-3639 3640 3633 3636 3637 3638 0
3639 -3640 0
3639 -3633 0
3639 -3636 0
3639 -3637 0
3639 -3638 0
3641 -3634 -1246 0
-3641 3634 0
-3641 1246 0
3642 -3635 -1246 0
-3642 3635 0
-3642 1246 0
3643 -3635 -1254 0
-3643 3635 0
-3643 1254 0
3644 -3634 -1254 -1243 0
-3644 3634 0
-3644 1254 0
-3644 1243 0
-1004 3645 3641 3642 3643 3644 0
1004 -3645 0
1004 -3641 0
1004 -3642 0
1004 -3643 0
1004 -3644 0
3646 -3634 -1249 0
-3646 3634 0
-3646 1249 0
3647 -3635 -1252 0
-3647 3635 0
-3647 1252 0
3648 -3635 -1249 0
-3648 3635 0
-3648 1249 0
3649 -3634 -1252 -1243 0
-3649 3634 0
-3649 1252 0
-3649 1243 0
-1002 3650 3646 3647 3648 3649 0
1002 -3650 0
1002 -3646 0
1002 -3647 0
1002 -3648 0
1002 -3649 0
3651 -1251 -1249 0
-3651 1251 0
-3651 1249 0
3652 -1241 -1249 0
-3652 1241 0
-3652 1249 0
3653 -1241 -1252 0
-3653 1241 0
-3653 1252 0
3654 -1251 -1252 -1243 0
-3654 1251 0
-3654 1252 0
-3654 1243 0
-1005 1248 3651 3652 3653 3654 0
1005 -1248 0
1005 -3651 0
1005 -3652 0
1005 -3653 0
1005 -3654 0
3655 -1254 -1241 0
-3655 1254 0
-3655 1241 0
3656 -1246 -1251 0
-3656 1246 0
-3656 1251 0
3657 -1246 -1241 0
-3657 1246 0
-3657 1241 0
3658 -1254 -1251 -1243 0
-3658 1254 0
-3658 1251 0
-3658 1243 0
-1003 1245 3655 3656 3657 3658 0
1003 -1245 0
1003 -3655 0
1003 -3656 0
1003 -3657 0
1003 -3658 0
3659 -1254 -1246 0
-3659 1254 0
-3659 1246 0
3660 -1246 -1246 0
-3660 1246 0
-3660 1246 0
3661 -1246 -1254 0
-3661 1246 0
-3661 1254 0
3662 -1254 -1254 -1243 0
-3662 1254 0
-3662 1254 0
-3662 1243 0
-3663 1257 3659 3660 3661 3662 0
3663 -1257 0
3663 -3659 0
3663 -3660 0
3663 -3661 0
3663 -3662 0
3664 -1765 -1762 0
-3664 1765 0
-3664 1762 0
2810 -1762 -1762 0
-2810 1762 0
-2810 1762 0
3665 -1762 -1765 0
-3665 1762 0
-3665 1765 0
3666 -1765 -1765 -1773 0
-3666 1765 0
-3666 1765 0
-3666 1773 0
-3667 1759 3664 2810 3665 3666 0
3667 -1759 0
3667 -3664 0
3667 -2810 0
3667 -3665 0
3667 -3666 0
3668 -1765 -2820 0
-3668 1765 0
-3668 2820 0
3669 -1762 -2820 0
-3669 1762 0
-3669 2820 0
3670 -1762 -2833 0
-3670 1762 0
-3670 2833 0
3671 -1765 -2833 -1773 0
-3671 1765 0
-3671 2833 0
-3671 1773 0
-429 2815 3668 3669 3670 3671 0
429 -2815 0
429 -3668 0
429 -3669 0
429 -3670 0
429 -3671 0
3672 -1765 -1761 0
-3672 1765 0
-3672 1761 0
3673 -1762 -1764 0
-3673 1762 0
-3673 1764 0
3674 -1762 -1761 0
-3674 1762 0
-3674 1761 0
3675 -1765 -1764 -1773 0
-3675 1765 0
-3675 1764 0
-3675 1773 0
-427 1757 3672 3673 3674 3675 0
427 -1757 0
427 -3672 0
427 -3673 0
427 -3674 0
427 -3675 0
3676 -1768 -1761 0
-3676 1768 0
-3676 1761 0
3677 -1770 -1761 0
-3677 1770 0
-3677 1761 0
3678 -1770 -1764 0
-3678 1770 0
-3678 1764 0
3679 -1768 -1764 -1773 0
-3679 1768 0
-3679 1764 0
-3679 1773 0
-430 1767 3676 3677 3678 3679 0
430 -1767 0
430 -3676 0
430 -3677 0
430 -3678 0
430 -3679 0
3680 -2833 -1770 0
-3680 2833 0
-3680 1770 0
3681 -2820 -1768 0
-3681 2820 0
-3681 1768 0
3682 -2820 -1770 0
-3682 2820 0
-3682 1770 0
3683 -2833 -1768 -1773 0
-3683 2833 0
-3683 1768 0
-3683 1773 0
-428 2818 3680 3681 3682 3683 0
428 -2818 0
428 -3680 0
428 -3681 0
428 -3682 0
428 -3683 0
3684 -2833 -2820 0
-3684 2833 0
-3684 2820 0
3685 -2820 -2820 0
-3685 2820 0
-3685 2820 0
3686 -2820 -2833 0
-3686 2820 0
-3686 2833 0
3687 -2833 -2833 -1773 0
-3687 2833 0
-3687 2833 0
-3687 1773 0
-3688 2839 3684 3685 3686 3687 0
3688 -2839 0
3688 -3684 0
3688 -3685 0
3688 -3686 0
3688 -3687 0
3689 -1354 -1354 0
-3689 1354 0
-3689 1354 0
-3690 1361 3689 0
3690 -1361 0
3690 -3689 0
3691 -1354 -1366 0
-3691 1354 0
-3691 1366 0
-899 1368 3691 0
899 -1368 0
899 -3691 0
3692 -1354 -1372 0
-3692 1354 0
-3692 1372 0
-897 1375 3692 0
897 -1375 0
897 -3692 0
3693 -1377 -1372 0
-3693 1377 0
-3693 1372 0
-900 1382 3693 0
900 -1382 0
900 -3693 0
3694 -1366 -1377 0
-3694 1366 0
-3694 1377 0
-898 1387 3694 0
898 -1387 0
898 -3694 0
3695 -1366 -1366 0
-3695 1366 0
-3695 1366 0
-3696 1393 3695 0
3696 -1393 0
3696 -3695 0
3697 -1870 -1862 0
-3697 1870 0
-3697 1862 0
2779 -1862 -1862 0
-2779 1862 0
-2779 1862 0
3698 -1862 -1870 0
-3698 1862 0
-3698 1870 0
3699 -1870 -1870 -1859 0
-3699 1870 0
-3699 1870 0
-3699 1859 0
-3700 1873 3697 2779 3698 3699 0
3700 -1873 0
3700 -3697 0
3700 -2779 0
3700 -3698 0
3700 -3699 0
3701 -1870 -2789 0
-3701 1870 0
-3701 2789 0
3702 -1862 -2789 0
-3702 1862 0
-3702 2789 0
3703 -1862 -2802 0
-3703 1862 0
-3703 2802 0
3704 -1870 -2802 -1859 0
-3704 1870 0
-3704 2802 0
-3704 1859 0
-539 2784 3701 3702 3703 3704 0
539 -2784 0
539 -3701 0
539 -3702 0
539 -3703 0
539 -3704 0
3705 -1870 -1857 0
-3705 1870 0
-3705 1857 0
3706 -1862 -1867 0
-3706 1862 0
-3706 1867 0
3707 -1862 -1857 0
-3707 1862 0
-3707 1857 0
3708 -1870 -1867 -1859 0
-3708 1870 0
-3708 1867 0
-3708 1859 0
-537 1861 3705 3706 3707 3708 0
537 -1861 0
537 -3705 0
537 -3706 0
537 -3707 0
537 -3708 0
3709 -1868 -1857 0
-3709 1868 0
-3709 1857 0
3710 -1865 -1857 0
-3710 1865 0
-3710 1857 0
3711 -1865 -1867 0
-3711 1865 0
-3711 1867 0
3712 -1868 -1867 -1859 0
-3712 1868 0
-3712 1867 0
-3712 1859 0
-540 1864 3709 3710 3711 3712 0
540 -1864 0
540 -3709 0
540 -3710 0
540 -3711 0
540 -3712 0
3713 -2802 -1865 0
-3713 2802 0
-3713 1865 0
3714 -2789 -1868 0
-3714 2789 0
-3714 1868 0
3715 -2789 -1865 0
-3715 2789 0
-3715 1865 0
3716 -2802 -1868 -1859 0
-3716 2802 0
-3716 1868 0
-3716 1859 0
-538 2787 3713 3714 3715 3716 0
538 -2787 0
538 -3713 0
538 -3714 0
538 -3715 0
538 -3716 0
3717 -2802 -2789 0
-3717 2802 0
-3717 2789 0
3718 -2789 -2789 0
-3718 2789 0
-3718 2789 0
3719 -2789 -2802 0
-3719 2789 0
-3719 2802 0
3720 -2802 -2802 -1859 0
-3720 2802 0
-3720 2802 0
-3720 1859 0
-3721 2808 3717 3718 3719 3720 0
3721 -2808 0
3721 -3717 0
3721 -3718 0
3721 -3719 0
3721 -3720 0
3722 -1223 -2982 0
-3722 1223 0
-3722 2982 0
3723 -2982 -2982 0
-3723 2982 0
-3723 2982 0
3724 -2982 -1223 0
-3724 2982 0
-3724 1223 0
3725 -1223 -1223 -2517 0
-3725 1223 0
-3725 1223 0
-3725 2517 0
-3726 1225 3722 3723 3724 3725 0
3726 -1225 0
3726 -3722 0
3726 -3723 0
3726 -3724 0
3726 -3725 0
3727 -1223 -2519 0
-3727 1223 0
-3727 2519 0
3728 -2982 -2519 0
-3728 2982 0
-3728 2519 0
3729 -2982 -1227 0
-3729 2982 0
-3729 1227 0
3730 -1223 -1227 -2517 0
-3730 1223 0
-3730 1227 0
-3730 2517 0
-114 1228 3727 3728 3729 3730 0
114 -1228 0
114 -3727 0
114 -3728 0
114 -3729 0
114 -3730 0
3731 -1223 -2521 0
-3731 1223 0
-3731 2521 0
3732 -2982 -1230 0
-3732 2982 0
-3732 1230 0
3733 -2982 -2521 0
-3733 2982 0
-3733 2521 0
3734 -1223 -1230 -2517 0
-3734 1223 0
-3734 1230 0
-3734 2517 0
-112 1231 3731 3732 3733 3734 0
112 -1231 0
112 -3731 0
112 -3732 0
112 -3733 0
112 -3734 0
3735 -1233 -2521 0
-3735 1233 0
-3735 2521 0
3736 -2515 -2521 0
-3736 2515 0
-3736 2521 0
3737 -2515 -1230 0
-3737 2515 0
-3737 1230 0
3738 -1233 -1230 -2517 0
-3738 1233 0
-3738 1230 0
-3738 2517 0
-115 1234 3735 3736 3737 3738 0
115 -1234 0
115 -3735 0
115 -3736 0
115 -3737 0
115 -3738 0
3739 -1227 -2515 0
-3739 1227 0
-3739 2515 0
3740 -2519 -1233 0
-3740 2519 0
-3740 1233 0
3741 -2519 -2515 0
-3741 2519 0
-3741 2515 0
3742 -1227 -1233 -2517 0
-3742 1227 0
-3742 1233 0
-3742 2517 0
-113 1236 3739 3740 3741 3742 0
113 -1236 0
113 -3739 0
113 -3740 0
113 -3741 0
113 -3742 0
3743 -1227 -2519 0
-3743 1227 0
-3743 2519 0
3432 -2519 -2519 0
-3432 2519 0
-3432 2519 0
3744 -2519 -1227 0
-3744 2519 0
-3744 1227 0
3745 -1227 -1227 -2517 0
-3745 1227 0
-3745 1227 0
-3745 2517 0
-3746 1239 3743 3432 3744 3745 0
3746 -1239 0
3746 -3743 0
3746 -3432 0
3746 -3744 0
3746 -3745 0
3747 -3748 -3749 0
-3747 3748 0
-3747 3749 0
3750 -3749 -3749 0
-3750 3749 0
-3750 3749 0
3751 -3749 -3748 0
-3751 3749 0
-3751 3748 0
3752 -3748 -3748 -3753 0
-3752 3748 0
-3752 3748 0
-3752 3753 0
-3754 3755 3747 3750 3751 3752 0
3754 -3755 0
3754 -3747 0
3754 -3750 0
3754 -3751 0
3754 -3752 0
3756 -3748 -3757 0
-3756 3748 0
-3756 3757 0
3758 -3749 -3757 0
-3758 3749 0
-3758 3757 0
3759 -3749 -3760 0
-3759 3749 0
-3759 3760 0
3761 -3748 -3760 -3753 0
-3761 3748 0
-3761 3760 0
-3761 3753 0
-214 3762 3756 3758 3759 3761 0
214 -3762 0
214 -3756 0
214 -3758 0
214 -3759 0
214 -3761 0
3763 -3748 -3764 0
-3763 3748 0
-3763 3764 0
3765 -3749 -3766 0
-3765 3749 0
-3765 3766 0
3767 -3749 -3764 0
-3767 3749 0
-3767 3764 0
3768 -3748 -3766 -3753 0
-3768 3748 0
-3768 3766 0
-3768 3753 0
-212 3769 3763 3765 3767 3768 0
212 -3769 0
212 -3763 0
212 -3765 0
212 -3767 0
212 -3768 0
3770 -3771 -3764 0
-3770 3771 0
-3770 3764 0
3772 -3773 -3764 0
-3772 3773 0
-3772 3764 0
3774 -3773 -3766 0
-3774 3773 0
-3774 3766 0
3775 -3771 -3766 -3753 0
-3775 3771 0
-3775 3766 0
-3775 3753 0
-215 3776 3770 3772 3774 3775 0
215 -3776 0
215 -3770 0
215 -3772 0
215 -3774 0
215 -3775 0
3777 -3760 -3773 0
-3777 3760 0
-3777 3773 0
3778 -3757 -3771 0
-3778 3757 0
-3778 3771 0
3779 -3757 -3773 0
-3779 3757 0
-3779 3773 0
3780 -3760 -3771 -3753 0
-3780 3760 0
-3780 3771 0
-3780 3753 0
-213 3781 3777 3778 3779 3780 0
213 -3781 0
213 -3777 0
213 -3778 0
213 -3779 0
213 -3780 0
3782 -3760 -3757 0
-3782 3760 0
-3782 3757 0
3783 -3757 -3757 0
-3783 3757 0
-3783 3757 0
3784 -3757 -3760 0
-3784 3757 0
-3784 3760 0
3785 -3760 -3760 -3753 0
-3785 3760 0
-3785 3760 0
-3785 3753 0
-3786 3787 3782 3783 3784 3785 0
3786 -3787 0
3786 -3782 0
3786 -3783 0
3786 -3784 0
3786 -3785 0
3788 -2436 -2436 0
-3788 2436 0
-3788 2436 0
-3789 2439 3788 0
3789 -2439 0
3789 -3788 0
3790 -2436 -3791 0
-3790 2436 0
-3790 3791 0
-179 3792 3790 0
179 -3792 0
179 -3790 0
3793 -2436 -2433 0
-3793 2436 0
-3793 2433 0
-177 2427 3793 0
177 -2427 0
177 -3793 0
3794 -2434 -2433 0
-3794 2434 0
-3794 2433 0
-180 2430 3794 0
180 -2430 0
180 -3794 0
3795 -3791 -2434 0
-3795 3791 0
-3795 2434 0
-178 3796 3795 0
178 -3796 0
178 -3795 0
3797 -3791 -3791 0
-3797 3791 0
-3797 3791 0
-3798 3799 3797 0
3798 -3799 0
3798 -3797 0
3800 -3039 -3039 0
-3800 3039 0
-3800 3039 0
-3801 3019 3800 0
3801 -3019 0
3801 -3800 0
3802 -3039 -3047 0
-3802 3039 0
-3802 3047 0
-919 3023 3802 0
919 -3023 0
919 -3802 0
3803 -3039 -3042 0
-3803 3039 0
-3803 3042 0
-917 3030 3803 0
917 -3030 0
917 -3803 0
3804 -3037 -3042 0
-3804 3037 0
-3804 3042 0
-920 3032 3804 0
920 -3032 0
920 -3804 0
3805 -3047 -3037 0
-3805 3047 0
-3805 3037 0
-918 3026 3805 0
918 -3026 0
918 -3805 0
3806 -3047 -3047 0
-3806 3047 0
-3806 3047 0
-3807 3053 3806 0
3807 -3053 0
3807 -3806 0
3808 -3809 -3809 0
-3808 3809 0
-3808 3809 0
-3810 3811 3808 0
3810 -3811 0
3810 -3808 0
3812 -3809 -3813 0
-3812 3809 0
-3812 3813 0
-974 3814 3812 0
974 -3814 0
974 -3812 0
3815 -3809 -3816 0
-3815 3809 0
-3815 3816 0
-972 3817 3815 0
972 -3817 0
972 -3815 0
3818 -3819 -3816 0
-3818 3819 0
-3818 3816 0
-975 3820 3818 0
975 -3820 0
975 -3818 0
3821 -3813 -3819 0
-3821 3813 0
-3821 3819 0
-973 3822 3821 0
973 -3822 0
973 -3821 0
3823 -3813 -3813 0
-3823 3813 0
-3823 3813 0
-3824 3825 3823 0
3824 -3825 0
3824 -3823 0
3826 -3827 -3827 0
-3826 3827 0
-3826 3827 0
-3828 3829 3826 0
3828 -3829 0
3828 -3826 0
3830 -3827 -3111 0
-3830 3827 0
-3830 3111 0
-889 3831 3830 0
889 -3831 0
889 -3830 0
3832 -3827 -3109 0
-3832 3827 0
-3832 3109 0
-887 3833 3832 0
887 -3833 0
887 -3832 0
3834 -3108 -3109 0
-3834 3108 0
-3834 3109 0
-890 3105 3834 0
890 -3105 0
890 -3834 0
3835 -3111 -3108 0
-3835 3111 0
-3835 3108 0
-888 3102 3835 0
888 -3102 0
888 -3835 0
3836 -3111 -3111 0
-3836 3111 0
-3836 3111 0
-3837 3114 3836 0
3837 -3114 0
3837 -3836 0
3838 -2431 -2431 0
-3838 2431 0
-3838 2431 0
-3839 2425 3838 0
3839 -2425 0
3839 -3838 0
3840 -2431 -3796 0
-3840 2431 0
-3840 3796 0
-99 3841 3840 0
99 -3841 0
99 -3840 0
3842 -2431 -2430 0
-3842 2431 0
-3842 2430 0
-97 2423 3842 0
97 -2423 0
97 -3842 0
3843 -2434 -2430 0
-3843 2434 0
-3843 2430 0
-100 2433 3843 0
100 -2433 0
100 -3843 0
3844 -3796 -2434 0
-3844 3796 0
-3844 2434 0
-98 3791 3844 0
98 -3791 0
98 -3844 0
3845 -3796 -3796 0
-3845 3796 0
-3845 3796 0
-3846 3799 3845 0
3846 -3799 0
3846 -3845 0
3847 -2718 -2718 0
-3847 2718 0
-3847 2718 0
-3848 2698 3847 0
3848 -2698 0
3848 -3847 0
3849 -2718 -2726 0
-3849 2718 0
-3849 2726 0
-874 2702 3849 0
874 -2702 0
874 -3849 0
3850 -2718 -2721 0
-3850 2718 0
-3850 2721 0
-872 2709 3850 0
872 -2709 0
872 -3850 0
3851 -2716 -2721 0
-3851 2716 0
-3851 2721 0
-875 2711 3851 0
875 -2711 0
875 -3851 0
3852 -2726 -2716 0
-3852 2726 0
-3852 2716 0
-873 2705 3852 0
873 -2705 0
873 -3852 0
3853 -2726 -2726 0
-3853 2726 0
-3853 2726 0
-3854 2732 3853 0
3854 -2732 0
3854 -3853 0
3855 -2392 -2392 0
-3855 2392 0
-3855 2392 0
-3856 2398 3855 0
3856 -2398 0
3856 -3855 0
3857 -2392 -1467 0
-3857 2392 0
-3857 1467 0
-474 2403 3857 0
474 -2403 0
474 -3857 0
3858 -2392 -1465 0
-3858 2392 0
-3858 1465 0
-472 2408 3858 0
472 -2408 0
472 -3858 0
3859 -1464 -1465 0
-3859 1464 0
-3859 1465 0
-475 1461 3859 0
475 -1461 0
475 -3859 0
3860 -1467 -1464 0
-3860 1467 0
-3860 1464 0
-473 1458 3860 0
473 -1458 0
473 -3860 0
3861 -1467 -1467 0
-3861 1467 0
-3861 1467 0
-3862 1470 3861 0
3862 -1470 0
3862 -3861 0
3863 -1610 -1586 0
-3863 1610 0
-3863 1586 0
1587 -1586 -1586 0
-1587 1586 0
-1587 1586 0
3864 -1586 -1610 0
-3864 1586 0
-3864 1610 0
3865 -1610 -1610 -1592 0
-3865 1610 0
-3865 1610 0
-3865 1592 0
-3866 1590 3863 1587 3864 3865 0
3866 -1590 0
3866 -3863 0
3866 -1587 0
3866 -3864 0
3866 -3865 0
3867 -1610 -1599 0
-3867 1610 0
-3867 1599 0
3868 -1586 -1599 0
-3868 1586 0
-3868 1599 0
3869 -1586 -1618 0
-3869 1586 0
-3869 1618 0
3870 -1610 -1618 -1592 0
-3870 1610 0
-3870 1618 0
-3870 1592 0
-509 1594 3867 3868 3869 3870 0
509 -1594 0
509 -3867 0
509 -3868 0
509 -3869 0
509 -3870 0
3871 -1610 -1606 0
-3871 1610 0
-3871 1606 0
3872 -1586 -1613 0
-3872 1586 0
-3872 1613 0
3873 -1586 -1606 0
-3873 1586 0
-3873 1606 0
3874 -1610 -1613 -1592 0
-3874 1610 0
-3874 1613 0
-3874 1592 0
-507 1601 3871 3872 3873 3874 0
507 -1601 0
507 -3871 0
507 -3872 0
507 -3873 0
507 -3874 0
3875 -1608 -1606 0
-3875 1608 0
-3875 1606 0
3876 -1585 -1606 0
-3876 1585 0
-3876 1606 0
3877 -1585 -1613 0
-3877 1585 0
-3877 1613 0
3878 -1608 -1613 -1592 0
-3878 1608 0
-3878 1613 0
-3878 1592 0
-510 1603 3875 3876 3877 3878 0
510 -1603 0
510 -3875 0
510 -3876 0
510 -3877 0
510 -3878 0
3879 -1618 -1585 0
-3879 1618 0
-3879 1585 0
3880 -1599 -1608 0
-3880 1599 0
-3880 1608 0
3881 -1599 -1585 0
-3881 1599 0
-3881 1585 0
3882 -1618 -1608 -1592 0
-3882 1618 0
-3882 1608 0
-3882 1592 0
-508 1597 3879 3880 3881 3882 0
508 -1597 0
508 -3879 0
508 -3880 0
508 -3881 0
508 -3882 0
3883 -1618 -1599 0
-3883 1618 0
-3883 1599 0
3884 -1599 -1599 0
-3884 1599 0
-3884 1599 0
3885 -1599 -1618 0
-3885 1599 0
-3885 1618 0
3886 -1618 -1618 -1592 0
-3886 1618 0
-3886 1618 0
-3886 1592 0
-3887 1624 3883 3884 3885 3886 0
3887 -1624 0
3887 -3883 0
3887 -3884 0
3887 -3885 0
3887 -3886 0
3888 -1757 -2815 0
-3888 1757 0
-3888 2815 0
2835 -2815 -2815 0
-2835 2815 0
-2835 2815 0
3889 -2815 -1757 0
-3889 2815 0
-3889 1757 0
3890 -1757 -1757 -2839 0
-3890 1757 0
-3890 1757 0
-3890 2839 0
-3891 1759 3888 2835 3889 3890 0
3891 -1759 0
3891 -3888 0
3891 -2835 0
3891 -3889 0
3891 -3890 0
3892 -1757 -2820 0
-3892 1757 0
-3892 2820 0
3893 -2815 -2820 0
-3893 2815 0
-3893 2820 0
3894 -2815 -1761 0
-3894 2815 0
-3894 1761 0
3895 -1757 -1761 -2839 0
-3895 1757 0
-3895 1761 0
-3895 2839 0
-399 1762 3892 3893 3894 3895 0
399 -1762 0
399 -3892 0
399 -3893 0
399 -3894 0
399 -3895 0
3896 -1757 -2833 0
-3896 1757 0
-3896 2833 0
3897 -2815 -1764 0
-3897 2815 0
-3897 1764 0
3898 -2815 -2833 0
-3898 2815 0
-3898 2833 0
3899 -1757 -1764 -2839 0
-3899 1757 0
-3899 1764 0
-3899 2839 0
-397 1765 3896 3897 3898 3899 0
397 -1765 0
397 -3896 0
397 -3897 0
397 -3898 0
397 -3899 0
3900 -1767 -2833 0
-3900 1767 0
-3900 2833 0
3901 -2818 -2833 0
-3901 2818 0
-3901 2833 0
3902 -2818 -1764 0
-3902 2818 0
-3902 1764 0
3903 -1767 -1764 -2839 0
-3903 1767 0
-3903 1764 0
-3903 2839 0
-400 1768 3900 3901 3902 3903 0
400 -1768 0
400 -3900 0
400 -3901 0
400 -3902 0
400 -3903 0
3904 -1761 -2818 0
-3904 1761 0
-3904 2818 0
3905 -2820 -1767 0
-3905 2820 0
-3905 1767 0
3906 -2820 -2818 0
-3906 2820 0
-3906 2818 0
3907 -1761 -1767 -2839 0
-3907 1761 0
-3907 1767 0
-3907 2839 0
-398 1770 3904 3905 3906 3907 0
398 -1770 0
398 -3904 0
398 -3905 0
398 -3906 0
398 -3907 0
3908 -1761 -2820 0
-3908 1761 0
-3908 2820 0
3685 -2820 -2820 0
-3685 2820 0
-3685 2820 0
3909 -2820 -1761 0
-3909 2820 0
-3909 1761 0
3910 -1761 -1761 -2839 0
-3910 1761 0
-3910 1761 0
-3910 2839 0
-3911 1773 3908 3685 3909 3910 0
3911 -1773 0
3911 -3908 0
3911 -3685 0
3911 -3909 0
3911 -3910 0
3912 -3913 -3913 0
-3912 3913 0
-3912 3913 0
-3914 3915 3912 0
3914 -3915 0
3914 -3912 0
3916 -3913 -3917 0
-3916 3913 0
-3916 3917 0
-664 3918 3916 0
664 -3918 0
664 -3916 0
3919 -3913 -3920 0
-3919 3913 0
-3919 3920 0
-662 3921 3919 0
662 -3921 0
662 -3919 0
3922 -3923 -3920 0
-3922 3923 0
-3922 3920 0
-665 3924 3922 0
665 -3924 0
665 -3922 0
3925 -3917 -3923 0
-3925 3917 0
-3925 3923 0
-663 3926 3925 0
663 -3926 0
663 -3925 0
3927 -3917 -3917 0
-3927 3917 0
-3927 3917 0
-3928 3929 3927 0
3928 -3929 0
3928 -3927 0
3930 -1544 -1544 0
-3930 1544 0
-3930 1544 0
-3931 1551 3930 0
3931 -1551 0
3931 -3930 0
3932 -1544 -1556 0
-3932 1544 0
-3932 1556 0
-1174 1558 3932 0
1174 -1558 0
1174 -3932 0
3933 -1544 -1562 0
-3933 1544 0
-3933 1562 0
-1172 1565 3933 0
1172 -1565 0
1172 -3933 0
3934 -1567 -1562 0
-3934 1567 0
-3934 1562 0
-1175 1572 3934 0
1175 -1572 0
1175 -3934 0
3935 -1556 -1567 0
-3935 1556 0
-3935 1567 0
-1173 1577 3935 0
1173 -1577 0
1173 -3935 0
3936 -1556 -1556 0
-3936 1556 0
-3936 1556 0
-3937 1583 3936 0
3937 -1583 0
3937 -3936 0
3938 -2939 -2939 0
-3938 2939 0
-3938 2939 0
-3939 2946 3938 0
3939 -2946 0
3939 -3938 0
3940 -2939 -2951 0
-3940 2939 0
-3940 2951 0
-804 2953 3940 0
804 -2953 0
804 -3940 0
3941 -2939 -2957 0
-3941 2939 0
-3941 2957 0
-802 2960 3941 0
802 -2960 0
802 -3941 0
3942 -2962 -2957 0
-3942 2962 0
-3942 2957 0
-805 2967 3942 0
805 -2967 0
805 -3942 0
3943 -2951 -2962 0
-3943 2951 0
-3943 2962 0
-803 2972 3943 0
803 -2972 0
803 -3943 0
3944 -2951 -2951 0
-3944 2951 0
-3944 2951 0
-3945 2978 3944 0
3945 -2978 0
3945 -3944 0
3946 -3462 -3462 0
-3946 3462 0
-3946 3462 0
-3947 3442 3946 0
3947 -3442 0
3947 -3946 0
3948 -3462 -3470 0
-3948 3462 0
-3948 3470 0
-624 3446 3948 0
624 -3446 0
624 -3948 0
3949 -3462 -3465 0
-3949 3462 0
-3949 3465 0
-622 3453 3949 0
622 -3453 0
622 -3949 0
3950 -3460 -3465 0
-3950 3460 0
-3950 3465 0
-625 3455 3950 0
625 -3455 0
625 -3950 0
3951 -3470 -3460 0
-3951 3470 0
-3951 3460 0
-623 3449 3951 0
623 -3449 0
623 -3951 0
3952 -3470 -3470 0
-3952 3470 0
-3952 3470 0
-3953 3476 3952 0
3953 -3476 0
3953 -3952 0
3954 -3955 -3956 0
-3954 3955 0
-3954 3956 0
3957 -3956 -3956 0
-3957 3956 0
-3957 3956 0
3958 -3956 -3955 0
-3958 3956 0
-3958 3955 0
3959 -3955 -3955 -3960 0
-3959 3955 0
-3959 3955 0
-3959 3960 0
-3961 3962 3954 3957 3958 3959 0
3961 -3962 0
3961 -3954 0
3961 -3957 0
3961 -3958 0
3961 -3959 0
3963 -3955 -3964 0
-3963 3955 0
-3963 3964 0
3965 -3956 -3964 0
-3965 3956 0
-3965 3964 0
3966 -3956 -3967 0
-3966 3956 0
-3966 3967 0
3968 -3955 -3967 -3960 0
-3968 3955 0
-3968 3967 0
-3968 3960 0
-59 3969 3963 3965 3966 3968 0
59 -3969 0
59 -3963 0
59 -3965 0
59 -3966 0
59 -3968 0
3970 -3955 -3971 0
-3970 3955 0
-3970 3971 0
3972 -3956 -3973 0
-3972 3956 0
-3972 3973 0
3974 -3956 -3971 0
-3974 3956 0
-3974 3971 0
3975 -3955 -3973 -3960 0
-3975 3955 0
-3975 3973 0
-3975 3960 0
-57 3976 3970 3972 3974 3975 0
57 -3976 0
57 -3970 0
57 -3972 0
57 -3974 0
57 -3975 0
3977 -3978 -3971 0
-3977 3978 0
-3977 3971 0
3979 -3980 -3971 0
-3979 3980 0
-3979 3971 0
3981 -3980 -3973 0
-3981 3980 0
-3981 3973 0
3982 -3978 -3973 -3960 0
-3982 3978 0
-3982 3973 0
-3982 3960 0
-60 3983 3977 3979 3981 3982 0
60 -3983 0
60 -3977 0
60 -3979 0
60 -3981 0
60 -3982 0
3984 -3967 -3980 0
-3984 3967 0
-3984 3980 0
3985 -3964 -3978 0
-3985 3964 0
-3985 3978 0
3986 -3964 -3980 0
-3986 3964 0
-3986 3980 0
3987 -3967 -3978 -3960 0
-3987 3967 0
-3987 3978 0
-3987 3960 0
-58 3988 3984 3985 3986 3987 0
58 -3988 0
58 -3984 0
58 -3985 0
58 -3986 0
58 -3987 0
3989 -3967 -3964 0
-3989 3967 0
-3989 3964 0
3990 -3964 -3964 0
-3990 3964 0
-3990 3964 0
3991 -3964 -3967 0
-3991 3964 0
-3991 3967 0
3992 -3967 -3967 -3960 0
-3992 3967 0
-3992 3967 0
-3992 3960 0
-3993 3994 3989 3990 3991 3992 0
3993 -3994 0
3993 -3989 0
3993 -3990 0
3993 -3991 0
3993 -3992 0
3995 -3996 -3997 0
-3995 3996 0
-3995 3997 0
3998 -3997 -3997 0
-3998 3997 0
-3998 3997 0
3999 -3997 -3996 0
-3999 3997 0
-3999 3996 0
4000 -3996 -3996 -4001 0
-4000 3996 0
-4000 3996 0
-4000 4001 0
-4002 4003 3995 3998 3999 4000 0
4002 -4003 0
4002 -3995 0
4002 -3998 0
4002 -3999 0
4002 -4000 0
4004 -3996 -4005 0
-4004 3996 0
-4004 4005 0
4006 -3997 -4005 0
-4006 3997 0
-4006 4005 0
4007 -3997 -4008 0
-4007 3997 0
-4007 4008 0
4009 -3996 -4008 -4001 0
-4009 3996 0
-4009 4008 0
-4009 4001 0
-49 4010 4004 4006 4007 4009 0
49 -4010 0
49 -4004 0
49 -4006 0
49 -4007 0
49 -4009 0
4011 -3996 -4012 0
-4011 3996 0
-4011 4012 0
4013 -3997 -4014 0
-4013 3997 0
-4013 4014 0
4015 -3997 -4012 0
-4015 3997 0
-4015 4012 0
4016 -3996 -4014 -4001 0
-4016 3996 0
-4016 4014 0
-4016 4001 0
-47 4017 4011 4013 4015 4016 0
47 -4017 0
47 -4011 0
47 -4013 0
47 -4015 0
47 -4016 0
4018 -4019 -4012 0
-4018 4019 0
-4018 4012 0
4020 -4021 -4012 0
-4020 4021 0
-4020 4012 0
4022 -4021 -4014 0
-4022 4021 0
-4022 4014 0
4023 -4019 -4014 -4001 0
-4023 4019 0
-4023 4014 0
-4023 4001 0
-50 4024 4018 4020 4022 4023 0
50 -4024 0
50 -4018 0
50 -4020 0
50 -4022 0
50 -4023 0
4025 -4008 -4021 0
-4025 4008 0
-4025 4021 0
4026 -4005 -4019 0
-4026 4005 0
-4026 4019 0
4027 -4005 -4021 0
-4027 4005 0
-4027 4021 0
4028 -4008 -4019 -4001 0
-4028 4008 0
-4028 4019 0
-4028 4001 0
-48 4029 4025 4026 4027 4028 0
48 -4029 0
48 -4025 0
48 -4026 0
48 -4027 0
48 -4028 0
4030 -4008 -4005 0
-4030 4008 0
-4030 4005 0
4031 -4005 -4005 0
-4031 4005 0
-4031 4005 0
4032 -4005 -4008 0
-4032 4005 0
-4032 4008 0
4033 -4008 -4008 -4001 0
-4033 4008 0
-4033 4008 0
-4033 4001 0
-4034 4035 4030 4031 4032 4033 0
4034 -4035 0
4034 -4030 0
4034 -4031 0
4034 -4032 0
4034 -4033 0
4036 -1379 -1379 0
-4036 1379 0
-4036 1379 0
-4037 1359 4036 0
4037 -1359 0
4037 -4036 0
4038 -1379 -1387 0
-4038 1379 0
-4038 1387 0
-979 1363 4038 0
979 -1363 0
979 -4038 0
4039 -1379 -1382 0
-4039 1379 0
-4039 1382 0
-977 1370 4039 0
977 -1370 0
977 -4039 0
4040 -1377 -1382 0
-4040 1377 0
-4040 1382 0
-980 1372 4040 0
980 -1372 0
980 -4040 0
4041 -1387 -1377 0
-4041 1387 0
-4041 1377 0
-978 1366 4041 0
978 -1366 0
978 -4041 0
4042 -1387 -1387 0
-4042 1387 0
-4042 1387 0
-4043 1393 4042 0
4043 -1393 0
4043 -4042 0
4044 -3773 -3773 0
-4044 3773 0
-4044 3773 0
-4045 3753 4044 0
4045 -3753 0
4045 -4044 0
4046 -3773 -3781 0
-4046 3773 0
-4046 3781 0
-454 3757 4046 0
454 -3757 0
454 -4046 0
4047 -3773 -3776 0
-4047 3773 0
-4047 3776 0
-452 3764 4047 0
452 -3764 0
452 -4047 0
4048 -3771 -3776 0
-4048 3771 0
-4048 3776 0
-455 3766 4048 0
455 -3766 0
455 -4048 0
4049 -3781 -3771 0
-4049 3781 0
-4049 3771 0
-453 3760 4049 0
453 -3760 0
453 -4049 0
4050 -3781 -3781 0
-4050 3781 0
-4050 3781 0
-4051 3787 4050 0
4051 -3787 0
4051 -4050 0
4052 -3955 -3955 0
-4052 3955 0
-4052 3955 0
-4053 3962 4052 0
4053 -3962 0
4053 -4052 0
4054 -3955 -3967 0
-4054 3955 0
-4054 3967 0
-299 3969 4054 0
299 -3969 0
299 -4054 0
4055 -3955 -3973 0
-4055 3955 0
-4055 3973 0
-297 3976 4055 0
297 -3976 0
297 -4055 0
4056 -3978 -3973 0
-4056 3978 0
-4056 3973 0
-300 3983 4056 0
300 -3983 0
300 -4056 0
4057 -3967 -3978 0
-4057 3967 0
-4057 3978 0
-298 3988 4057 0
298 -3988 0
298 -4057 0
4058 -3967 -3967 0
-4058 3967 0
-4058 3967 0
-4059 3994 4058 0
4059 -3994 0
4059 -4058 0
4060 -1857 -2789 0
-4060 1857 0
-4060 2789 0
3718 -2789 -2789 0
-3718 2789 0
-3718 2789 0
4061 -2789 -1857 0
-4061 2789 0
-4061 1857 0
4062 -1857 -1857 -2808 0
-4062 1857 0
-4062 1857 0
-4062 2808 0
-4063 1859 4060 3718 4061 4062 0
4063 -1859 0
4063 -4060 0
4063 -3718 0
4063 -4061 0
4063 -4062 0
4064 -1857 -2784 0
-4064 1857 0
-4064 2784 0
4065 -2789 -2784 0
-4065 2789 0
-4065 2784 0
4066 -2789 -1861 0
-4066 2789 0
-4066 1861 0
4067 -1857 -1861 -2808 0
-4067 1857 0
-4067 1861 0
-4067 2808 0
-389 1862 4064 4065 4066 4067 0
389 -1862 0
389 -4064 0
389 -4065 0
389 -4066 0
389 -4067 0
4068 -1857 -2787 0
-4068 1857 0
-4068 2787 0
4069 -2789 -1864 0
-4069 2789 0
-4069 1864 0
4070 -2789 -2787 0
-4070 2789 0
-4070 2787 0
4071 -1857 -1864 -2808 0
-4071 1857 0
-4071 1864 0
-4071 2808 0
-387 1865 4068 4069 4070 4071 0
387 -1865 0
387 -4068 0
387 -4069 0
387 -4070 0
387 -4071 0
4072 -1867 -2787 0
-4072 1867 0
-4072 2787 0
4073 -2802 -2787 0
-4073 2802 0
-4073 2787 0
4074 -2802 -1864 0
-4074 2802 0
-4074 1864 0
4075 -1867 -1864 -2808 0
-4075 1867 0
-4075 1864 0
-4075 2808 0
-390 1868 4072 4073 4074 4075 0
390 -1868 0
390 -4072 0
390 -4073 0
390 -4074 0
390 -4075 0
4076 -1861 -2802 0
-4076 1861 0
-4076 2802 0
4077 -2784 -1867 0
-4077 2784 0
-4077 1867 0
4078 -2784 -2802 0
-4078 2784 0
-4078 2802 0
4079 -1861 -1867 -2808 0
-4079 1861 0
-4079 1867 0
-4079 2808 0
-388 1870 4076 4077 4078 4079 0
388 -1870 0
388 -4076 0
388 -4077 0
388 -4078 0
388 -4079 0
4080 -1861 -2784 0
-4080 1861 0
-4080 2784 0
2804 -2784 -2784 0
-2804 2784 0
-2804 2784 0
4081 -2784 -1861 0
-4081 2784 0
-4081 1861 0
4082 -1861 -1861 -2808 0
-4082 1861 0
-4082 1861 0
-4082 2808 0
-4083 1873 4080 2804 4081 4082 0
4083 -1873 0
4083 -4080 0
4083 -2804 0
4083 -4081 0
4083 -4082 0
4084 -4085 -4085 0
-4084 4085 0
-4084 4085 0
-4086 4087 4084 0
4086 -4087 0
4086 -4084 0
4088 -4085 -4089 0
-4088 4085 0
-4088 4089 0
-1049 4090 4088 0
1049 -4090 0
1049 -4088 0
4091 -4085 -4092 0
-4091 4085 0
-4091 4092 0
-1047 4093 4091 0
1047 -4093 0
1047 -4091 0
4094 -4095 -4092 0
-4094 4095 0
-4094 4092 0
-1050 4096 4094 0
1050 -4096 0
1050 -4094 0
4097 -4089 -4095 0
-4097 4089 0
-4097 4095 0
-1048 4098 4097 0
1048 -4098 0
1048 -4097 0
4099 -4089 -4089 0
-4099 4089 0
-4099 4089 0
-4100 4101 4099 0
4100 -4101 0
4100 -4099 0
4102 -1816 -1816 0
-4102 1816 0
-4102 1816 0
-4103 1823 4102 0
4103 -1823 0
4103 -4102 0
4104 -1816 -1828 0
-4104 1816 0
-4104 1828 0
-939 1830 4104 0
939 -1830 0
939 -4104 0
4105 -1816 -1834 0
-4105 1816 0
-4105 1834 0
-937 1837 4105 0
937 -1837 0
937 -4105 0
4106 -1839 -1834 0
-4106 1839 0
-4106 1834 0
-940 1844 4106 0
940 -1844 0
940 -4106 0
4107 -1828 -1839 0
-4107 1828 0
-4107 1839 0
-938 1849 4107 0
938 -1849 0
938 -4107 0
4108 -1828 -1828 0
-4108 1828 0
-4108 1828 0
-4109 1855 4108 0
4109 -1855 0
4109 -4108 0
4110 -4111 -4111 0
-4110 4111 0
-4110 4111 0
-4112 4113 4110 0
4112 -4113 0
4112 -4110 0
4114 -4111 -4115 0
-4114 4111 0
-4114 4115 0
-1079 4116 4114 0
1079 -4116 0
1079 -4114 0
4117 -4111 -4118 0
-4117 4111 0
-4117 4118 0
-1077 4119 4117 0
1077 -4119 0
1077 -4117 0
4120 -4121 -4118 0
-4120 4121 0
-4120 4118 0
-1080 4122 4120 0
1080 -4122 0
1080 -4120 0
4123 -4115 -4121 0
-4123 4115 0
-4123 4121 0
-1078 4124 4123 0
1078 -4124 0
1078 -4123 0
4125 -4115 -4115 0
-4125 4115 0
-4125 4115 0
-4126 4127 4125 0
4126 -4127 0
4126 -4125 0
4128 -4129 -4130 0
-4128 4129 0
-4128 4130 0
4131 -4130 -4130 0
-4131 4130 0
-4131 4130 0
4132 -4130 -4129 0
-4132 4130 0
-4132 4129 0
4133 -4129 -4129 -3811 0
-4133 4129 0
-4133 4129 0
-4133 3811 0
-4134 4135 4128 4131 4132 4133 0
4134 -4135 0
4134 -4128 0
4134 -4131 0
4134 -4132 0
4134 -4133 0
4136 -4129 -3814 0
-4136 4129 0
-4136 3814 0
4137 -4130 -3814 0
-4137 4130 0
-4137 3814 0
4138 -4130 -3822 0
-4138 4130 0
-4138 3822 0
4139 -4129 -3822 -3811 0
-4139 4129 0
-4139 3822 0
-4139 3811 0
-489 4140 4136 4137 4138 4139 0
489 -4140 0
489 -4136 0
489 -4137 0
489 -4138 0
489 -4139 0
4141 -4129 -3817 0
-4141 4129 0
-4141 3817 0
4142 -4130 -3820 0
-4142 4130 0
-4142 3820 0
4143 -4130 -3817 0
-4143 4130 0
-4143 3817 0
4144 -4129 -3820 -3811 0
-4144 4129 0
-4144 3820 0
-4144 3811 0
-487 4145 4141 4142 4143 4144 0
487 -4145 0
487 -4141 0
487 -4142 0
487 -4143 0
487 -4144 0
4146 -3819 -3817 0
-4146 3819 0
-4146 3817 0
4147 -3809 -3817 0
-4147 3809 0
-4147 3817 0
4148 -3809 -3820 0
-4148 3809 0
-4148 3820 0
4149 -3819 -3820 -3811 0
-4149 3819 0
-4149 3820 0
-4149 3811 0
-490 3816 4146 4147 4148 4149 0
490 -3816 0
490 -4146 0
490 -4147 0
490 -4148 0
490 -4149 0
4150 -3822 -3809 0
-4150 3822 0
-4150 3809 0
4151 -3814 -3819 0
-4151 3814 0
-4151 3819 0
4152 -3814 -3809 0
-4152 3814 0
-4152 3809 0
4153 -3822 -3819 -3811 0
-4153 3822 0
-4153 3819 0
-4153 3811 0
-488 3813 4150 4151 4152 4153 0
488 -3813 0
488 -4150 0
488 -4151 0
488 -4152 0
488 -4153 0
4154 -3822 -3814 0
-4154 3822 0
-4154 3814 0
4155 -3814 -3814 0
-4155 3814 0
-4155 3814 0
4156 -3814 -3822 0
-4156 3814 0
-4156 3822 0
4157 -3822 -3822 -3811 0
-4157 3822 0
-4157 3822 0
-4157 3811 0
-4158 3825 4154 4155 4156 4157 0
4158 -3825 0
4158 -4154 0
4158 -4155 0
4158 -4156 0
4158 -4157 0
4159 -1721 -4160 0
-4159 1721 0
-4159 4160 0
4161 -4160 -4160 0
-4161 4160 0
-4161 4160 0
4162 -4160 -1721 0
-4162 4160 0
-4162 1721 0
4163 -1721 -1721 -4164 0
-4163 1721 0
-4163 1721 0
-4163 4164 0
-4165 1723 4159 4161 4162 4163 0
4165 -1723 0
4165 -4159 0
4165 -4161 0
4165 -4162 0
4165 -4163 0
4166 -1721 -4167 0
-4166 1721 0
-4166 4167 0
4168 -4160 -4167 0
-4168 4160 0
-4168 4167 0
4169 -4160 -1725 0
-4169 4160 0
-4169 1725 0
4170 -1721 -1725 -4164 0
-4170 1721 0
-4170 1725 0
-4170 4164 0
-74 1726 4166 4168 4169 4170 0
74 -1726 0
74 -4166 0
74 -4168 0
74 -4169 0
74 -4170 0
4171 -1721 -4172 0
-4171 1721 0
-4171 4172 0
4173 -4160 -1728 0
-4173 4160 0
-4173 1728 0
4174 -4160 -4172 0
-4174 4160 0
-4174 4172 0
4175 -1721 -1728 -4164 0
-4175 1721 0
-4175 1728 0
-4175 4164 0
-72 1729 4171 4173 4174 4175 0
72 -1729 0
72 -4171 0
72 -4173 0
72 -4174 0
72 -4175 0
4176 -1731 -4172 0
-4176 1731 0
-4176 4172 0
4177 -4178 -4172 0
-4177 4178 0
-4177 4172 0
4179 -4178 -1728 0
-4179 4178 0
-4179 1728 0
4180 -1731 -1728 -4164 0
-4180 1731 0
-4180 1728 0
-4180 4164 0
-75 1732 4176 4177 4179 4180 0
75 -1732 0
75 -4176 0
75 -4177 0
75 -4179 0
75 -4180 0
4181 -1725 -4178 0
-4181 1725 0
-4181 4178 0
4182 -4167 -1731 0
-4182 4167 0
-4182 1731 0
4183 -4167 -4178 0
-4183 4167 0
-4183 4178 0
4184 -1725 -1731 -4164 0
-4184 1725 0
-4184 1731 0
-4184 4164 0
-73 1734 4181 4182 4183 4184 0
73 -1734 0
73 -4181 0
73 -4182 0
73 -4183 0
73 -4184 0
4185 -1725 -4167 0
-4185 1725 0
-4185 4167 0
4186 -4167 -4167 0
-4186 4167 0
-4186 4167 0
4187 -4167 -1725 0
-4187 4167 0
-4187 1725 0
4188 -1725 -1725 -4164 0
-4188 1725 0
-4188 1725 0
-4188 4164 0
-4189 1737 4185 4186 4187 4188 0
4189 -1737 0
4189 -4185 0
4189 -4186 0
4189 -4187 0
4189 -4188 0
4190 -2841 -2841 0
-4190 2841 0
-4190 2841 0
-4191 2848 4190 0
4191 -2848 0
4191 -4190 0
4192 -2841 -2853 0
-4192 2841 0
-4192 2853 0
-1109 2855 4192 0
1109 -2855 0
1109 -4192 0
4193 -2841 -2859 0
-4193 2841 0
-4193 2859 0
-1107 2862 4193 0
1107 -2862 0
1107 -4193 0
4194 -2864 -2859 0
-4194 2864 0
-4194 2859 0
-1110 2869 4194 0
1110 -2869 0
1110 -4194 0
4195 -2853 -2864 0
-4195 2853 0
-4195 2864 0
-1108 2874 4195 0
1108 -2874 0
1108 -4195 0
4196 -2853 -2853 0
-4196 2853 0
-4196 2853 0
-4197 2880 4196 0
4197 -2880 0
4197 -4196 0
4198 -2380 -2734 0
-4198 2380 0
-4198 2734 0
2735 -2734 -2734 0
-2735 2734 0
-2735 2734 0
4199 -2734 -2380 0
-4199 2734 0
-4199 2380 0
4200 -2380 -2380 -1510 0
-4200 2380 0
-4200 2380 0
-4200 1510 0
-4201 2382 4198 2735 4199 4200 0
4201 -2382 0
4201 -4198 0
4201 -2735 0
4201 -4199 0
4201 -4200 0
4202 -2380 -1513 0
-4202 2380 0
-4202 1513 0
4203 -2734 -1513 0
-4203 2734 0
-4203 1513 0
4204 -2734 -1521 0
-4204 2734 0
-4204 1521 0
4205 -2380 -1521 -1510 0
-4205 2380 0
-4205 1521 0
-4205 1510 0
-209 2384 4202 4203 4204 4205 0
209 -2384 0
209 -4202 0
209 -4203 0
209 -4204 0
209 -4205 0
4206 -2380 -1516 0
-4206 2380 0
-4206 1516 0
4207 -2734 -1519 0
-4207 2734 0
-4207 1519 0
4208 -2734 -1516 0
-4208 2734 0
-4208 1516 0
4209 -2380 -1519 -1510 0
-4209 2380 0
-4209 1519 0
-4209 1510 0
-207 2386 4206 4207 4208 4209 0
207 -2386 0
207 -4206 0
207 -4207 0
207 -4208 0
207 -4209 0
4210 -1518 -1516 0
-4210 1518 0
-4210 1516 0
4211 -1508 -1516 0
-4211 1508 0
-4211 1516 0
4212 -1508 -1519 0
-4212 1508 0
-4212 1519 0
4213 -1518 -1519 -1510 0
-4213 1518 0
-4213 1519 0
-4213 1510 0
-210 1515 4210 4211 4212 4213 0
210 -1515 0
210 -4210 0
210 -4211 0
210 -4212 0
210 -4213 0
4214 -1521 -1508 0
-4214 1521 0
-4214 1508 0
4215 -1513 -1518 0
-4215 1513 0
-4215 1518 0
4216 -1513 -1508 0
-4216 1513 0
-4216 1508 0
4217 -1521 -1518 -1510 0
-4217 1521 0
-4217 1518 0
-4217 1510 0
-208 1512 4214 4215 4216 4217 0
208 -1512 0
208 -4214 0
208 -4215 0
208 -4216 0
208 -4217 0
4218 -1521 -1513 0
-4218 1521 0
-4218 1513 0
4219 -1513 -1513 0
-4219 1513 0
-4219 1513 0
4220 -1513 -1521 0
-4220 1513 0
-4220 1521 0
4221 -1521 -1521 -1510 0
-4221 1521 0
-4221 1521 0
-4221 1510 0
-4222 1524 4218 4219 4220 4221 0
4222 -1524 0
4222 -4218 0
4222 -4219 0
4222 -4220 0
4222 -4221 0
4223 -4224 -4225 0
-4223 4224 0
-4223 4225 0
4226 -4225 -4225 0
-4226 4225 0
-4226 4225 0
4227 -4225 -4224 0
-4227 4225 0
-4227 4224 0
4228 -4224 -4224 -3370 0
-4228 4224 0
-4228 4224 0
-4228 3370 0
-4229 4230 4223 4226 4227 4228 0
4229 -4230 0
4229 -4223 0
4229 -4226 0
4229 -4227 0
4229 -4228 0
4231 -4224 -3373 0
-4231 4224 0
-4231 3373 0
4232 -4225 -3373 0
-4232 4225 0
-4232 3373 0
4233 -4225 -3381 0
-4233 4225 0
-4233 3381 0
4234 -4224 -3381 -3370 0
-4234 4224 0
-4234 3381 0
-4234 3370 0
-244 4235 4231 4232 4233 4234 0
244 -4235 0
244 -4231 0
244 -4232 0
244 -4233 0
244 -4234 0
4236 -4224 -3376 0
-4236 4224 0
-4236 3376 0
4237 -4225 -3379 0
-4237 4225 0
-4237 3379 0
4238 -4225 -3376 0
-4238 4225 0
-4238 3376 0
4239 -4224 -3379 -3370 0
-4239 4224 0
-4239 3379 0
-4239 3370 0
-242 4240 4236 4237 4238 4239 0
242 -4240 0
242 -4236 0
242 -4237 0
242 -4238 0
242 -4239 0
4241 -3378 -3376 0
-4241 3378 0
-4241 3376 0
4242 -3368 -3376 0
-4242 3368 0
-4242 3376 0
4243 -3368 -3379 0
-4243 3368 0
-4243 3379 0
4244 -3378 -3379 -3370 0
-4244 3378 0
-4244 3379 0
-4244 3370 0
-245 3375 4241 4242 4243 4244 0
245 -3375 0
245 -4241 0
245 -4242 0
245 -4243 0
245 -4244 0
4245 -3381 -3368 0
-4245 3381 0
-4245 3368 0
4246 -3373 -3378 0
-4246 3373 0
-4246 3378 0
4247 -3373 -3368 0
-4247 3373 0
-4247 3368 0
4248 -3381 -3378 -3370 0
-4248 3381 0
-4248 3378 0
-4248 3370 0
-243 3372 4245 4246 4247 4248 0
243 -3372 0
243 -4245 0
243 -4246 0
243 -4247 0
243 -4248 0
4249 -3381 -3373 0
-4249 3381 0
-4249 3373 0
4250 -3373 -3373 0
-4250 3373 0
-4250 3373 0
4251 -3373 -3381 0
-4251 3373 0
-4251 3381 0
4252 -3381 -3381 -3370 0
-4252 3381 0
-4252 3381 0
-4252 3370 0
-4253 3384 4249 4250 4251 4252 0
4253 -3384 0
4253 -4249 0
4253 -4250 0
4253 -4251 0
4253 -4252 0
4254 -4255 -4255 0
-4254 4255 0
-4254 4255 0
-4256 4257 4254 0
4256 -4257 0
4256 -4254 0
4258 -4255 -4259 0
-4258 4255 0
-4258 4259 0
-1179 4260 4258 0
1179 -4260 0
1179 -4258 0
4261 -4255 -4262 0
-4261 4255 0
-4261 4262 0
-1177 4263 4261 0
1177 -4263 0
1177 -4261 0
4264 -4265 -4262 0
-4264 4265 0
-4264 4262 0
-1180 4266 4264 0
1180 -4266 0
1180 -4264 0
4267 -4259 -4265 0
-4267 4259 0
-4267 4265 0
-1178 4268 4267 0
1178 -4268 0
1178 -4267 0
4269 -4259 -4259 0
-4269 4259 0
-4269 4259 0
-4270 4271 4269 0
4270 -4271 0
4270 -4269 0
4272 -2677 -2677 0
-4272 2677 0
-4272 2677 0
-4273 2657 4272 0
4273 -2657 0
4273 -4272 0
4274 -2677 -2685 0
-4274 2677 0
-4274 2685 0
-219 2661 4274 0
219 -2661 0
219 -4274 0
4275 -2677 -2680 0
-4275 2677 0
-4275 2680 0
-217 2668 4275 0
217 -2668 0
217 -4275 0
4276 -2675 -2680 0
-4276 2675 0
-4276 2680 0
-220 2670 4276 0
220 -2670 0
220 -4276 0
4277 -2685 -2675 0
-4277 2685 0
-4277 2675 0
-218 2664 4277 0
218 -2664 0
218 -4277 0
4278 -2685 -2685 0
-4278 2685 0
-4278 2685 0
-4279 2691 4278 0
4279 -2691 0
4279 -4278 0
4280 -4281 -4282 0
-4280 4281 0
-4280 4282 0
4283 -4282 -4282 0
-4283 4282 0
-4283 4282 0
4284 -4282 -4281 0
-4284 4282 0
-4284 4281 0
4285 -4281 -4281 -4286 0
-4285 4281 0
-4285 4281 0
-4285 4286 0
-4287 4288 4280 4283 4284 4285 0
4287 -4288 0
4287 -4280 0
4287 -4283 0
4287 -4284 0
4287 -4285 0
4289 -4281 -4290 0
-4289 4281 0
-4289 4290 0
4291 -4282 -4290 0
-4291 4282 0
-4291 4290 0
4292 -4282 -4293 0
-4292 4282 0
-4292 4293 0
4294 -4281 -4293 -4286 0
-4294 4281 0
-4294 4293 0
-4294 4286 0
-704 4295 4289 4291 4292 4294 0
704 -4295 0
704 -4289 0
704 -4291 0
704 -4292 0
704 -4294 0
4296 -4281 -4297 0
-4296 4281 0
-4296 4297 0
4298 -4282 -4299 0
-4298 4282 0
-4298 4299 0
4300 -4282 -4297 0
-4300 4282 0
-4300 4297 0
4301 -4281 -4299 -4286 0
-4301 4281 0
-4301 4299 0
-4301 4286 0
-702 4302 4296 4298 4300 4301 0
702 -4302 0
702 -4296 0
702 -4298 0
702 -4300 0
702 -4301 0
4303 -4304 -4297 0
-4303 4304 0
-4303 4297 0
4305 -4306 -4297 0
-4305 4306 0
-4305 4297 0
4307 -4306 -4299 0
-4307 4306 0
-4307 4299 0
4308 -4304 -4299 -4286 0
-4308 4304 0
-4308 4299 0
-4308 4286 0
-705 4309 4303 4305 4307 4308 0
705 -4309 0
705 -4303 0
705 -4305 0
705 -4307 0
705 -4308 0
4310 -4293 -4306 0
-4310 4293 0
-4310 4306 0
4311 -4290 -4304 0
-4311 4290 0
-4311 4304 0
4312 -4290 -4306 0
-4312 4290 0
-4312 4306 0
4313 -4293 -4304 -4286 0
-4313 4293 0
-4313 4304 0
-4313 4286 0
-703 4314 4310 4311 4312 4313 0
703 -4314 0
703 -4310 0
703 -4311 0
703 -4312 0
703 -4313 0
4315 -4293 -4290 0
-4315 4293 0
-4315 4290 0
4316 -4290 -4290 0
-4316 4290 0
-4316 4290 0
4317 -4290 -4293 0
-4317 4290 0
-4317 4293 0
4318 -4293 -4293 -4286 0
-4318 4293 0
-4318 4293 0
-4318 4286 0
-4319 4320 4315 4316 4317 4318 0
4319 -4320 0
4319 -4315 0
4319 -4316 0
4319 -4317 0
4319 -4318 0
4321 -3827 -4322 0
-4321 3827 0
-4321 4322 0
4323 -4322 -4322 0
-4323 4322 0
-4323 4322 0
4324 -4322 -3827 0
-4324 4322 0
-4324 3827 0
4325 -3827 -3827 -3100 0
-4325 3827 0
-4325 3827 0
-4325 3100 0
-4326 3829 4321 4323 4324 4325 0
4326 -3829 0
4326 -4321 0
4326 -4323 0
4326 -4324 0
4326 -4325 0
4327 -3827 -3103 0
-4327 3827 0
-4327 3103 0
4328 -4322 -3103 0
-4328 4322 0
-4328 3103 0
4329 -4322 -3111 0
-4329 4322 0
-4329 3111 0
4330 -3827 -3111 -3100 0
-4330 3827 0
-4330 3111 0
-4330 3100 0
-479 3831 4327 4328 4329 4330 0
479 -3831 0
479 -4327 0
479 -4328 0
479 -4329 0
479 -4330 0
4331 -3827 -3106 0
-4331 3827 0
-4331 3106 0
4332 -4322 -3109 0
-4332 4322 0
-4332 3109 0
4333 -4322 -3106 0
-4333 4322 0
-4333 3106 0
4334 -3827 -3109 -3100 0
-4334 3827 0
-4334 3109 0
-4334 3100 0
-477 3833 4331 4332 4333 4334 0
477 -3833 0
477 -4331 0
477 -4332 0
477 -4333 0
477 -4334 0
4335 -3108 -3106 0
-4335 3108 0
-4335 3106 0
4336 -3098 -3106 0
-4336 3098 0
-4336 3106 0
4337 -3098 -3109 0
-4337 3098 0
-4337 3109 0
4338 -3108 -3109 -3100 0
-4338 3108 0
-4338 3109 0
-4338 3100 0
-480 3105 4335 4336 4337 4338 0
480 -3105 0
480 -4335 0
480 -4336 0
480 -4337 0
480 -4338 0
4339 -3111 -3098 0
-4339 3111 0
-4339 3098 0
4340 -3103 -3108 0
-4340 3103 0
-4340 3108 0
4341 -3103 -3098 0
-4341 3103 0
-4341 3098 0
4342 -3111 -3108 -3100 0
-4342 3111 0
-4342 3108 0
-4342 3100 0
-478 3102 4339 4340 4341 4342 0
478 -3102 0
478 -4339 0
478 -4340 0
478 -4341 0
478 -4342 0
4343 -3111 -3103 0
-4343 3111 0
-4343 3103 0
4344 -3103 -3103 0
-4344 3103 0
-4344 3103 0
4345 -3103 -3111 0
-4345 3103 0
-4345 3111 0
4346 -3111 -3111 -3100 0
-4346 3111 0
-4346 3111 0
-4346 3100 0
-4347 3114 4343 4344 4345 4346 0
4347 -3114 0
4347 -4343 0
4347 -4344 0
4347 -4345 0
4347 -4346 0
4348 -4349 -4349 0
-4348 4349 0
-4348 4349 0
-4350 4351 4348 0
4350 -4351 0
4350 -4348 0
4352 -4349 -4353 0
-4352 4349 0
-4352 4353 0
-1034 4354 4352 0
1034 -4354 0
1034 -4352 0
4355 -4349 -4356 0
-4355 4349 0
-4355 4356 0
-1032 4357 4355 0
1032 -4357 0
1032 -4355 0
4358 -4359 -4356 0
-4358 4359 0
-4358 4356 0
-1035 4360 4358 0
1035 -4360 0
1035 -4358 0
4361 -4353 -4359 0
-4361 4353 0
-4361 4359 0
-1033 4362 4361 0
1033 -4362 0
1033 -4361 0
4363 -4353 -4353 0
-4363 4353 0
-4363 4353 0
-4364 4365 4363 0
4364 -4365 0
4364 -4363 0
4366 -2882 -2882 0
-4366 2882 0
-4366 2882 0
-4367 2889 4366 0
4367 -2889 0
4367 -4366 0
4368 -2882 -2894 0
-4368 2882 0
-4368 2894 0
-1019 2896 4368 0
1019 -2896 0
1019 -4368 0
4369 -2882 -2900 0
-4369 2882 0
-4369 2900 0
-1017 2903 4369 0
1017 -2903 0
1017 -4369 0
4370 -2905 -2900 0
-4370 2905 0
-4370 2900 0
-1020 2910 4370 0
1020 -2910 0
1020 -4370 0
4371 -2894 -2905 0
-4371 2894 0
-4371 2905 0
-1018 2915 4371 0
1018 -2915 0
1018 -4371 0
4372 -2894 -2894 0
-4372 2894 0
-4372 2894 0
-4373 2921 4372 0
4373 -2921 0
4373 -4372 0
4374 -4375 -4375 0
-4374 4375 0
-4374 4375 0
-4376 4377 4374 0
4376 -4377 0
4376 -4374 0
4378 -4375 -4379 0
-4378 4375 0
-4378 4379 0
-769 4380 4378 0
769 -4380 0
769 -4378 0
4381 -4375 -4382 0
-4381 4375 0
-4381 4382 0
-767 4383 4381 0
767 -4383 0
767 -4381 0
4384 -4385 -4382 0
-4384 4385 0
-4384 4382 0
-770 4386 4384 0
770 -4386 0
770 -4384 0
4387 -4379 -4385 0
-4387 4379 0
-4387 4385 0
-768 4388 4387 0
768 -4388 0
768 -4387 0
4389 -4379 -4379 0
-4389 4379 0
-4389 4379 0
-4390 4391 4389 0
4390 -4391 0
4390 -4389 0
4392 -3634 -3634 0
-4392 3634 0
-4392 3634 0
-4393 3640 4392 0
4393 -3640 0
4393 -4392 0
4394 -3634 -1254 0
-4394 3634 0
-4394 1254 0
-1169 3645 4394 0
1169 -3645 0
1169 -4394 0
4395 -3634 -1252 0
-4395 3634 0
-4395 1252 0
-1167 3650 4395 0
1167 -3650 0
1167 -4395 0
4396 -1251 -1252 0
-4396 1251 0
-4396 1252 0
-1170 1248 4396 0
1170 -1248 0
1170 -4396 0
4397 -1254 -1251 0
-4397 1254 0
-4397 1251 0
-1168 1245 4397 0
1168 -1245 0
1168 -4397 0
4398 -1254 -1254 0
-4398 1254 0
-4398 1254 0
-4399 1257 4398 0
4399 -1257 0
4399 -4398 0
4400 -4349 -4401 0
-4400 4349 0
-4400 4401 0
4402 -4401 -4401 0
-4402 4401 0
-4402 4401 0
4403 -4401 -4349 0
-4403 4401 0
-4403 4349 0
4404 -4349 -4349 -4405 0
-4404 4349 0
-4404 4349 0
-4404 4405 0
-4406 4351 4400 4402 4403 4404 0
4406 -4351 0
4406 -4400 0
4406 -4402 0
4406 -4403 0
4406 -4404 0
4407 -4349 -4408 0
-4407 4349 0
-4407 4408 0
4409 -4401 -4408 0
-4409 4401 0
-4409 4408 0
4410 -4401 -4353 0
-4410 4401 0
-4410 4353 0
4411 -4349 -4353 -4405 0
-4411 4349 0
-4411 4353 0
-4411 4405 0
-699 4354 4407 4409 4410 4411 0
699 -4354 0
699 -4407 0
699 -4409 0
699 -4410 0
699 -4411 0
4412 -4349 -4413 0
-4412 4349 0
-4412 4413 0
4414 -4401 -4356 0
-4414 4401 0
-4414 4356 0
4415 -4401 -4413 0
-4415 4401 0
-4415 4413 0
4416 -4349 -4356 -4405 0
-4416 4349 0
-4416 4356 0
-4416 4405 0
-697 4357 4412 4414 4415 4416 0
697 -4357 0
697 -4412 0
697 -4414 0
697 -4415 0
697 -4416 0
4417 -4359 -4413 0
-4417 4359 0
-4417 4413 0
4418 -4419 -4413 0
-4418 4419 0
-4418 4413 0
4420 -4419 -4356 0
-4420 4419 0
-4420 4356 0
4421 -4359 -4356 -4405 0
-4421 4359 0
-4421 4356 0
-4421 4405 0
-700 4360 4417 4418 4420 4421 0
700 -4360 0
700 -4417 0
700 -4418 0
700 -4420 0
700 -4421 0
4422 -4353 -4419 0
-4422 4353 0
-4422 4419 0
4423 -4408 -4359 0
-4423 4408 0
-4423 4359 0
4424 -4408 -4419 0
-4424 4408 0
-4424 4419 0
4425 -4353 -4359 -4405 0
-4425 4353 0
-4425 4359 0
-4425 4405 0
-698 4362 4422 4423 4424 4425 0
698 -4362 0
698 -4422 0
698 -4423 0
698 -4424 0
698 -4425 0
4426 -4353 -4408 0
-4426 4353 0
-4426 4408 0
4427 -4408 -4408 0
-4427 4408 0
-4427 4408 0
4428 -4408 -4353 0
-4428 4408 0
-4428 4353 0
4429 -4353 -4353 -4405 0
-4429 4353 0
-4429 4353 0
-4429 4405 0
-4430 4365 4426 4427 4428 4429 0
4430 -4365 0
4430 -4426 0
4430 -4427 0
4430 -4428 0
4430 -4429 0
4431 -4432 -4433 0
-4431 4432 0
-4431 4433 0
4434 -4433 -4433 0
-4434 4433 0
-4434 4433 0
4435 -4433 -4432 0
-4435 4433 0
-4435 4432 0
4436 -4432 -4432 -4437 0
-4436 4432 0
-4436 4432 0
-4436 4437 0
-4438 4439 4431 4434 4435 4436 0
4438 -4439 0
4438 -4431 0
4438 -4434 0
4438 -4435 0
4438 -4436 0
4440 -4432 -4441 0
-4440 4432 0
-4440 4441 0
4442 -4433 -4441 0
-4442 4433 0
-4442 4441 0
4443 -4433 -4444 0
-4443 4433 0
-4443 4444 0
4445 -4432 -4444 -4437 0
-4445 4432 0
-4445 4444 0
-4445 4437 0
-269 4446 4440 4442 4443 4445 0
269 -4446 0
269 -4440 0
269 -4442 0
269 -4443 0
269 -4445 0
4447 -4432 -4448 0
-4447 4432 0
-4447 4448 0
4449 -4433 -4450 0
-4449 4433 0
-4449 4450 0
4451 -4433 -4448 0
-4451 4433 0
-4451 4448 0
4452 -4432 -4450 -4437 0
-4452 4432 0
-4452 4450 0
-4452 4437 0
-267 4453 4447 4449 4451 4452 0
267 -4453 0
267 -4447 0
267 -4449 0
267 -4451 0
267 -4452 0
4454 -4455 -4448 0
-4454 4455 0
-4454 4448 0
4456 -4457 -4448 0
-4456 4457 0
-4456 4448 0
4458 -4457 -4450 0
-4458 4457 0
-4458 4450 0
4459 -4455 -4450 -4437 0
-4459 4455 0
-4459 4450 0
-4459 4437 0
-270 4460 4454 4456 4458 4459 0
270 -4460 0
270 -4454 0
270 -4456 0
270 -4458 0
270 -4459 0
4461 -4444 -4457 0
-4461 4444 0
-4461 4457 0
4462 -4441 -4455 0
-4462 4441 0
-4462 4455 0
4463 -4441 -4457 0
-4463 4441 0
-4463 4457 0
4464 -4444 -4455 -4437 0
-4464 4444 0
-4464 4455 0
-4464 4437 0
-268 4465 4461 4462 4463 4464 0
268 -4465 0
268 -4461 0
268 -4462 0
268 -4463 0
268 -4464 0
4466 -4444 -4441 0
-4466 4444 0
-4466 4441 0
4467 -4441 -4441 0
-4467 4441 0
-4467 4441 0
4468 -4441 -4444 0
-4468 4441 0
-4468 4444 0
4469 -4444 -4444 -4437 0
-4469 4444 0
-4469 4444 0
-4469 4437 0
-4470 4471 4466 4467 4468 4469 0
4470 -4471 0
4470 -4466 0
4470 -4467 0
4470 -4468 0
4470 -4469 0
4472 -1870 -1870 0
-4472 1870 0
-4472 1870 0
-4473 1873 4472 0
4473 -1873 0
4473 -4472 0
4474 -1870 -2802 0
-4474 1870 0
-4474 2802 0
-929 2784 4474 0
929 -2784 0
929 -4474 0
4475 -1870 -1867 0
-4475 1870 0
-4475 1867 0
-927 1861 4475 0
927 -1861 0
927 -4475 0
4476 -1868 -1867 0
-4476 1868 0
-4476 1867 0
-930 1864 4476 0
930 -1864 0
930 -4476 0
4477 -2802 -1868 0
-4477 2802 0
-4477 1868 0
-928 2787 4477 0
928 -2787 0
928 -4477 0
4478 -2802 -2802 0
-4478 2802 0
-4478 2802 0
-4479 2808 4478 0
4479 -2808 0
4479 -4478 0
4480 -3055 -4481 0
-4480 3055 0
-4480 4481 0
4482 -4481 -4481 0
-4482 4481 0
-4482 4481 0
4483 -4481 -3055 0
-4483 4481 0
-4483 3055 0
4484 -3055 -3055 -4485 0
-4484 3055 0
-4484 3055 0
-4484 4485 0
-4486 3057 4480 4482 4483 4484 0
4486 -3057 0
4486 -4480 0
4486 -4482 0
4486 -4483 0
4486 -4484 0
4487 -3055 -4488 0
-4487 3055 0
-4487 4488 0
4489 -4481 -4488 0
-4489 4481 0
-4489 4488 0
4490 -4481 -3059 0
-4490 4481 0
-4490 3059 0
4491 -3055 -3059 -4485 0
-4491 3055 0
-4491 3059 0
-4491 4485 0
-819 3060 4487 4489 4490 4491 0
819 -3060 0
819 -4487 0
819 -4489 0
819 -4490 0
819 -4491 0
4492 -3055 -4493 0
-4492 3055 0
-4492 4493 0
4494 -4481 -3062 0
-4494 4481 0
-4494 3062 0
4495 -4481 -4493 0
-4495 4481 0
-4495 4493 0
4496 -3055 -3062 -4485 0
-4496 3055 0
-4496 3062 0
-4496 4485 0
-817 3063 4492 4494 4495 4496 0
817 -3063 0
817 -4492 0
817 -4494 0
817 -4495 0
817 -4496 0
4497 -3065 -4493 0
-4497 3065 0
-4497 4493 0
4498 -4499 -4493 0
-4498 4499 0
-4498 4493 0
4500 -4499 -3062 0
-4500 4499 0
-4500 3062 0
4501 -3065 -3062 -4485 0
-4501 3065 0
-4501 3062 0
-4501 4485 0
-820 3066 4497 4498 4500 4501 0
820 -3066 0
820 -4497 0
820 -4498 0
820 -4500 0
820 -4501 0
4502 -3059 -4499 0
-4502 3059 0
-4502 4499 0
4503 -4488 -3065 0
-4503 4488 0
-4503 3065 0
4504 -4488 -4499 0
-4504 4488 0
-4504 4499 0
4505 -3059 -3065 -4485 0
-4505 3059 0
-4505 3065 0
-4505 4485 0
-818 3068 4502 4503 4504 4505 0
818 -3068 0
818 -4502 0
818 -4503 0
818 -4504 0
818 -4505 0
4506 -3059 -4488 0
-4506 3059 0
-4506 4488 0
4507 -4488 -4488 0
-4507 4488 0
-4507 4488 0
4508 -4488 -3059 0
-4508 4488 0
-4508 3059 0
4509 -3059 -3059 -4485 0
-4509 3059 0
-4509 3059 0
-4509 4485 0
-4510 3071 4506 4507 4508 4509 0
4510 -3071 0
4510 -4506 0
4510 -4507 0
4510 -4508 0
4510 -4509 0
4511 -1841 -1817 0
-4511 1841 0
-4511 1817 0
1818 -1817 -1817 0
-1818 1817 0
-1818 1817 0
4512 -1817 -1841 0
-4512 1817 0
-4512 1841 0
4513 -1841 -1841 -1823 0
-4513 1841 0
-4513 1841 0
-4513 1823 0
-4514 1821 4511 1818 4512 4513 0
4514 -1821 0
4514 -4511 0
4514 -1818 0
4514 -4512 0
4514 -4513 0
4515 -1841 -1830 0
-4515 1841 0
-4515 1830 0
4516 -1817 -1830 0
-4516 1817 0
-4516 1830 0
4517 -1817 -1849 0
-4517 1817 0
-4517 1849 0
4518 -1841 -1849 -1823 0
-4518 1841 0
-4518 1849 0
-4518 1823 0
-434 1825 4515 4516 4517 4518 0
434 -1825 0
434 -4515 0
434 -4516 0
434 -4517 0
434 -4518 0
4519 -1841 -1837 0
-4519 1841 0
-4519 1837 0
4520 -1817 -1844 0
-4520 1817 0
-4520 1844 0
4521 -1817 -1837 0
-4521 1817 0
-4521 1837 0
4522 -1841 -1844 -1823 0
-4522 1841 0
-4522 1844 0
-4522 1823 0
-432 1832 4519 4520 4521 4522 0
432 -1832 0
432 -4519 0
432 -4520 0
432 -4521 0
432 -4522 0
4523 -1839 -1837 0
-4523 1839 0
-4523 1837 0
4524 -1816 -1837 0
-4524 1816 0
-4524 1837 0
4525 -1816 -1844 0
-4525 1816 0
-4525 1844 0
4526 -1839 -1844 -1823 0
-4526 1839 0
-4526 1844 0
-4526 1823 0
-435 1834 4523 4524 4525 4526 0
435 -1834 0
435 -4523 0
435 -4524 0
435 -4525 0
435 -4526 0
4527 -1849 -1816 0
-4527 1849 0
-4527 1816 0
4528 -1830 -1839 0
-4528 1830 0
-4528 1839 0
4529 -1830 -1816 0
-4529 1830 0
-4529 1816 0
4530 -1849 -1839 -1823 0
-4530 1849 0
-4530 1839 0
-4530 1823 0
-433 1828 4527 4528 4529 4530 0
433 -1828 0
433 -4527 0
433 -4528 0
433 -4529 0
433 -4530 0
4531 -1849 -1830 0
-4531 1849 0
-4531 1830 0
4532 -1830 -1830 0
-4532 1830 0
-4532 1830 0
4533 -1830 -1849 0
-4533 1830 0
-4533 1849 0
4534 -1849 -1849 -1823 0
-4534 1849 0
-4534 1849 0
-4534 1823 0
-4535 1855 4531 4532 4533 4534 0
4535 -1855 0
4535 -4531 0
4535 -4532 0
4535 -4533 0
4535 -4534 0
4536 -1651 -1651 0
-4536 1651 0
-4536 1651 0
-4537 1631 4536 0
4537 -1631 0
4537 -4536 0
4538 -1651 -1659 0
-4538 1651 0
-4538 1659 0
-1164 1635 4538 0
1164 -1635 0
1164 -4538 0
4539 -1651 -1654 0
-4539 1651 0
-4539 1654 0
-1162 1642 4539 0
1162 -1642 0
1162 -4539 0
4540 -1649 -1654 0
-4540 1649 0
-4540 1654 0
-1165 1644 4540 0
1165 -1644 0
1165 -4540 0
4541 -1659 -1649 0
-4541 1659 0
-4541 1649 0
-1163 1638 4541 0
1163 -1638 0
1163 -4541 0
4542 -1659 -1659 0
-4542 1659 0
-4542 1659 0
-4543 1665 4542 0
4543 -1665 0
4543 -4542 0
4544 -2017 -4545 0
-4544 2017 0
-4544 4545 0
4546 -4545 -4545 0
-4546 4545 0
-4546 4545 0
4547 -4545 -2017 0
-4547 4545 0
-4547 2017 0
4548 -2017 -2017 -4549 0
-4548 2017 0
-4548 2017 0
-4548 4549 0
-4550 2019 4544 4546 4547 4548 0
4550 -2019 0
4550 -4544 0
4550 -4546 0
4550 -4547 0
4550 -4548 0
4551 -2017 -4552 0
-4551 2017 0
-4551 4552 0
4553 -4545 -4552 0
-4553 4545 0
-4553 4552 0
4554 -4545 -2021 0
-4554 4545 0
-4554 2021 0
4555 -2017 -2021 -4549 0
-4555 2017 0
-4555 2021 0
-4555 4549 0
-64 2022 4551 4553 4554 4555 0
64 -2022 0
64 -4551 0
64 -4553 0
64 -4554 0
64 -4555 0
4556 -2017 -4557 0
-4556 2017 0
-4556 4557 0
4558 -4545 -2024 0
-4558 4545 0
-4558 2024 0
4559 -4545 -4557 0
-4559 4545 0
-4559 4557 0
4560 -2017 -2024 -4549 0
-4560 2017 0
-4560 2024 0
-4560 4549 0
-62 2025 4556 4558 4559 4560 0
62 -2025 0
62 -4556 0
62 -4558 0
62 -4559 0
62 -4560 0
4561 -2027 -4557 0
-4561 2027 0
-4561 4557 0
4562 -4563 -4557 0
-4562 4563 0
-4562 4557 0
4564 -4563 -2024 0
-4564 4563 0
-4564 2024 0
4565 -2027 -2024 -4549 0
-4565 2027 0
-4565 2024 0
-4565 4549 0
-65 2028 4561 4562 4564 4565 0
65 -2028 0
65 -4561 0
65 -4562 0
65 -4564 0
65 -4565 0
4566 -2021 -4563 0
-4566 2021 0
-4566 4563 0
4567 -4552 -2027 0
-4567 4552 0
-4567 2027 0
4568 -4552 -4563 0
-4568 4552 0
-4568 4563 0
4569 -2021 -2027 -4549 0
-4569 2021 0
-4569 2027 0
-4569 4549 0
-63 2030 4566 4567 4568 4569 0
63 -2030 0
63 -4566 0
63 -4567 0
63 -4568 0
63 -4569 0
4570 -2021 -4552 0
-4570 2021 0
-4570 4552 0
4571 -4552 -4552 0
-4571 4552 0
-4571 4552 0
4572 -4552 -2021 0
-4572 4552 0
-4572 2021 0
4573 -2021 -2021 -4549 0
-4573 2021 0
-4573 2021 0
-4573 4549 0
-4574 2033 4570 4571 4572 4573 0
4574 -2033 0
4574 -4570 0
4574 -4571 0
4574 -4572 0
4574 -4573 0
4575 -3356 -4576 0
-4575 3356 0
-4575 4576 0
4577 -4576 -4576 0
-4577 4576 0
-4577 4576 0
4578 -4576 -3356 0
-4578 4576 0
-4578 3356 0
4579 -3356 -3356 -2763 0
-4579 3356 0
-4579 3356 0
-4579 2763 0
-4580 3358 4575 4577 4578 4579 0
4580 -3358 0
4580 -4575 0
4580 -4577 0
4580 -4578 0
4580 -4579 0
4581 -3356 -2766 0
-4581 3356 0
-4581 2766 0
4582 -4576 -2766 0
-4582 4576 0
-4582 2766 0
4583 -4576 -2774 0
-4583 4576 0
-4583 2774 0
4584 -3356 -2774 -2763 0
-4584 3356 0
-4584 2774 0
-4584 2763 0
-884 3360 4581 4582 4583 4584 0
884 -3360 0
884 -4581 0
884 -4582 0
884 -4583 0
884 -4584 0
4585 -3356 -2769 0
-4585 3356 0
-4585 2769 0
4586 -4576 -2772 0
-4586 4576 0
-4586 2772 0
4587 -4576 -2769 0
-4587 4576 0
-4587 2769 0
4588 -3356 -2772 -2763 0
-4588 3356 0
-4588 2772 0
-4588 2763 0
-882 3362 4585 4586 4587 4588 0
882 -3362 0
882 -4585 0
882 -4586 0
882 -4587 0
882 -4588 0
4589 -2771 -2769 0
-4589 2771 0
-4589 2769 0
4590 -2761 -2769 0
-4590 2761 0
-4590 2769 0
4591 -2761 -2772 0
-4591 2761 0
-4591 2772 0
4592 -2771 -2772 -2763 0
-4592 2771 0
-4592 2772 0
-4592 2763 0
-885 2768 4589 4590 4591 4592 0
885 -2768 0
885 -4589 0
885 -4590 0
885 -4591 0
885 -4592 0
4593 -2774 -2761 0
-4593 2774 0
-4593 2761 0
4594 -2766 -2771 0
-4594 2766 0
-4594 2771 0
4595 -2766 -2761 0
-4595 2766 0
-4595 2761 0
4596 -2774 -2771 -2763 0
-4596 2774 0
-4596 2771 0
-4596 2763 0
-883 2765 4593 4594 4595 4596 0
883 -2765 0
883 -4593 0
883 -4594 0
883 -4595 0
883 -4596 0
4597 -2774 -2766 0
-4597 2774 0
-4597 2766 0
4598 -2766 -2766 0
-4598 2766 0
-4598 2766 0
4599 -2766 -2774 0
-4599 2766 0
-4599 2774 0
4600 -2774 -2774 -2763 0
-4600 2774 0
-4600 2774 0
-4600 2763 0
-4601 2777 4597 4598 4599 4600 0
4601 -2777 0
4601 -4597 0
4601 -4598 0
4601 -4599 0
4601 -4600 0
4602 -2693 -2693 0
-4602 2693 0
-4602 2693 0
-4603 2700 4602 0
4603 -2700 0
4603 -4602 0
4604 -2693 -2705 0
-4604 2693 0
-4604 2705 0
-954 2707 4604 0
954 -2707 0
954 -4604 0
4605 -2693 -2711 0
-4605 2693 0
-4605 2711 0
-952 2714 4605 0
952 -2714 0
952 -4605 0
4606 -2716 -2711 0
-4606 2716 0
-4606 2711 0
-955 2721 4606 0
955 -2721 0
955 -4606 0
4607 -2705 -2716 0
-4607 2705 0
-4607 2716 0
-953 2726 4607 0
953 -2726 0
953 -4607 0
4608 -2705 -2705 0
-4608 2705 0
-4608 2705 0
-4609 2732 4608 0
4609 -2732 0
4609 -4608 0
4610 -1454 -2393 0
-4610 1454 0
-4610 2393 0
2394 -2393 -2393 0
-2394 2393 0
-2394 2393 0
4611 -2393 -1454 0
-4611 2393 0
-4611 1454 0
4612 -1454 -1454 -2398 0
-4612 1454 0
-4612 1454 0
-4612 2398 0
-4613 1456 4610 2394 4611 4612 0
4613 -1456 0
4613 -4610 0
4613 -2394 0
4613 -4611 0
4613 -4612 0
4614 -1454 -2403 0
-4614 1454 0
-4614 2403 0
4615 -2393 -2403 0
-4615 2393 0
-4615 2403 0
4616 -2393 -1458 0
-4616 2393 0
-4616 1458 0
4617 -1454 -1458 -2398 0
-4617 1454 0
-4617 1458 0
-4617 2398 0
-229 1459 4614 4615 4616 4617 0
229 -1459 0
229 -4614 0
229 -4615 0
229 -4616 0
229 -4617 0
4618 -1454 -2408 0
-4618 1454 0
-4618 2408 0
4619 -2393 -1461 0
-4619 2393 0
-4619 1461 0
4620 -2393 -2408 0
-4620 2393 0
-4620 2408 0
4621 -1454 -1461 -2398 0
-4621 1454 0
-4621 1461 0
-4621 2398 0
-227 1462 4618 4619 4620 4621 0
227 -1462 0
227 -4618 0
227 -4619 0
227 -4620 0
227 -4621 0
4622 -1464 -2408 0
-4622 1464 0
-4622 2408 0
4623 -2392 -2408 0
-4623 2392 0
-4623 2408 0
4624 -2392 -1461 0
-4624 2392 0
-4624 1461 0
4625 -1464 -1461 -2398 0
-4625 1464 0
-4625 1461 0
-4625 2398 0
-230 1465 4622 4623 4624 4625 0
230 -1465 0
230 -4622 0
230 -4623 0
230 -4624 0
230 -4625 0
4626 -1458 -2392 0
-4626 1458 0
-4626 2392 0
4627 -2403 -1464 0
-4627 2403 0
-4627 1464 0
4628 -2403 -2392 0
-4628 2403 0
-4628 2392 0
4629 -1458 -1464 -2398 0
-4629 1458 0
-4629 1464 0
-4629 2398 0
-228 1467 4626 4627 4628 4629 0
228 -1467 0
228 -4626 0
228 -4627 0
228 -4628 0
228 -4629 0
4630 -1458 -2403 0
-4630 1458 0
-4630 2403 0
4631 -2403 -2403 0
-4631 2403 0
-4631 2403 0
4632 -2403 -1458 0
-4632 2403 0
-4632 1458 0
4633 -1458 -1458 -2398 0
-4633 1458 0
-4633 1458 0
-4633 2398 0
-4634 1470 4630 4631 4632 4633 0
4634 -1470 0
4634 -4630 0
4634 -4631 0
4634 -4632 0
4634 -4633 0
4635 -4636 -4637 0
-4635 4636 0
-4635 4637 0
4638 -4637 -4637 0
-4638 4637 0
-4638 4637 0
4639 -4637 -4636 0
-4639 4637 0
-4639 4636 0
4640 -4636 -4636 -4641 0
-4640 4636 0
-4640 4636 0
-4640 4641 0
-4642 4643 4635 4638 4639 4640 0
4642 -4643 0
4642 -4635 0
4642 -4638 0
4642 -4639 0
4642 -4640 0
4644 -4636 -4645 0
-4644 4636 0
-4644 4645 0
4646 -4637 -4645 0
-4646 4637 0
-4646 4645 0
4647 -4637 -4648 0
-4647 4637 0
-4647 4648 0
4649 -4636 -4648 -4641 0
-4649 4636 0
-4649 4648 0
-4649 4641 0
-284 4650 4644 4646 4647 4649 0
284 -4650 0
284 -4644 0
284 -4646 0
284 -4647 0
284 -4649 0
4651 -4636 -4652 0
-4651 4636 0
-4651 4652 0
4653 -4637 -4654 0
-4653 4637 0
-4653 4654 0
4655 -4637 -4652 0
-4655 4637 0
-4655 4652 0
4656 -4636 -4654 -4641 0
-4656 4636 0
-4656 4654 0
-4656 4641 0
-282 4657 4651 4653 4655 4656 0
282 -4657 0
282 -4651 0
282 -4653 0
282 -4655 0
282 -4656 0
4658 -4659 -4652 0
-4658 4659 0
-4658 4652 0
4660 -4661 -4652 0
-4660 4661 0
-4660 4652 0
4662 -4661 -4654 0
-4662 4661 0
-4662 4654 0
4663 -4659 -4654 -4641 0
-4663 4659 0
-4663 4654 0
-4663 4641 0
-285 4664 4658 4660 4662 4663 0
285 -4664 0
285 -4658 0
285 -4660 0
285 -4662 0
285 -4663 0
4665 -4648 -4661 0
-4665 4648 0
-4665 4661 0
4666 -4645 -4659 0
-4666 4645 0
-4666 4659 0
4667 -4645 -4661 0
-4667 4645 0
-4667 4661 0
4668 -4648 -4659 -4641 0
-4668 4648 0
-4668 4659 0
-4668 4641 0
-283 4669 4665 4666 4667 4668 0
283 -4669 0
283 -4665 0
283 -4666 0
283 -4667 0
283 -4668 0
4670 -4648 -4645 0
-4670 4648 0
-4670 4645 0
4671 -4645 -4645 0
-4671 4645 0
-4671 4645 0
4672 -4645 -4648 0
-4672 4645 0
-4672 4648 0
4673 -4648 -4648 -4641 0
-4673 4648 0
-4673 4648 0
-4673 4641 0
-4674 4675 4670 4671 4672 4673 0
4674 -4675 0
4674 -4670 0
4674 -4671 0
4674 -4672 0
4674 -4673 0
4676 -2094 -2094 0
-4676 2094 0
-4676 2094 0
-4677 2074 4676 0
4677 -2074 0
4677 -4676 0
4678 -2094 -2102 0
-4678 2094 0
-4678 2102 0
-469 2078 4678 0
469 -2078 0
469 -4678 0
4679 -2094 -2097 0
-4679 2094 0
-4679 2097 0
-467 2085 4679 0
467 -2085 0
467 -4679 0
4680 -2092 -2097 0
-4680 2092 0
-4680 2097 0
-470 2087 4680 0
470 -2087 0
470 -4680 0
4681 -2102 -2092 0
-4681 2102 0
-4681 2092 0
-468 2081 4681 0
468 -2081 0
468 -4681 0
4682 -2102 -2102 0
-4682 2102 0
-4682 2102 0
-4683 2108 4682 0
4683 -2108 0
4683 -4682 0
4684 -3014 -3014 0
-4684 3014 0
-4684 3014 0
-4685 3021 4684 0
4685 -3021 0
4685 -4684 0
4686 -3014 -3026 0
-4686 3014 0
-4686 3026 0
-999 3028 4686 0
999 -3028 0
999 -4686 0
4687 -3014 -3032 0
-4687 3014 0
-4687 3032 0
-997 3035 4687 0
997 -3035 0
997 -4687 0
4688 -3037 -3032 0
-4688 3037 0
-4688 3032 0
-1000 3042 4688 0
1000 -3042 0
1000 -4688 0
4689 -3026 -3037 0
-4689 3026 0
-4689 3037 0
-998 3047 4689 0
998 -3047 0
998 -4689 0
4690 -3026 -3026 0
-4690 3026 0
-4690 3026 0
-4691 3053 4690 0
4691 -3053 0
4691 -4690 0
4692 -1865 -1865 0
-4692 1865 0
-4692 1865 0
-4693 1859 4692 0
4693 -1859 0
4693 -4692 0
4694 -1865 -2787 0
-4694 1865 0
-4694 2787 0
-849 2789 4694 0
849 -2789 0
849 -4694 0
4695 -1865 -1864 0
-4695 1865 0
-4695 1864 0
-847 1857 4695 0
847 -1857 0
847 -4695 0
4696 -1868 -1864 0
-4696 1868 0
-4696 1864 0
-850 1867 4696 0
850 -1867 0
850 -4696 0
4697 -2787 -1868 0
-4697 2787 0
-4697 1868 0
-848 2802 4697 0
848 -2802 0
848 -4697 0
4698 -2787 -2787 0
-4698 2787 0
-4698 2787 0
-4699 2808 4698 0
4699 -2808 0
4699 -4698 0
4700 -1395 -1395 0
-4700 1395 0
-4700 1395 0
-4701 1402 4700 0
4701 -1402 0
4701 -4700 0
4702 -1395 -1407 0
-4702 1395 0
-4702 1407 0
-1119 1409 4702 0
1119 -1409 0
1119 -4702 0
4703 -1395 -1413 0
-4703 1395 0
-4703 1413 0
-1117 1416 4703 0
1117 -1416 0
1117 -4703 0
4704 -1418 -1413 0
-4704 1418 0
-4704 1413 0
-1120 1423 4704 0
1120 -1423 0
1120 -4704 0
4705 -1407 -1418 0
-4705 1407 0
-4705 1418 0
-1118 1428 4705 0
1118 -1428 0
1118 -4705 0
4706 -1407 -1407 0
-4706 1407 0
-4706 1407 0
-4707 1434 4706 0
4707 -1434 0
4707 -4706 0
4708 -1775 -1775 0
-4708 1775 0
-4708 1775 0
-4709 1782 4708 0
4709 -1782 0
4709 -4708 0
4710 -1775 -1787 0
-4710 1775 0
-4710 1787 0
-774 1789 4710 0
774 -1789 0
774 -4710 0
4711 -1775 -1793 0
-4711 1775 0
-4711 1793 0
-772 1796 4711 0
772 -1796 0
772 -4711 0
4712 -1798 -1793 0
-4712 1798 0
-4712 1793 0
-775 1803 4712 0
775 -1803 0
775 -4712 0
4713 -1787 -1798 0
-4713 1787 0
-4713 1798 0
-773 1808 4713 0
773 -1808 0
773 -4713 0
4714 -1787 -1787 0
-4714 1787 0
-4714 1787 0
-4715 1814 4714 0
4715 -1814 0
4715 -4714 0
4716 -3996 -3996 0
-4716 3996 0
-4716 3996 0
-4717 4003 4716 0
4717 -4003 0
4717 -4716 0
4718 -3996 -4008 0
-4718 3996 0
-4718 4008 0
-259 4010 4718 0
259 -4010 0
259 -4718 0
4719 -3996 -4014 0
-4719 3996 0
-4719 4014 0
-257 4017 4719 0
257 -4017 0
257 -4719 0
4720 -4019 -4014 0
-4720 4019 0
-4720 4014 0
-260 4024 4720 0
260 -4024 0
260 -4720 0
4721 -4008 -4019 0
-4721 4008 0
-4721 4019 0
-258 4029 4721 0
258 -4029 0
258 -4721 0
4722 -4008 -4008 0
-4722 4008 0
-4722 4008 0
-4723 4035 4722 0
4723 -4035 0
4723 -4722 0
4724 -1308 -1300 0
-4724 1308 0
-4724 1300 0
4725 -1300 -1300 0
-4725 1300 0
-4725 1300 0
4726 -1300 -1308 0
-4726 1300 0
-4726 1308 0
4727 -1308 -1308 -1297 0
-4727 1308 0
-4727 1308 0
-4727 1297 0
-4728 1311 4724 4725 4726 4727 0
4728 -1311 0
4728 -4724 0
4728 -4725 0
4728 -4726 0
4728 -4727 0
4729 -1308 -4730 0
-4729 1308 0
-4729 4730 0
4731 -1300 -4730 0
-4731 1300 0
-4731 4730 0
4732 -1300 -4733 0
-4732 1300 0
-4732 4733 0
4734 -1308 -4733 -1297 0
-4734 1308 0
-4734 4733 0
-4734 1297 0
-189 4735 4729 4731 4732 4734 0
189 -4735 0
189 -4729 0
189 -4731 0
189 -4732 0
189 -4734 0
4736 -1308 -1295 0
-4736 1308 0
-4736 1295 0
4737 -1300 -1305 0
-4737 1300 0
-4737 1305 0
4738 -1300 -1295 0
-4738 1300 0
-4738 1295 0
4739 -1308 -1305 -1297 0
-4739 1308 0
-4739 1305 0
-4739 1297 0
-187 1299 4736 4737 4738 4739 0
187 -1299 0
187 -4736 0
187 -4737 0
187 -4738 0
187 -4739 0
4740 -1306 -1295 0
-4740 1306 0
-4740 1295 0
4741 -1303 -1295 0
-4741 1303 0
-4741 1295 0
4742 -1303 -1305 0
-4742 1303 0
-4742 1305 0
4743 -1306 -1305 -1297 0
-4743 1306 0
-4743 1305 0
-4743 1297 0
-190 1302 4740 4741 4742 4743 0
190 -1302 0
190 -4740 0
190 -4741 0
190 -4742 0
190 -4743 0
4744 -4733 -1303 0
-4744 4733 0
-4744 1303 0
4745 -4730 -1306 0
-4745 4730 0
-4745 1306 0
4746 -4730 -1303 0
-4746 4730 0
-4746 1303 0
4747 -4733 -1306 -1297 0
-4747 4733 0
-4747 1306 0
-4747 1297 0
-188 4748 4744 4745 4746 4747 0
188 -4748 0
188 -4744 0
188 -4745 0
188 -4746 0
188 -4747 0
4749 -4733 -4730 0
-4749 4733 0
-4749 4730 0
4750 -4730 -4730 0
-4750 4730 0
-4750 4730 0
4751 -4730 -4733 0
-4751 4730 0
-4751 4733 0
4752 -4733 -4733 -1297 0
-4752 4733 0
-4752 4733 0
-4752 1297 0
-4753 4754 4749 4750 4751 4752 0
4753 -4754 0
4753 -4749 0
4753 -4750 0
4753 -4751 0
4753 -4752 0
4755 -2324 -2324 0
-4755 2324 0
-4755 2324 0
-4756 2310 4755 0
4756 -2310 0
4756 -4755 0
4757 -2324 -1680 0
-4757 2324 0
-4757 1680 0
-559 2313 4757 0
559 -2313 0
559 -4757 0
4758 -2324 -1678 0
-4758 2324 0
-4758 1678 0
-557 2318 4758 0
557 -2318 0
557 -4758 0
4759 -1677 -1678 0
-4759 1677 0
-4759 1678 0
-560 1674 4759 0
560 -1674 0
560 -4759 0
4760 -1680 -1677 0
-4760 1680 0
-4760 1677 0
-558 1671 4760 0
558 -1671 0
558 -4760 0
4761 -1680 -1680 0
-4761 1680 0
-4761 1680 0
-4762 1683 4761 0
4762 -1683 0
4762 -4761 0
4763 -2324 -2306 0
-4763 2324 0
-4763 2306 0
2307 -2306 -2306 0
-2307 2306 0
-2307 2306 0
4764 -2306 -2324 0
-4764 2306 0
-4764 2324 0
4765 -2324 -2324 -1669 0
-4765 2324 0
-4765 2324 0
-4765 1669 0
-4766 2310 4763 2307 4764 4765 0
4766 -2310 0
4766 -4763 0
4766 -2307 0
4766 -4764 0
4766 -4765 0
4767 -2324 -1672 0
-4767 2324 0
-4767 1672 0
4768 -2306 -1672 0
-4768 2306 0
-4768 1672 0
4769 -2306 -1680 0
-4769 2306 0
-4769 1680 0
4770 -2324 -1680 -1669 0
-4770 2324 0
-4770 1680 0
-4770 1669 0
-204 2313 4767 4768 4769 4770 0
204 -2313 0
204 -4767 0
204 -4768 0
204 -4769 0
204 -4770 0
4771 -2324 -1675 0
-4771 2324 0
-4771 1675 0
4772 -2306 -1678 0
-4772 2306 0
-4772 1678 0
4773 -2306 -1675 0
-4773 2306 0
-4773 1675 0
4774 -2324 -1678 -1669 0
-4774 2324 0
-4774 1678 0
-4774 1669 0
-202 2318 4771 4772 4773 4774 0
202 -2318 0
202 -4771 0
202 -4772 0
202 -4773 0
202 -4774 0
4775 -1677 -1675 0
-4775 1677 0
-4775 1675 0
4776 -1667 -1675 0
-4776 1667 0
-4776 1675 0
4777 -1667 -1678 0
-4777 1667 0
-4777 1678 0
4778 -1677 -1678 -1669 0
-4778 1677 0
-4778 1678 0
-4778 1669 0
-205 1674 4775 4776 4777 4778 0
205 -1674 0
205 -4775 0
205 -4776 0
205 -4777 0
205 -4778 0
4779 -1680 -1667 0
-4779 1680 0
-4779 1667 0
4780 -1672 -1677 0
-4780 1672 0
-4780 1677 0
4781 -1672 -1667 0
-4781 1672 0
-4781 1667 0
4782 -1680 -1677 -1669 0
-4782 1680 0
-4782 1677 0
-4782 1669 0
-203 1671 4779 4780 4781 4782 0
203 -1671 0
203 -4779 0
203 -4780 0
203 -4781 0
203 -4782 0
4783 -1680 -1672 0
-4783 1680 0
-4783 1672 0
4784 -1672 -1672 0
-4784 1672 0
-4784 1672 0
4785 -1672 -1680 0
-4785 1672 0
-4785 1680 0
4786 -1680 -1680 -1669 0
-4786 1680 0
-4786 1680 0
-4786 1669 0
-4787 1683 4783 4784 4785 4786 0
4787 -1683 0
4787 -4783 0
4787 -4784 0
4787 -4785 0
4787 -4786 0
4788 -2499 -2499 0
-4788 2499 0
-4788 2499 0
-4789 2479 4788 0
4789 -2479 0
4789 -4788 0
4790 -2499 -2507 0
-4790 2499 0
-4790 2507 0
-604 2483 4790 0
604 -2483 0
604 -4790 0
4791 -2499 -2502 0
-4791 2499 0
-4791 2502 0
-602 2490 4791 0
602 -2490 0
602 -4791 0
4792 -2497 -2502 0
-4792 2497 0
-4792 2502 0
-605 2492 4792 0
605 -2492 0
605 -4792 0
4793 -2507 -2497 0
-4793 2507 0
-4793 2497 0
-603 2486 4793 0
603 -2486 0
603 -4793 0
4794 -2507 -2507 0
-4794 2507 0
-4794 2507 0
-4795 2513 4794 0
4795 -2513 0
4795 -4794 0
4796 -4797 -4797 0
-4796 4797 0
-4796 4797 0
-4798 4799 4796 0
4798 -4799 0
4798 -4796 0
4800 -4797 -4801 0
-4800 4797 0
-4800 4801 0
-814 4802 4800 0
814 -4802 0
814 -4800 0
4803 -4797 -4804 0
-4803 4797 0
-4803 4804 0
-812 4805 4803 0
812 -4805 0
812 -4803 0
4806 -4807 -4804 0
-4806 4807 0
-4806 4804 0
-815 4808 4806 0
815 -4808 0
815 -4806 0
4809 -4801 -4807 0
-4809 4801 0
-4809 4807 0
-813 4810 4809 0
813 -4810 0
813 -4809 0
4811 -4801 -4801 0
-4811 4801 0
-4811 4801 0
-4812 4813 4811 0
4812 -4813 0
4812 -4811 0
4814 -1976 -1976 0
-4814 1976 0
-4814 1976 0
-4815 1983 4814 0
4815 -1983 0
4815 -4814 0
4816 -1976 -1988 0
-4816 1976 0
-4816 1988 0
-914 1990 4816 0
914 -1990 0
914 -4816 0
4817 -1976 -1994 0
-4817 1976 0
-4817 1994 0
-912 1997 4817 0
912 -1997 0
912 -4817 0
4818 -1999 -1994 0
-4818 1999 0
-4818 1994 0
-915 2004 4818 0
915 -2004 0
915 -4818 0
4819 -1988 -1999 0
-4819 1988 0
-4819 1999 0
-913 2009 4819 0
913 -2009 0
913 -4819 0
4820 -1988 -1988 0
-4820 1988 0
-4820 1988 0
-4821 2015 4820 0
4821 -2015 0
4821 -4820 0
4822 -3478 -4823 0
-4822 3478 0
-4822 4823 0
4824 -4823 -4823 0
-4824 4823 0
-4824 4823 0
4825 -4823 -3478 0
-4825 4823 0
-4825 3478 0
4826 -3478 -3478 -4827 0
-4826 3478 0
-4826 3478 0
-4826 4827 0
-4828 3480 4822 4824 4825 4826 0
4828 -3480 0
4828 -4822 0
4828 -4824 0
4828 -4825 0
4828 -4826 0
4829 -3478 -4830 0
-4829 3478 0
-4829 4830 0
4831 -4823 -4830 0
-4831 4823 0
-4831 4830 0
4832 -4823 -3482 0
-4832 4823 0
-4832 3482 0
4833 -3478 -3482 -4827 0
-4833 3478 0
-4833 3482 0
-4833 4827 0
-794 3483 4829 4831 4832 4833 0
794 -3483 0
794 -4829 0
794 -4831 0
794 -4832 0
794 -4833 0
4834 -3478 -4835 0
-4834 3478 0
-4834 4835 0
4836 -4823 -3485 0
-4836 4823 0
-4836 3485 0
4837 -4823 -4835 0
-4837 4823 0
-4837 4835 0
4838 -3478 -3485 -4827 0
-4838 3478 0
-4838 3485 0
-4838 4827 0
-792 3486 4834 4836 4837 4838 0
792 -3486 0
792 -4834 0
792 -4836 0
792 -4837 0
792 -4838 0
4839 -3488 -4835 0
-4839 3488 0
-4839 4835 0
4840 -4841 -4835 0
-4840 4841 0
-4840 4835 0
4842 -4841 -3485 0
-4842 4841 0
-4842 3485 0
4843 -3488 -3485 -4827 0
-4843 3488 0
-4843 3485 0
-4843 4827 0
-795 3489 4839 4840 4842 4843 0
795 -3489 0
795 -4839 0
795 -4840 0
795 -4842 0
795 -4843 0
4844 -3482 -4841 0
-4844 3482 0
-4844 4841 0
4845 -4830 -3488 0
-4845 4830 0
-4845 3488 0
4846 -4830 -4841 0
-4846 4830 0
-4846 4841 0
4847 -3482 -3488 -4827 0
-4847 3482 0
-4847 3488 0
-4847 4827 0
-793 3491 4844 4845 4846 4847 0
793 -3491 0
793 -4844 0
793 -4845 0
793 -4846 0
793 -4847 0
4848 -3482 -4830 0
-4848 3482 0
-4848 4830 0
4849 -4830 -4830 0
-4849 4830 0
-4849 4830 0
4850 -4830 -3482 0
-4850 4830 0
-4850 3482 0
4851 -3482 -3482 -4827 0
-4851 3482 0
-4851 3482 0
-4851 4827 0
-4852 3494 4848 4849 4850 4851 0
4852 -3494 0
4852 -4848 0
4852 -4849 0
4852 -4850 0
4852 -4851 0
4853 -4854 -4854 0
-4853 4854 0
-4853 4854 0
-4855 4856 4853 0
4855 -4856 0
4855 -4853 0
4857 -4854 -4858 0
-4857 4854 0
-4857 4858 0
-799 4859 4857 0
799 -4859 0
799 -4857 0
4860 -4854 -4861 0
-4860 4854 0
-4860 4861 0
-797 4862 4860 0
797 -4862 0
797 -4860 0
4863 -4864 -4861 0
-4863 4864 0
-4863 4861 0
-800 4865 4863 0
800 -4865 0
800 -4863 0
4866 -4858 -4864 0
-4866 4858 0
-4866 4864 0
-798 4867 4866 0
798 -4867 0
798 -4866 0
4868 -4858 -4858 0
-4868 4858 0
-4868 4858 0
-4869 4870 4868 0
4869 -4870 0
4869 -4868 0
4871 -2135 -2135 0
-4871 2135 0
-4871 2135 0
-4872 2115 4871 0
4872 -2115 0
4872 -4871 0
4873 -2135 -2143 0
-4873 2135 0
-4873 2143 0
-514 2119 4873 0
514 -2119 0
514 -4873 0
4874 -2135 -2138 0
-4874 2135 0
-4874 2138 0
-512 2126 4874 0
512 -2126 0
512 -4874 0
4875 -2133 -2138 0
-4875 2133 0
-4875 2138 0
-515 2128 4875 0
515 -2128 0
515 -4875 0
4876 -2143 -2133 0
-4876 2143 0
-4876 2133 0
-513 2122 4876 0
513 -2122 0
513 -4876 0
4877 -2143 -2143 0
-4877 2143 0
-4877 2143 0
-4878 2149 4877 0
4878 -2149 0
4878 -4877 0
4879 -4880 -4881 0
-4879 4880 0
-4879 4881 0
4882 -4881 -4881 0
-4882 4881 0
-4882 4881 0
4883 -4881 -4880 0
-4883 4881 0
-4883 4880 0
4884 -4880 -4880 -4885 0
-4884 4880 0
-4884 4880 0
-4884 4885 0
-4886 4887 4879 4882 4883 4884 0
4886 -4887 0
4886 -4879 0
4886 -4882 0
4886 -4883 0
4886 -4884 0
4888 -4880 -4889 0
-4888 4880 0
-4888 4889 0
4890 -4881 -4889 0
-4890 4881 0
-4890 4889 0
4891 -4881 -4892 0
-4891 4881 0
-4891 4892 0
4893 -4880 -4892 -4885 0
-4893 4880 0
-4893 4892 0
-4893 4885 0
-669 4894 4888 4890 4891 4893 0
669 -4894 0
669 -4888 0
669 -4890 0
669 -4891 0
669 -4893 0
4895 -4880 -4896 0
-4895 4880 0
-4895 4896 0
4897 -4881 -4898 0
-4897 4881 0
-4897 4898 0
4899 -4881 -4896 0
-4899 4881 0
-4899 4896 0
4900 -4880 -4898 -4885 0
-4900 4880 0
-4900 4898 0
-4900 4885 0
-667 4901 4895 4897 4899 4900 0
667 -4901 0
667 -4895 0
667 -4897 0
667 -4899 0
667 -4900 0
4902 -4903 -4896 0
-4902 4903 0
-4902 4896 0
4904 -4905 -4896 0
-4904 4905 0
-4904 4896 0
4906 -4905 -4898 0
-4906 4905 0
-4906 4898 0
4907 -4903 -4898 -4885 0
-4907 4903 0
-4907 4898 0
-4907 4885 0
-670 4908 4902 4904 4906 4907 0
670 -4908 0
670 -4902 0
670 -4904 0
670 -4906 0
670 -4907 0
4909 -4892 -4905 0
-4909 4892 0
-4909 4905 0
4910 -4889 -4903 0
-4910 4889 0
-4910 4903 0
4911 -4889 -4905 0
-4911 4889 0
-4911 4905 0
4912 -4892 -4903 -4885 0
-4912 4892 0
-4912 4903 0
-4912 4885 0
-668 4913 4909 4910 4911 4912 0
668 -4913 0
668 -4909 0
668 -4910 0
668 -4911 0
668 -4912 0
4914 -4892 -4889 0
-4914 4892 0
-4914 4889 0
4915 -4889 -4889 0
-4915 4889 0
-4915 4889 0
4916 -4889 -4892 0
-4916 4889 0
-4916 4892 0
4917 -4892 -4892 -4885 0
-4917 4892 0
-4917 4892 0
-4917 4885 0
-4918 4919 4914 4915 4916 4917 0
4918 -4919 0
4918 -4914 0
4918 -4915 0
4918 -4916 0
4918 -4917 0
4920 -4797 -4921 0
-4920 4797 0
-4920 4921 0
4922 -4921 -4921 0
-4922 4921 0
-4922 4921 0
4923 -4921 -4797 0
-4923 4921 0
-4923 4797 0
4924 -4797 -4797 -4925 0
-4924 4797 0
-4924 4797 0
-4924 4925 0
-4926 4799 4920 4922 4923 4924 0
4926 -4799 0
4926 -4920 0
4926 -4922 0
4926 -4923 0
4926 -4924 0
4927 -4797 -4928 0
-4927 4797 0
-4927 4928 0
4929 -4921 -4928 0
-4929 4921 0
-4929 4928 0
4930 -4921 -4801 0
-4930 4921 0
-4930 4801 0
4931 -4797 -4801 -4925 0
-4931 4797 0
-4931 4801 0
-4931 4925 0
-374 4802 4927 4929 4930 4931 0
374 -4802 0
374 -4927 0
374 -4929 0
374 -4930 0
374 -4931 0
4932 -4797 -4933 0
-4932 4797 0
-4932 4933 0
4934 -4921 -4804 0
-4934 4921 0
-4934 4804 0
4935 -4921 -4933 0
-4935 4921 0
-4935 4933 0
4936 -4797 -4804 -4925 0
-4936 4797 0
-4936 4804 0
-4936 4925 0
-372 4805 4932 4934 4935 4936 0
372 -4805 0
372 -4932 0
372 -4934 0
372 -4935 0
372 -4936 0
4937 -4807 -4933 0
-4937 4807 0
-4937 4933 0
4938 -4939 -4933 0
-4938 4939 0
-4938 4933 0
4940 -4939 -4804 0
-4940 4939 0
-4940 4804 0
4941 -4807 -4804 -4925 0
-4941 4807 0
-4941 4804 0
-4941 4925 0
-375 4808 4937 4938 4940 4941 0
375 -4808 0
375 -4937 0
375 -4938 0
375 -4940 0
375 -4941 0
4942 -4801 -4939 0
-4942 4801 0
-4942 4939 0
4943 -4928 -4807 0
-4943 4928 0
-4943 4807 0
4944 -4928 -4939 0
-4944 4928 0
-4944 4939 0
4945 -4801 -4807 -4925 0
-4945 4801 0
-4945 4807 0
-4945 4925 0
-373 4810 4942 4943 4944 4945 0
373 -4810 0
373 -4942 0
373 -4943 0
373 -4944 0
373 -4945 0
4946 -4801 -4928 0
-4946 4801 0
-4946 4928 0
4947 -4928 -4928 0
-4947 4928 0
-4947 4928 0
4948 -4928 -4801 0
-4948 4928 0
-4948 4801 0
4949 -4801 -4801 -4925 0
-4949 4801 0
-4949 4801 0
-4949 4925 0
-4950 4813 4946 4947 4948 4949 0
4950 -4813 0
4950 -4946 0
4950 -4947 0
4950 -4948 0
4950 -4949 0
4951 -2288 -4952 0
-4951 2288 0
-4951 4952 0
4953 -4952 -4952 0
-4953 4952 0
-4953 4952 0
4954 -4952 -2288 0
-4954 4952 0
-4954 2288 0
4955 -2288 -2288 -4956 0
-4955 2288 0
-4955 2288 0
-4955 4956 0
-4957 2290 4951 4953 4954 4955 0
4957 -2290 0
4957 -4951 0
4957 -4953 0
4957 -4954 0
4957 -4955 0
4958 -2288 -4959 0
-4958 2288 0
-4958 4959 0
4960 -4952 -4959 0
-4960 4952 0
-4960 4959 0
4961 -4952 -2292 0
-4961 4952 0
-4961 2292 0
4962 -2288 -2292 -4956 0
-4962 2288 0
-4962 2292 0
-4962 4956 0
-69 2293 4958 4960 4961 4962 0
69 -2293 0
69 -4958 0
69 -4960 0
69 -4961 0
69 -4962 0
4963 -2288 -4964 0
-4963 2288 0
-4963 4964 0
4965 -4952 -2295 0
-4965 4952 0
-4965 2295 0
4966 -4952 -4964 0
-4966 4952 0
-4966 4964 0
4967 -2288 -2295 -4956 0
-4967 2288 0
-4967 2295 0
-4967 4956 0
-67 2296 4963 4965 4966 4967 0
67 -2296 0
67 -4963 0
67 -4965 0
67 -4966 0
67 -4967 0
4968 -2298 -4964 0
-4968 2298 0
-4968 4964 0
4969 -4970 -4964 0
-4969 4970 0
-4969 4964 0
4971 -4970 -2295 0
-4971 4970 0
-4971 2295 0
4972 -2298 -2295 -4956 0
-4972 2298 0
-4972 2295 0
-4972 4956 0
-70 2299 4968 4969 4971 4972 0
70 -2299 0
70 -4968 0
70 -4969 0
70 -4971 0
70 -4972 0
4973 -2292 -4970 0
-4973 2292 0
-4973 4970 0
4974 -4959 -2298 0
-4974 4959 0
-4974 2298 0
4975 -4959 -4970 0
-4975 4959 0
-4975 4970 0
4976 -2292 -2298 -4956 0
-4976 2292 0
-4976 2298 0
-4976 4956 0
-68 2301 4973 4974 4975 4976 0
68 -2301 0
68 -4973 0
68 -4974 0
68 -4975 0
68 -4976 0
4977 -2292 -4959 0
-4977 2292 0
-4977 4959 0
4978 -4959 -4959 0
-4978 4959 0
-4978 4959 0
4979 -4959 -2292 0
-4979 4959 0
-4979 2292 0
4980 -2292 -2292 -4956 0
-4980 2292 0
-4980 2292 0
-4980 4956 0
-4981 2304 4977 4978 4979 4980 0
4981 -2304 0
4981 -4977 0
4981 -4978 0
4981 -4979 0
4981 -4980 0
4982 -2135 -2111 0
-4982 2135 0
-4982 2111 0
2112 -2111 -2111 0
-2112 2111 0
-2112 2111 0
4983 -2111 -2135 0
-4983 2111 0
-4983 2135 0
4984 -2135 -2135 -2117 0
-4984 2135 0
-4984 2135 0
-4984 2117 0
-4985 2115 4982 2112 4983 4984 0
4985 -2115 0
4985 -4982 0
4985 -2112 0
4985 -4983 0
4985 -4984 0
4986 -2135 -2124 0
-4986 2135 0
-4986 2124 0
4987 -2111 -2124 0
-4987 2111 0
-4987 2124 0
4988 -2111 -2143 0
-4988 2111 0
-4988 2143 0
4989 -2135 -2143 -2117 0
-4989 2135 0
-4989 2143 0
-4989 2117 0
-174 2119 4986 4987 4988 4989 0
174 -2119 0
174 -4986 0
174 -4987 0
174 -4988 0
174 -4989 0
4990 -2135 -2131 0
-4990 2135 0
-4990 2131 0
4991 -2111 -2138 0
-4991 2111 0
-4991 2138 0
4992 -2111 -2131 0
-4992 2111 0
-4992 2131 0
4993 -2135 -2138 -2117 0
-4993 2135 0
-4993 2138 0
-4993 2117 0
-172 2126 4990 4991 4992 4993 0
172 -2126 0
172 -4990 0
172 -4991 0
172 -4992 0
172 -4993 0
4994 -2133 -2131 0
-4994 2133 0
-4994 2131 0
4995 -2110 -2131 0
-4995 2110 0
-4995 2131 0
4996 -2110 -2138 0
-4996 2110 0
-4996 2138 0
4997 -2133 -2138 -2117 0
-4997 2133 0
-4997 2138 0
-4997 2117 0
-175 2128 4994 4995 4996 4997 0
175 -2128 0
175 -4994 0
175 -4995 0
175 -4996 0
175 -4997 0
4998 -2143 -2110 0
-4998 2143 0
-4998 2110 0
4999 -2124 -2133 0
-4999 2124 0
-4999 2133 0
5000 -2124 -2110 0
-5000 2124 0
-5000 2110 0
5001 -2143 -2133 -2117 0
-5001 2143 0
-5001 2133 0
-5001 2117 0
-173 2122 4998 4999 5000 5001 0
173 -2122 0
173 -4998 0
173 -4999 0
173 -5000 0
173 -5001 0
5002 -2143 -2124 0
-5002 2143 0
-5002 2124 0
5003 -2124 -2124 0
-5003 2124 0
-5003 2124 0
5004 -2124 -2143 0
-5004 2124 0
-5004 2143 0
5005 -2143 -2143 -2117 0
-5005 2143 0
-5005 2143 0
-5005 2117 0
-5006 2149 5002 5003 5004 5005 0
5006 -2149 0
5006 -5002 0
5006 -5003 0
5006 -5004 0
5006 -5005 0
5007 -3552 -3552 0
-5007 3552 0
-5007 3552 0
-5008 3559 5007 0
5008 -3559 0
5008 -5007 0
5009 -3552 -3564 0
-5009 3552 0
-5009 3564 0
-739 3566 5009 0
739 -3566 0
739 -5009 0
5010 -3552 -3570 0
-5010 3552 0
-5010 3570 0
-737 3573 5010 0
737 -3573 0
737 -5010 0
5011 -3575 -3570 0
-5011 3575 0
-5011 3570 0
-740 3580 5011 0
740 -3580 0
740 -5011 0
5012 -3564 -3575 0
-5012 3564 0
-5012 3575 0
-738 3585 5012 0
738 -3585 0
738 -5012 0
5013 -3564 -3564 0
-5013 3564 0
-5013 3564 0
-5014 3591 5013 0
5014 -3591 0
5014 -5013 0
5015 -3134 -3134 0
-5015 3134 0
-5015 3134 0
-5016 3141 5015 0
5016 -3141 0
5016 -5015 0
5017 -3134 -3146 0
-5017 3134 0
-5017 3146 0
-279 3148 5017 0
279 -3148 0
279 -5017 0
5018 -3134 -3152 0
-5018 3134 0
-5018 3152 0
-277 3155 5018 0
277 -3155 0
277 -5018 0
5019 -3157 -3152 0
-5019 3157 0
-5019 3152 0
-280 3162 5019 0
280 -3162 0
280 -5019 0
5020 -3146 -3157 0
-5020 3146 0
-5020 3157 0
-278 3167 5020 0
278 -3167 0
278 -5020 0
5021 -3146 -3146 0
-5021 3146 0
-5021 3146 0
-5022 3173 5021 0
5022 -3173 0
5022 -5021 0
5023 -1698 -1698 0
-5023 1698 0
-5023 1698 0
-5024 1701 5023 0
5024 -1701 0
5024 -5023 0
5025 -1698 -1942 0
-5025 1698 0
-5025 1942 0
-1154 1924 5025 0
1154 -1924 0
1154 -5025 0
5026 -1698 -1695 0
-5026 1698 0
-5026 1695 0
-1152 1689 5026 0
1152 -1689 0
1152 -5026 0
5027 -1696 -1695 0
-5027 1696 0
-5027 1695 0
-1155 1692 5027 0
1155 -1692 0
1155 -5027 0
5028 -1942 -1696 0
-5028 1942 0
-5028 1696 0
-1153 1927 5028 0
1153 -1927 0
1153 -5028 0
5029 -1942 -1942 0
-5029 1942 0
-5029 1942 0
-5030 1948 5029 0
5030 -1948 0
5030 -5029 0
5031 -1303 -1300 0
-5031 1303 0
-5031 1300 0
4725 -1300 -1300 0
-4725 1300 0
-4725 1300 0
5032 -1300 -1303 0
-5032 1300 0
-5032 1303 0
5033 -1303 -1303 -1311 0
-5033 1303 0
-5033 1303 0
-5033 1311 0
-5034 1297 5031 4725 5032 5033 0
5034 -1297 0
5034 -5031 0
5034 -4725 0
5034 -5032 0
5034 -5033 0
5035 -1303 -4735 0
-5035 1303 0
-5035 4735 0
5036 -1300 -4735 0
-5036 1300 0
-5036 4735 0
5037 -1300 -4748 0
-5037 1300 0
-5037 4748 0
5038 -1303 -4748 -1311 0
-5038 1303 0
-5038 4748 0
-5038 1311 0
-109 4730 5035 5036 5037 5038 0
109 -4730 0
109 -5035 0
109 -5036 0
109 -5037 0
109 -5038 0
5039 -1303 -1299 0
-5039 1303 0
-5039 1299 0
5040 -1300 -1302 0
-5040 1300 0
-5040 1302 0
5041 -1300 -1299 0
-5041 1300 0
-5041 1299 0
5042 -1303 -1302 -1311 0
-5042 1303 0
-5042 1302 0
-5042 1311 0
-107 1295 5039 5040 5041 5042 0
107 -1295 0
107 -5039 0
107 -5040 0
107 -5041 0
107 -5042 0
5043 -1306 -1299 0
-5043 1306 0
-5043 1299 0
5044 -1308 -1299 0
-5044 1308 0
-5044 1299 0
5045 -1308 -1302 0
-5045 1308 0
-5045 1302 0
5046 -1306 -1302 -1311 0
-5046 1306 0
-5046 1302 0
-5046 1311 0
-110 1305 5043 5044 5045 5046 0
110 -1305 0
110 -5043 0
110 -5044 0
110 -5045 0
110 -5046 0
5047 -4748 -1308 0
-5047 4748 0
-5047 1308 0
5048 -4735 -1306 0
-5048 4735 0
-5048 1306 0
5049 -4735 -1308 0
-5049 4735 0
-5049 1308 0
5050 -4748 -1306 -1311 0
-5050 4748 0
-5050 1306 0
-5050 1311 0
-108 4733 5047 5048 5049 5050 0
108 -4733 0
108 -5047 0
108 -5048 0
108 -5049 0
108 -5050 0
5051 -4748 -4735 0
-5051 4748 0
-5051 4735 0
5052 -4735 -4735 0
-5052 4735 0
-5052 4735 0
5053 -4735 -4748 0
-5053 4735 0
-5053 4748 0
5054 -4748 -4748 -1311 0
-5054 4748 0
-5054 4748 0
-5054 1311 0
-5055 4754 5051 5052 5053 5054 0
5055 -4754 0
5055 -5051 0
5055 -5052 0
5055 -5053 0
5055 -5054 0
5056 -1241 -3635 0
-5056 1241 0
-5056 3635 0
3636 -3635 -3635 0
-3636 3635 0
-3636 3635 0
5057 -3635 -1241 0
-5057 3635 0
-5057 1241 0
5058 -1241 -1241 -3640 0
-5058 1241 0
-5058 1241 0
-5058 3640 0
-5059 1243 5056 3636 5057 5058 0
5059 -1243 0
5059 -5056 0
5059 -3636 0
5059 -5057 0
5059 -5058 0
5060 -1241 -3645 0
-5060 1241 0
-5060 3645 0
5061 -3635 -3645 0
-5061 3635 0
-5061 3645 0
5062 -3635 -1245 0
-5062 3635 0
-5062 1245 0
5063 -1241 -1245 -3640 0
-5063 1241 0
-5063 1245 0
-5063 3640 0
-924 1246 5060 5061 5062 5063 0
924 -1246 0
924 -5060 0
924 -5061 0
924 -5062 0
924 -5063 0
5064 -1241 -3650 0
-5064 1241 0
-5064 3650 0
5065 -3635 -1248 0
-5065 3635 0
-5065 1248 0
5066 -3635 -3650 0
-5066 3635 0
-5066 3650 0
5067 -1241 -1248 -3640 0
-5067 1241 0
-5067 1248 0
-5067 3640 0
-922 1249 5064 5065 5066 5067 0
922 -1249 0
922 -5064 0
922 -5065 0
922 -5066 0
922 -5067 0
5068 -1251 -3650 0
-5068 1251 0
-5068 3650 0
5069 -3634 -3650 0
-5069 3634 0
-5069 3650 0
5070 -3634 -1248 0
-5070 3634 0
-5070 1248 0
5071 -1251 -1248 -3640 0
-5071 1251 0
-5071 1248 0
-5071 3640 0
-925 1252 5068 5069 5070 5071 0
925 -1252 0
925 -5068 0
925 -5069 0
925 -5070 0
925 -5071 0
5072 -1245 -3634 0
-5072 1245 0
-5072 3634 0
5073 -3645 -1251 0
-5073 3645 0
-5073 1251 0
5074 -3645 -3634 0
-5074 3645 0
-5074 3634 0
5075 -1245 -1251 -3640 0
-5075 1245 0
-5075 1251 0
-5075 3640 0
-923 1254 5072 5073 5074 5075 0
923 -1254 0
923 -5072 0
923 -5073 0
923 -5074 0
923 -5075 0
5076 -1245 -3645 0
-5076 1245 0
-5076 3645 0
5077 -3645 -3645 0
-5077 3645 0
-5077 3645 0
5078 -3645 -1245 0
-5078 3645 0
-5078 1245 0
5079 -1245 -1245 -3640 0
-5079 1245 0
-5079 1245 0
-5079 3640 0
-5080 1257 5076 5077 5078 5079 0
5080 -1257 0
5080 -5076 0
5080 -5077 0
5080 -5078 0
5080 -5079 0
5081 -3175 -3175 0
-5081 3175 0
-5081 3175 0
-5082 3182 5081 0
5082 -3182 0
5082 -5081 0
5083 -3175 -3187 0
-5083 3175 0
-5083 3187 0
-1059 3189 5083 0
1059 -3189 0
1059 -5083 0
5084 -3175 -3193 0
-5084 3175 0
-5084 3193 0
-1057 3196 5084 0
1057 -3196 0
1057 -5084 0
5085 -3198 -3193 0
-5085 3198 0
-5085 3193 0
-1060 3203 5085 0
1060 -3203 0
1060 -5085 0
5086 -3187 -3198 0
-5086 3187 0
-5086 3198 0
-1058 3208 5086 0
1058 -3208 0
1058 -5086 0
5087 -3187 -3187 0
-5087 3187 0
-5087 3187 0
-5088 3214 5087 0
5088 -3214 0
5088 -5087 0
5089 -2069 -2069 0
-5089 2069 0
-5089 2069 0
-5090 2076 5089 0
5090 -2076 0
5090 -5089 0
5091 -2069 -2081 0
-5091 2069 0
-5091 2081 0
-589 2083 5091 0
589 -2083 0
589 -5091 0
5092 -2069 -2087 0
-5092 2069 0
-5092 2087 0
-587 2090 5092 0
587 -2090 0
587 -5092 0
5093 -2092 -2087 0
-5093 2092 0
-5093 2087 0
-590 2097 5093 0
590 -2097 0
590 -5093 0
5094 -2081 -2092 0
-5094 2081 0
-5094 2092 0
-588 2102 5094 0
588 -2102 0
588 -5094 0
5095 -2081 -2081 0
-5095 2081 0
-5095 2081 0
-5096 2108 5095 0
5096 -2108 0
5096 -5095 0
5097 -1308 -1308 0
-5097 1308 0
-5097 1308 0
-5098 1311 5097 0
5098 -1311 0
5098 -5097 0
5099 -1308 -4733 0
-5099 1308 0
-5099 4733 0
-534 4735 5099 0
534 -4735 0
534 -5099 0
5100 -1308 -1305 0
-5100 1308 0
-5100 1305 0
-532 1299 5100 0
532 -1299 0
532 -5100 0
5101 -1306 -1305 0
-5101 1306 0
-5101 1305 0
-535 1302 5101 0
535 -1302 0
535 -5101 0
5102 -4733 -1306 0
-5102 4733 0
-5102 1306 0
-533 4748 5102 0
533 -4748 0
533 -5102 0
5103 -4733 -4733 0
-5103 4733 0
-5103 4733 0
-5104 4754 5103 0
5104 -4754 0
5104 -5103 0
5105 -3098 -4322 0
-5105 3098 0
-5105 4322 0
4323 -4322 -4322 0
-4323 4322 0
-4323 4322 0
5106 -4322 -3098 0
-5106 4322 0
-5106 3098 0
5107 -3098 -3098 -3829 0
-5107 3098 0
-5107 3098 0
-5107 3829 0
-5108 3100 5105 4323 5106 5107 0
5108 -3100 0
5108 -5105 0
5108 -4323 0
5108 -5106 0
5108 -5107 0
5109 -3098 -3831 0
-5109 3098 0
-5109 3831 0
5110 -4322 -3831 0
-5110 4322 0
-5110 3831 0
5111 -4322 -3102 0
-5111 4322 0
-5111 3102 0
5112 -3098 -3102 -3829 0
-5112 3098 0
-5112 3102 0
-5112 3829 0
-599 3103 5109 5110 5111 5112 0
599 -3103 0
599 -5109 0
599 -5110 0
599 -5111 0
599 -5112 0
5113 -3098 -3833 0
-5113 3098 0
-5113 3833 0
5114 -4322 -3105 0
-5114 4322 0
-5114 3105 0
5115 -4322 -3833 0
-5115 4322 0
-5115 3833 0
5116 -3098 -3105 -3829 0
-5116 3098 0
-5116 3105 0
-5116 3829 0
-597 3106 5113 5114 5115 5116 0
597 -3106 0
597 -5113 0
597 -5114 0
597 -5115 0
597 -5116 0
5117 -3108 -3833 0
-5117 3108 0
-5117 3833 0
5118 -3827 -3833 0
-5118 3827 0
-5118 3833 0
5119 -3827 -3105 0
-5119 3827 0
-5119 3105 0
5120 -3108 -3105 -3829 0
-5120 3108 0
-5120 3105 0
-5120 3829 0
-600 3109 5117 5118 5119 5120 0
600 -3109 0
600 -5117 0
600 -5118 0
600 -5119 0
600 -5120 0
5121 -3102 -3827 0
-5121 3102 0
-5121 3827 0
5122 -3831 -3108 0
-5122 3831 0
-5122 3108 0
5123 -3831 -3827 0
-5123 3831 0
-5123 3827 0
5124 -3102 -3108 -3829 0
-5124 3102 0
-5124 3108 0
-5124 3829 0
-598 3111 5121 5122 5123 5124 0
598 -3111 0
598 -5121 0
598 -5122 0
598 -5123 0
598 -5124 0
5125 -3102 -3831 0
-5125 3102 0
-5125 3831 0
5126 -3831 -3831 0
-5126 3831 0
-5126 3831 0
5127 -3831 -3102 0
-5127 3831 0
-5127 3102 0
5128 -3102 -3102 -3829 0
-5128 3102 0
-5128 3102 0
-5128 3829 0
-5129 3114 5125 5126 5127 5128 0
5129 -3114 0
5129 -5125 0
5129 -5126 0
5129 -5127 0
5129 -5128 0
5130 -1295 -4730 0
-5130 1295 0
-5130 4730 0
4750 -4730 -4730 0
-4750 4730 0
-4750 4730 0
5131 -4730 -1295 0
-5131 4730 0
-5131 1295 0
5132 -1295 -1295 -4754 0
-5132 1295 0
-5132 1295 0
-5132 4754 0
-5133 1297 5130 4750 5131 5132 0
5133 -1297 0
5133 -5130 0
5133 -4750 0
5133 -5131 0
5133 -5132 0
5134 -1295 -4735 0
-5134 1295 0
-5134 4735 0
5135 -4730 -4735 0
-5135 4730 0
-5135 4735 0
5136 -4730 -1299 0
-5136 4730 0
-5136 1299 0
5137 -1295 -1299 -4754 0
-5137 1295 0
-5137 1299 0
-5137 4754 0
-89 1300 5134 5135 5136 5137 0
89 -1300 0
89 -5134 0
89 -5135 0
89 -5136 0
89 -5137 0
5138 -1295 -4748 0
-5138 1295 0
-5138 4748 0
5139 -4730 -1302 0
-5139 4730 0
-5139 1302 0
5140 -4730 -4748 0
-5140 4730 0
-5140 4748 0
5141 -1295 -1302 -4754 0
-5141 1295 0
-5141 1302 0
-5141 4754 0
-87 1303 5138 5139 5140 5141 0
87 -1303 0
87 -5138 0
87 -5139 0
87 -5140 0
87 -5141 0
5142 -1305 -4748 0
-5142 1305 0
-5142 4748 0
5143 -4733 -4748 0
-5143 4733 0
-5143 4748 0
5144 -4733 -1302 0
-5144 4733 0
-5144 1302 0
5145 -1305 -1302 -4754 0
-5145 1305 0
-5145 1302 0
-5145 4754 0
-90 1306 5142 5143 5144 5145 0
90 -1306 0
90 -5142 0
90 -5143 0
90 -5144 0
90 -5145 0
5146 -1299 -4733 0
-5146 1299 0
-5146 4733 0
5147 -4735 -1305 0
-5147 4735 0
-5147 1305 0
5148 -4735 -4733 0
-5148 4735 0
-5148 4733 0
5149 -1299 -1305 -4754 0
-5149 1299 0
-5149 1305 0
-5149 4754 0
-88 1308 5146 5147 5148 5149 0
88 -1308 0
88 -5146 0
88 -5147 0
88 -5148 0
88 -5149 0
5150 -1299 -4735 0
-5150 1299 0
-5150 4735 0
5052 -4735 -4735 0
-5052 4735 0
-5052 4735 0
5151 -4735 -1299 0
-5151 4735 0
-5151 1299 0
5152 -1299 -1299 -4754 0
-5152 1299 0
-5152 1299 0
-5152 4754 0
-5153 1311 5150 5052 5151 5152 0
5153 -1311 0
5153 -5150 0
5153 -5052 0
5153 -5151 0
5153 -5152 0
5154 -2718 -2694 0
-5154 2718 0
-5154 2694 0
2695 -2694 -2694 0
-2695 2694 0
-2695 2694 0
5155 -2694 -2718 0
-5155 2694 0
-5155 2718 0
5156 -2718 -2718 -2700 0
-5156 2718 0
-5156 2718 0
-5156 2700 0
-5157 2698 5154 2695 5155 5156 0
5157 -2698 0
5157 -5154 0
5157 -2695 0
5157 -5155 0
5157 -5156 0
5158 -2718 -2707 0
-5158 2718 0
-5158 2707 0
5159 -2694 -2707 0
-5159 2694 0
-5159 2707 0
5160 -2694 -2726 0
-5160 2694 0
-5160 2726 0
5161 -2718 -2726 -2700 0
-5161 2718 0
-5161 2726 0
-5161 2700 0
-459 2702 5158 5159 5160 5161 0
459 -2702 0
459 -5158 0
459 -5159 0
459 -5160 0
459 -5161 0
5162 -2718 -2714 0
-5162 2718 0
-5162 2714 0
5163 -2694 -2721 0
-5163 2694 0
-5163 2721 0
5164 -2694 -2714 0
-5164 2694 0
-5164 2714 0
5165 -2718 -2721 -2700 0
-5165 2718 0
-5165 2721 0
-5165 2700 0
-457 2709 5162 5163 5164 5165 0
457 -2709 0
457 -5162 0
457 -5163 0
457 -5164 0
457 -5165 0
5166 -2716 -2714 0
-5166 2716 0
-5166 2714 0
5167 -2693 -2714 0
-5167 2693 0
-5167 2714 0
5168 -2693 -2721 0
-5168 2693 0
-5168 2721 0
5169 -2716 -2721 -2700 0
-5169 2716 0
-5169 2721 0
-5169 2700 0
-460 2711 5166 5167 5168 5169 0
460 -2711 0
460 -5166 0
460 -5167 0
460 -5168 0
460 -5169 0
5170 -2726 -2693 0
-5170 2726 0
-5170 2693 0
5171 -2707 -2716 0
-5171 2707 0
-5171 2716 0
5172 -2707 -2693 0
-5172 2707 0
-5172 2693 0
5173 -2726 -2716 -2700 0
-5173 2726 0
-5173 2716 0
-5173 2700 0
-458 2705 5170 5171 5172 5173 0
458 -2705 0
458 -5170 0
458 -5171 0
458 -5172 0
458 -5173 0
5174 -2726 -2707 0
-5174 2726 0
-5174 2707 0
5175 -2707 -2707 0
-5175 2707 0
-5175 2707 0
5176 -2707 -2726 0
-5176 2707 0
-5176 2726 0
5177 -2726 -2726 -2700 0
-5177 2726 0
-5177 2726 0
-5177 2700 0
-5178 2732 5174 5175 5176 5177 0
5178 -2732 0
5178 -5174 0
5178 -5175 0
5178 -5176 0
5178 -5177 0
5179 -3913 -5180 0
-5179 3913 0
-5179 5180 0
5181 -5180 -5180 0
-5181 5180 0
-5181 5180 0
5182 -5180 -3913 0
-5182 5180 0
-5182 3913 0
5183 -3913 -3913 -5184 0
-5183 3913 0
-5183 3913 0
-5183 5184 0
-5185 3915 5179 5181 5182 5183 0
5185 -3915 0
5185 -5179 0
5185 -5181 0
5185 -5182 0
5185 -5183 0
5186 -3913 -5187 0
-5186 3913 0
-5186 5187 0
5188 -5180 -5187 0
-5188 5180 0
-5188 5187 0
5189 -5180 -3917 0
-5189 5180 0
-5189 3917 0
5190 -3913 -3917 -5184 0
-5190 3913 0
-5190 3917 0
-5190 5184 0
-274 3918 5186 5188 5189 5190 0
274 -3918 0
274 -5186 0
274 -5188 0
274 -5189 0
274 -5190 0
5191 -3913 -5192 0
-5191 3913 0
-5191 5192 0
5193 -5180 -3920 0
-5193 5180 0
-5193 3920 0
5194 -5180 -5192 0
-5194 5180 0
-5194 5192 0
5195 -3913 -3920 -5184 0
-5195 3913 0
-5195 3920 0
-5195 5184 0
-272 3921 5191 5193 5194 5195 0
272 -3921 0
272 -5191 0
272 -5193 0
272 -5194 0
272 -5195 0
5196 -3923 -5192 0
-5196 3923 0
-5196 5192 0
5197 -5198 -5192 0
-5197 5198 0
-5197 5192 0
5199 -5198 -3920 0
-5199 5198 0
-5199 3920 0
5200 -3923 -3920 -5184 0
-5200 3923 0
-5200 3920 0
-5200 5184 0
-275 3924 5196 5197 5199 5200 0
275 -3924 0
275 -5196 0
275 -5197 0
275 -5199 0
275 -5200 0
5201 -3917 -5198 0
-5201 3917 0
-5201 5198 0
5202 -5187 -3923 0
-5202 5187 0
-5202 3923 0
5203 -5187 -5198 0
-5203 5187 0
-5203 5198 0
5204 -3917 -3923 -5184 0
-5204 3917 0
-5204 3923 0
-5204 5184 0
-273 3926 5201 5202 5203 5204 0
273 -3926 0
273 -5201 0
273 -5202 0
273 -5203 0
273 -5204 0
5205 -3917 -5187 0
-5205 3917 0
-5205 5187 0
5206 -5187 -5187 0
-5206 5187 0
-5206 5187 0
5207 -5187 -3917 0
-5207 5187 0
-5207 3917 0
5208 -3917 -3917 -5184 0
-5208 3917 0
-5208 3917 0
-5208 5184 0
-5209 3929 5205 5206 5207 5208 0
5209 -3929 0
5209 -5205 0
5209 -5206 0
5209 -5207 0
5209 -5208 0
5210 -3116 -5211 0
-5210 3116 0
-5210 5211 0
5212 -5211 -5211 0
-5212 5211 0
-5212 5211 0
5213 -5211 -3116 0
-5213 5211 0
-5213 3116 0
5214 -3116 -3116 -5215 0
-5214 3116 0
-5214 3116 0
-5214 5215 0
-5216 3118 5210 5212 5213 5214 0
5216 -3118 0
5216 -5210 0
5216 -5212 0
5216 -5213 0
5216 -5214 0
5217 -3116 -5218 0
-5217 3116 0
-5217 5218 0
5219 -5211 -5218 0
-5219 5211 0
-5219 5218 0
5220 -5211 -3120 0
-5220 5211 0
-5220 3120 0
5221 -3116 -3120 -5215 0
-5221 3116 0
-5221 3120 0
-5221 5215 0
-749 3121 5217 5219 5220 5221 0
749 -3121 0
749 -5217 0
749 -5219 0
749 -5220 0
749 -5221 0
5222 -3116 -5223 0
-5222 3116 0
-5222 5223 0
5224 -5211 -3123 0
-5224 5211 0
-5224 3123 0
5225 -5211 -5223 0
-5225 5211 0
-5225 5223 0
5226 -3116 -3123 -5215 0
-5226 3116 0
-5226 3123 0
-5226 5215 0
-747 3124 5222 5224 5225 5226 0
747 -3124 0
747 -5222 0
747 -5224 0
747 -5225 0
747 -5226 0
5227 -3126 -5223 0
-5227 3126 0
-5227 5223 0
5228 -5229 -5223 0
-5228 5229 0
-5228 5223 0
5230 -5229 -3123 0
-5230 5229 0
-5230 3123 0
5231 -3126 -3123 -5215 0
-5231 3126 0
-5231 3123 0
-5231 5215 0
-750 3127 5227 5228 5230 5231 0
750 -3127 0
750 -5227 0
750 -5228 0
750 -5230 0
750 -5231 0
5232 -3120 -5229 0
-5232 3120 0
-5232 5229 0
5233 -5218 -3126 0
-5233 5218 0
-5233 3126 0
5234 -5218 -5229 0
-5234 5218 0
-5234 5229 0
5235 -3120 -3126 -5215 0
-5235 3120 0
-5235 3126 0
-5235 5215 0
-748 3129 5232 5233 5234 5235 0
748 -3129 0
748 -5232 0
748 -5233 0
748 -5234 0
748 -5235 0
5236 -3120 -5218 0
-5236 3120 0
-5236 5218 0
5237 -5218 -5218 0
-5237 5218 0
-5237 5218 0
5238 -5218 -3120 0
-5238 5218 0
-5238 3120 0
5239 -3120 -3120 -5215 0
-5239 3120 0
-5239 3120 0
-5239 5215 0
-5240 3132 5236 5237 5238 5239 0
5240 -3132 0
5240 -5236 0
5240 -5237 0
5240 -5238 0
5240 -5239 0
5241 -5242 -5242 0
-5241 5242 0
-5241 5242 0
-5243 5244 5241 0
5243 -5244 0
5243 -5241 0
5245 -5242 -5246 0
-5245 5242 0
-5245 5246 0
-649 5247 5245 0
649 -5247 0
649 -5245 0
5248 -5242 -5249 0
-5248 5242 0
-5248 5249 0
-647 5250 5248 0
647 -5250 0
647 -5248 0
5251 -5252 -5249 0
-5251 5252 0
-5251 5249 0
-650 5253 5251 0
650 -5253 0
650 -5251 0
5254 -5246 -5252 0
-5254 5246 0
-5254 5252 0
-648 5255 5254 0
648 -5255 0
648 -5254 0
5256 -5246 -5246 0
-5256 5246 0
-5256 5246 0
-5257 5258 5256 0
5257 -5258 0
5257 -5256 0
5259 -2360 -2360 0
-5259 2360 0
-5259 2360 0
-5260 2366 5259 0
5260 -2366 0
5260 -5259 0
5261 -2360 -1716 0
-5261 2360 0
-5261 1716 0
-529 2342 5261 0
529 -2342 0
529 -5261 0
5262 -2360 -1714 0
-5262 2360 0
-5262 1714 0
-527 2345 5262 0
527 -2345 0
527 -5262 0
5263 -1713 -1714 0
-5263 1713 0
-5263 1714 0
-530 1710 5263 0
530 -1710 0
530 -5263 0
5264 -1716 -1713 0
-5264 1716 0
-5264 1713 0
-528 1707 5264 0
528 -1707 0
528 -5264 0
5265 -1716 -1716 0
-5265 1716 0
-5265 1716 0
-5266 1719 5265 0
5266 -1719 0
5266 -5265 0
5267 -4085 -5268 0
-5267 4085 0
-5267 5268 0
5269 -5268 -5268 0
-5269 5268 0
-5269 5268 0
5270 -5268 -4085 0
-5270 5268 0
-5270 4085 0
5271 -4085 -4085 -5272 0
-5271 4085 0
-5271 4085 0
-5271 5272 0
-5273 4087 5267 5269 5270 5271 0
5273 -4087 0
5273 -5267 0
5273 -5269 0
5273 -5270 0
5273 -5271 0
5274 -4085 -5275 0
-5274 4085 0
-5274 5275 0
5276 -5268 -5275 0
-5276 5268 0
-5276 5275 0
5277 -5268 -4089 0
-5277 5268 0
-5277 4089 0
5278 -4085 -4089 -5272 0
-5278 4085 0
-5278 4089 0
-5278 5272 0
-719 4090 5274 5276 5277 5278 0
719 -4090 0
719 -5274 0
719 -5276 0
719 -5277 0
719 -5278 0
5279 -4085 -5280 0
-5279 4085 0
-5279 5280 0
5281 -5268 -4092 0
-5281 5268 0
-5281 4092 0
5282 -5268 -5280 0
-5282 5268 0
-5282 5280 0
5283 -4085 -4092 -5272 0
-5283 4085 0
-5283 4092 0
-5283 5272 0
-717 4093 5279 5281 5282 5283 0
717 -4093 0
717 -5279 0
717 -5281 0
717 -5282 0
717 -5283 0
5284 -4095 -5280 0
-5284 4095 0
-5284 5280 0
5285 -5286 -5280 0
-5285 5286 0
-5285 5280 0
5287 -5286 -4092 0
-5287 5286 0
-5287 4092 0
5288 -4095 -4092 -5272 0
-5288 4095 0
-5288 4092 0
-5288 5272 0
-720 4096 5284 5285 5287 5288 0
720 -4096 0
720 -5284 0
720 -5285 0
720 -5287 0
720 -5288 0
5289 -4089 -5286 0
-5289 4089 0
-5289 5286 0
5290 -5275 -4095 0
-5290 5275 0
-5290 4095 0
5291 -5275 -5286 0
-5291 5275 0
-5291 5286 0
5292 -4089 -4095 -5272 0
-5292 4089 0
-5292 4095 0
-5292 5272 0
-718 4098 5289 5290 5291 5292 0
718 -4098 0
718 -5289 0
718 -5290 0
718 -5291 0
718 -5292 0
5293 -4089 -5275 0
-5293 4089 0
-5293 5275 0
5294 -5275 -5275 0
-5294 5275 0
-5294 5275 0
5295 -5275 -4089 0
-5295 5275 0
-5295 4089 0
5296 -4089 -4089 -5272 0
-5296 4089 0
-5296 4089 0
-5296 5272 0
-5297 4101 5293 5294 5295 5296 0
5297 -4101 0
5297 -5293 0
5297 -5294 0
5297 -5295 0
5297 -5296 0
5298 -2431 -2428 0
-5298 2431 0
-5298 2428 0
5299 -2428 -2428 0
-5299 2428 0
-5299 2428 0
5300 -2428 -2431 0
-5300 2428 0
-5300 2431 0
5301 -2431 -2431 -2439 0
-5301 2431 0
-5301 2431 0
-5301 2439 0
-5302 2425 5298 5299 5300 5301 0
5302 -2425 0
5302 -5298 0
5302 -5299 0
5302 -5300 0
5302 -5301 0
5303 -2431 -3792 0
-5303 2431 0
-5303 3792 0
5304 -2428 -3792 0
-5304 2428 0
-5304 3792 0
5305 -2428 -3796 0
-5305 2428 0
-5305 3796 0
5306 -2431 -3796 -2439 0
-5306 2431 0
-5306 3796 0
-5306 2439 0
-9 3841 5303 5304 5305 5306 0
9 -3841 0
9 -5303 0
9 -5304 0
9 -5305 0
9 -5306 0
5307 -2431 -2427 0
-5307 2431 0
-5307 2427 0
5308 -2428 -2430 0
-5308 2428 0
-5308 2430 0
5309 -2428 -2427 0
-5309 2428 0
-5309 2427 0
5310 -2431 -2430 -2439 0
-5310 2431 0
-5310 2430 0
-5310 2439 0
-7 2423 5307 5308 5309 5310 0
7 -2423 0
7 -5307 0
7 -5308 0
7 -5309 0
7 -5310 0
5311 -2434 -2427 0
-5311 2434 0
-5311 2427 0
5312 -2436 -2427 0
-5312 2436 0
-5312 2427 0
5313 -2436 -2430 0
-5313 2436 0
-5313 2430 0
5314 -2434 -2430 -2439 0
-5314 2434 0
-5314 2430 0
-5314 2439 0
-10 2433 5311 5312 5313 5314 0
10 -2433 0
10 -5311 0
10 -5312 0
10 -5313 0
10 -5314 0
5315 -3796 -2436 0
-5315 3796 0
-5315 2436 0
5316 -3792 -2434 0
-5316 3792 0
-5316 2434 0
5317 -3792 -2436 0
-5317 3792 0
-5317 2436 0
5318 -3796 -2434 -2439 0
-5318 3796 0
-5318 2434 0
-5318 2439 0
-8 3791 5315 5316 5317 5318 0
8 -3791 0
8 -5315 0
8 -5316 0
8 -5317 0
8 -5318 0
5319 -3796 -3792 0
-5319 3796 0
-5319 3792 0
5320 -3792 -3792 0
-5320 3792 0
-5320 3792 0
5321 -3792 -3796 0
-5321 3792 0
-5321 3796 0
5322 -3796 -3796 -2439 0
-5322 3796 0
-5322 3796 0
-5322 2439 0
-5323 3799 5319 5320 5321 5322 0
5323 -3799 0
5323 -5319 0
5323 -5320 0
5323 -5321 0
5323 -5322 0
5324 -3241 -3241 0
-5324 3241 0
-5324 3241 0
-5325 3248 5324 0
5325 -3248 0
5325 -5324 0
5326 -3241 -3253 0
-5326 3241 0
-5326 3253 0
-744 3255 5326 0
744 -3255 0
744 -5326 0
5327 -3241 -3259 0
-5327 3241 0
-5327 3259 0
-742 3262 5327 0
742 -3262 0
742 -5327 0
5328 -3264 -3259 0
-5328 3264 0
-5328 3259 0
-745 3269 5328 0
745 -3269 0
745 -5328 0
5329 -3253 -3264 0
-5329 3253 0
-5329 3264 0
-743 3274 5329 0
743 -3274 0
743 -5329 0
5330 -3253 -3253 0
-5330 3253 0
-5330 3253 0
-5331 3280 5330 0
5331 -3280 0
5331 -5330 0
5332 -1685 -1929 0
-5332 1685 0
-5332 1929 0
3406 -1929 -1929 0
-3406 1929 0
-3406 1929 0
5333 -1929 -1685 0
-5333 1929 0
-5333 1685 0
5334 -1685 -1685 -1948 0
-5334 1685 0
-5334 1685 0
-5334 1948 0
-5335 1687 5332 3406 5333 5334 0
5335 -1687 0
5335 -5332 0
5335 -3406 0
5335 -5333 0
5335 -5334 0
5336 -1685 -1924 0
-5336 1685 0
-5336 1924 0
5337 -1929 -1924 0
-5337 1929 0
-5337 1924 0
5338 -1929 -1689 0
-5338 1929 0
-5338 1689 0
5339 -1685 -1689 -1948 0
-5339 1685 0
-5339 1689 0
-5339 1948 0
-844 1690 5336 5337 5338 5339 0
844 -1690 0
844 -5336 0
844 -5337 0
844 -5338 0
844 -5339 0
5340 -1685 -1927 0
-5340 1685 0
-5340 1927 0
5341 -1929 -1692 0
-5341 1929 0
-5341 1692 0
5342 -1929 -1927 0
-5342 1929 0
-5342 1927 0
5343 -1685 -1692 -1948 0
-5343 1685 0
-5343 1692 0
-5343 1948 0
-842 1693 5340 5341 5342 5343 0
842 -1693 0
842 -5340 0
842 -5341 0
842 -5342 0
842 -5343 0
5344 -1695 -1927 0
-5344 1695 0
-5344 1927 0
5345 -1942 -1927 0
-5345 1942 0
-5345 1927 0
5346 -1942 -1692 0
-5346 1942 0
-5346 1692 0
5347 -1695 -1692 -1948 0
-5347 1695 0
-5347 1692 0
-5347 1948 0
-845 1696 5344 5345 5346 5347 0
845 -1696 0
845 -5344 0
845 -5345 0
845 -5346 0
845 -5347 0
5348 -1689 -1942 0
-5348 1689 0
-5348 1942 0
5349 -1924 -1695 0
-5349 1924 0
-5349 1695 0
5350 -1924 -1942 0
-5350 1924 0
-5350 1942 0
5351 -1689 -1695 -1948 0
-5351 1689 0
-5351 1695 0
-5351 1948 0
-843 1698 5348 5349 5350 5351 0
843 -1698 0
843 -5348 0
843 -5349 0
843 -5350 0
843 -5351 0
5352 -1689 -1924 0
-5352 1689 0
-5352 1924 0
1944 -1924 -1924 0
-1944 1924 0
-1944 1924 0
5353 -1924 -1689 0
-5353 1924 0
-5353 1689 0
5354 -1689 -1689 -1948 0
-5354 1689 0
-5354 1689 0
-5354 1948 0
-5355 1701 5352 1944 5353 5354 0
5355 -1701 0
5355 -5352 0
5355 -1944 0
5355 -5353 0
5355 -5354 0
5356 -5357 -5358 0
-5356 5357 0
-5356 5358 0
5359 -5358 -5358 0
-5359 5358 0
-5359 5358 0
5360 -5358 -5357 0
-5360 5358 0
-5360 5357 0
5361 -5357 -5357 -5362 0
-5361 5357 0
-5361 5357 0
-5361 5362 0
-5363 5364 5356 5359 5360 5361 0
5363 -5364 0
5363 -5356 0
5363 -5359 0
5363 -5360 0
5363 -5361 0
5365 -5357 -5366 0
-5365 5357 0
-5365 5366 0
5367 -5358 -5366 0
-5367 5358 0
-5367 5366 0
5368 -5358 -5369 0
-5368 5358 0
-5368 5369 0
5370 -5357 -5369 -5362 0
-5370 5357 0
-5370 5369 0
-5370 5362 0
-304 5371 5365 5367 5368 5370 0
304 -5371 0
304 -5365 0
304 -5367 0
304 -5368 0
304 -5370 0
5372 -5357 -5373 0
-5372 5357 0
-5372 5373 0
5374 -5358 -5375 0
-5374 5358 0
-5374 5375 0
5376 -5358 -5373 0
-5376 5358 0
-5376 5373 0
5377 -5357 -5375 -5362 0
-5377 5357 0
-5377 5375 0
-5377 5362 0
-302 5378 5372 5374 5376 5377 0
302 -5378 0
302 -5372 0
302 -5374 0
302 -5376 0
302 -5377 0
5379 -5380 -5373 0
-5379 5380 0
-5379 5373 0
5381 -5382 -5373 0
-5381 5382 0
-5381 5373 0
5383 -5382 -5375 0
-5383 5382 0
-5383 5375 0
5384 -5380 -5375 -5362 0
-5384 5380 0
-5384 5375 0
-5384 5362 0
-305 5385 5379 5381 5383 5384 0
305 -5385 0
305 -5379 0
305 -5381 0
305 -5383 0
305 -5384 0
5386 -5369 -5382 0
-5386 5369 0
-5386 5382 0
5387 -5366 -5380 0
-5387 5366 0
-5387 5380 0
5388 -5366 -5382 0
-5388 5366 0
-5388 5382 0
5389 -5369 -5380 -5362 0
-5389 5369 0
-5389 5380 0
-5389 5362 0
-303 5390 5386 5387 5388 5389 0
303 -5390 0
303 -5386 0
303 -5387 0
303 -5388 0
303 -5389 0
5391 -5369 -5366 0
-5391 5369 0
-5391 5366 0
5392 -5366 -5366 0
-5392 5366 0
-5392 5366 0
5393 -5366 -5369 0
-5393 5366 0
-5393 5369 0
5394 -5369 -5369 -5362 0
-5394 5369 0
-5394 5369 0
-5394 5362 0
-5395 5396 5391 5392 5393 5394 0
5395 -5396 0
5395 -5391 0
5395 -5392 0
5395 -5393 0
5395 -5394 0
5397 -2231 -5398 0
-5397 2231 0
-5397 5398 0
5399 -5398 -5398 0
-5399 5398 0
-5399 5398 0
5400 -5398 -2231 0
-5400 5398 0
-5400 2231 0
5401 -2231 -2231 -2370 0
-5401 2231 0
-5401 2231 0
-5401 2370 0
-5402 2233 5397 5399 5400 5401 0
5402 -2233 0
5402 -5397 0
5402 -5399 0
5402 -5400 0
5402 -5401 0
5403 -2231 -2372 0
-5403 2231 0
-5403 2372 0
5404 -5398 -2372 0
-5404 5398 0
-5404 2372 0
5405 -5398 -2235 0
-5405 5398 0
-5405 2235 0
5406 -2231 -2235 -2370 0
-5406 2231 0
-5406 2235 0
-5406 2370 0
-569 2236 5403 5404 5405 5406 0
569 -2236 0
569 -5403 0
569 -5404 0
569 -5405 0
569 -5406 0
5407 -2231 -2374 0
-5407 2231 0
-5407 2374 0
5408 -5398 -2238 0
-5408 5398 0
-5408 2238 0
5409 -5398 -2374 0
-5409 5398 0
-5409 2374 0
5410 -2231 -2238 -2370 0
-5410 2231 0
-5410 2238 0
-5410 2370 0
-567 2239 5407 5408 5409 5410 0
567 -2239 0
567 -5407 0
567 -5408 0
567 -5409 0
567 -5410 0
5411 -2241 -2374 0
-5411 2241 0
-5411 2374 0
5412 -2368 -2374 0
-5412 2368 0
-5412 2374 0
5413 -2368 -2238 0
-5413 2368 0
-5413 2238 0
5414 -2241 -2238 -2370 0
-5414 2241 0
-5414 2238 0
-5414 2370 0
-570 2242 5411 5412 5413 5414 0
570 -2242 0
570 -5411 0
570 -5412 0
570 -5413 0
570 -5414 0
5415 -2235 -2368 0
-5415 2235 0
-5415 2368 0
5416 -2372 -2241 0
-5416 2372 0
-5416 2241 0
5417 -2372 -2368 0
-5417 2372 0
-5417 2368 0
5418 -2235 -2241 -2370 0
-5418 2235 0
-5418 2241 0
-5418 2370 0
-568 2244 5415 5416 5417 5418 0
568 -2244 0
568 -5415 0
568 -5416 0
568 -5417 0
568 -5418 0
5419 -2235 -2372 0
-5419 2235 0
-5419 2372 0
5420 -2372 -2372 0
-5420 2372 0
-5420 2372 0
5421 -2372 -2235 0
-5421 2372 0
-5421 2235 0
5422 -2235 -2235 -2370 0
-5422 2235 0
-5422 2235 0
-5422 2370 0
-5423 2247 5419 5420 5421 5422 0
5423 -2247 0
5423 -5419 0
5423 -5420 0
5423 -5421 0
5423 -5422 0
5424 -2761 -4576 0
-5424 2761 0
-5424 4576 0
4577 -4576 -4576 0
-4577 4576 0
-4577 4576 0
5425 -4576 -2761 0
-5425 4576 0
-5425 2761 0
5426 -2761 -2761 -3358 0
-5426 2761 0
-5426 2761 0
-5426 3358 0
-5427 2763 5424 4577 5425 5426 0
5427 -2763 0
5427 -5424 0
5427 -4577 0
5427 -5425 0
5427 -5426 0
5428 -2761 -3360 0
-5428 2761 0
-5428 3360 0
5429 -4576 -3360 0
-5429 4576 0
-5429 3360 0
5430 -4576 -2765 0
-5430 4576 0
-5430 2765 0
5431 -2761 -2765 -3358 0
-5431 2761 0
-5431 2765 0
-5431 3358 0
-964 2766 5428 5429 5430 5431 0
964 -2766 0
964 -5428 0
964 -5429 0
964 -5430 0
964 -5431 0
5432 -2761 -3362 0
-5432 2761 0
-5432 3362 0
5433 -4576 -2768 0
-5433 4576 0
-5433 2768 0
5434 -4576 -3362 0
-5434 4576 0
-5434 3362 0
5435 -2761 -2768 -3358 0
-5435 2761 0
-5435 2768 0
-5435 3358 0
-962 2769 5432 5433 5434 5435 0
962 -2769 0
962 -5432 0
962 -5433 0
962 -5434 0
962 -5435 0
5436 -2771 -3362 0
-5436 2771 0
-5436 3362 0
5437 -3356 -3362 0
-5437 3356 0
-5437 3362 0
5438 -3356 -2768 0
-5438 3356 0
-5438 2768 0
5439 -2771 -2768 -3358 0
-5439 2771 0
-5439 2768 0
-5439 3358 0
-965 2772 5436 5437 5438 5439 0
965 -2772 0
965 -5436 0
965 -5437 0
965 -5438 0
965 -5439 0
5440 -2765 -3356 0
-5440 2765 0
-5440 3356 0
5441 -3360 -2771 0
-5441 3360 0
-5441 2771 0
5442 -3360 -3356 0
-5442 3360 0
-5442 3356 0
5443 -2765 -2771 -3358 0
-5443 2765 0
-5443 2771 0
-5443 3358 0
-963 2774 5440 5441 5442 5443 0
963 -2774 0
963 -5440 0
963 -5441 0
963 -5442 0
963 -5443 0
5444 -2765 -3360 0
-5444 2765 0
-5444 3360 0
5445 -3360 -3360 0
-5445 3360 0
-5445 3360 0
5446 -3360 -2765 0
-5446 3360 0
-5446 2765 0
5447 -2765 -2765 -3358 0
-5447 2765 0
-5447 2765 0
-5447 3358 0
-5448 2777 5444 5445 5446 5447 0
5448 -2777 0
5448 -5444 0
5448 -5445 0
5448 -5446 0
5448 -5447 0
5449 -1472 -5450 0
-5449 1472 0
-5449 5450 0
5451 -5450 -5450 0
-5451 5450 0
-5451 5450 0
5452 -5450 -1472 0
-5452 5450 0
-5452 1472 0
5453 -1472 -1472 -2529 0
-5453 1472 0
-5453 1472 0
-5453 2529 0
-5454 1474 5449 5451 5452 5453 0
5454 -1474 0
5454 -5449 0
5454 -5451 0
5454 -5452 0
5454 -5453 0
5455 -1472 -2531 0
-5455 1472 0
-5455 2531 0
5456 -5450 -2531 0
-5456 5450 0
-5456 2531 0
5457 -5450 -1476 0
-5457 5450 0
-5457 1476 0
5458 -1472 -1476 -2529 0
-5458 1472 0
-5458 1476 0
-5458 2529 0
-14 1477 5455 5456 5457 5458 0
14 -1477 0
14 -5455 0
14 -5456 0
14 -5457 0
14 -5458 0
5459 -1472 -2533 0
-5459 1472 0
-5459 2533 0
5460 -5450 -1479 0
-5460 5450 0
-5460 1479 0
5461 -5450 -2533 0
-5461 5450 0
-5461 2533 0
5462 -1472 -1479 -2529 0
-5462 1472 0
-5462 1479 0
-5462 2529 0
-12 1480 5459 5460 5461 5462 0
12 -1480 0
12 -5459 0
12 -5460 0
12 -5461 0
12 -5462 0
5463 -1482 -2533 0
-5463 1482 0
-5463 2533 0
5464 -2527 -2533 0
-5464 2527 0
-5464 2533 0
5465 -2527 -1479 0
-5465 2527 0
-5465 1479 0
5466 -1482 -1479 -2529 0
-5466 1482 0
-5466 1479 0
-5466 2529 0
-15 1483 5463 5464 5465 5466 0
15 -1483 0
15 -5463 0
15 -5464 0
15 -5465 0
15 -5466 0
5467 -1476 -2527 0
-5467 1476 0
-5467 2527 0
5468 -2531 -1482 0
-5468 2531 0
-5468 1482 0
5469 -2531 -2527 0
-5469 2531 0
-5469 2527 0
5470 -1476 -1482 -2529 0
-5470 1476 0
-5470 1482 0
-5470 2529 0
-13 1485 5467 5468 5469 5470 0
13 -1485 0
13 -5467 0
13 -5468 0
13 -5469 0
13 -5470 0
5471 -1476 -2531 0
-5471 1476 0
-5471 2531 0
5472 -2531 -2531 0
-5472 2531 0
-5472 2531 0
5473 -2531 -1476 0
-5473 2531 0
-5473 1476 0
5474 -1476 -1476 -2529 0
-5474 1476 0
-5474 1476 0
-5474 2529 0
-5475 1488 5471 5472 5473 5474 0
5475 -1488 0
5475 -5471 0
5475 -5472 0
5475 -5473 0
5475 -5474 0
5476 -3282 -3282 0
-5476 3282 0
-5476 3282 0
-5477 3289 5476 0
5477 -3289 0
5477 -5476 0
5478 -3282 -3294 0
-5478 3282 0
-5478 3294 0
-1054 3296 5478 0
1054 -3296 0
1054 -5478 0
5479 -3282 -3300 0
-5479 3282 0
-5479 3300 0
-1052 3303 5479 0
1052 -3303 0
1052 -5479 0
5480 -3305 -3300 0
-5480 3305 0
-5480 3300 0
-1055 3310 5480 0
1055 -3310 0
1055 -5480 0
5481 -3294 -3305 0
-5481 3294 0
-5481 3305 0
-1053 3315 5481 0
1053 -3315 0
1053 -5481 0
5482 -3294 -3294 0
-5482 3294 0
-5482 3294 0
-5483 3321 5482 0
5483 -3321 0
5483 -5482 0
5484 -1875 -5485 0
-5484 1875 0
-5484 5485 0
5486 -5485 -5485 0
-5486 5485 0
-5486 5485 0
5487 -5485 -1875 0
-5487 5485 0
-5487 1875 0
5488 -1875 -1875 -5489 0
-5488 1875 0
-5488 1875 0
-5488 5489 0
-5490 1877 5484 5486 5487 5488 0
5490 -1877 0
5490 -5484 0
5490 -5486 0
5490 -5487 0
5490 -5488 0
5491 -1875 -5492 0
-5491 1875 0
-5491 5492 0
5493 -5485 -5492 0
-5493 5485 0
-5493 5492 0
5494 -5485 -1879 0
-5494 5485 0
-5494 1879 0
5495 -1875 -1879 -5489 0
-5495 1875 0
-5495 1879 0
-5495 5489 0
-659 1880 5491 5493 5494 5495 0
659 -1880 0
659 -5491 0
659 -5493 0
659 -5494 0
659 -5495 0
5496 -1875 -5497 0
-5496 1875 0
-5496 5497 0
5498 -5485 -1882 0
-5498 5485 0
-5498 1882 0
5499 -5485 -5497 0
-5499 5485 0
-5499 5497 0
5500 -1875 -1882 -5489 0
-5500 1875 0
-5500 1882 0
-5500 5489 0
-657 1883 5496 5498 5499 5500 0
657 -1883 0
657 -5496 0
657 -5498 0
657 -5499 0
657 -5500 0
5501 -1885 -5497 0
-5501 1885 0
-5501 5497 0
5502 -5503 -5497 0
-5502 5503 0
-5502 5497 0
5504 -5503 -1882 0
-5504 5503 0
-5504 1882 0
5505 -1885 -1882 -5489 0
-5505 1885 0
-5505 1882 0
-5505 5489 0
-660 1886 5501 5502 5504 5505 0
660 -1886 0
660 -5501 0
660 -5502 0
660 -5504 0
660 -5505 0
5506 -1879 -5503 0
-5506 1879 0
-5506 5503 0
5507 -5492 -1885 0
-5507 5492 0
-5507 1885 0
5508 -5492 -5503 0
-5508 5492 0
-5508 5503 0
5509 -1879 -1885 -5489 0
-5509 1879 0
-5509 1885 0
-5509 5489 0
-658 1888 5506 5507 5508 5509 0
658 -1888 0
658 -5506 0
658 -5507 0
658 -5508 0
658 -5509 0
5510 -1879 -5492 0
-5510 1879 0
-5510 5492 0
5511 -5492 -5492 0
-5511 5492 0
-5511 5492 0
5512 -5492 -1879 0
-5512 5492 0
-5512 1879 0
5513 -1879 -1879 -5489 0
-5513 1879 0
-5513 1879 0
-5513 5489 0
-5514 1891 5510 5511 5512 5513 0
5514 -1891 0
5514 -5510 0
5514 -5511 0
5514 -5512 0
5514 -5513 0
5515 -3748 -3748 0
-5515 3748 0
-5515 3748 0
-5516 3755 5515 0
5516 -3755 0
5516 -5515 0
5517 -3748 -3760 0
-5517 3748 0
-5517 3760 0
-574 3762 5517 0
574 -3762 0
574 -5517 0
5518 -3748 -3766 0
-5518 3748 0
-5518 3766 0
-572 3769 5518 0
572 -3769 0
572 -5518 0
5519 -3771 -3766 0
-5519 3771 0
-5519 3766 0
-575 3776 5519 0
575 -3776 0
575 -5519 0
5520 -3760 -3771 0
-5520 3760 0
-5520 3771 0
-573 3781 5520 0
573 -3781 0
573 -5520 0
5521 -3760 -3760 0
-5521 3760 0
-5521 3760 0
-5522 3787 5521 0
5522 -3787 0
5522 -5521 0
5523 -5524 -5525 0
-5523 5524 0
-5523 5525 0
5526 -5525 -5525 0
-5526 5525 0
-5526 5525 0
5527 -5525 -5524 0
-5527 5525 0
-5527 5524 0
5528 -5524 -5524 -5529 0
-5528 5524 0
-5528 5524 0
-5528 5529 0
-5530 5531 5523 5526 5527 5528 0
5530 -5531 0
5530 -5523 0
5530 -5526 0
5530 -5527 0
5530 -5528 0
5532 -5524 -5533 0
-5532 5524 0
-5532 5533 0
5534 -5525 -5533 0
-5534 5525 0
-5534 5533 0
5535 -5525 -5536 0
-5535 5525 0
-5535 5536 0
5537 -5524 -5536 -5529 0
-5537 5524 0
-5537 5536 0
-5537 5529 0
-1124 5538 5532 5534 5535 5537 0
1124 -5538 0
1124 -5532 0
1124 -5534 0
1124 -5535 0
1124 -5537 0
5539 -5524 -5540 0
-5539 5524 0
-5539 5540 0
5541 -5525 -5542 0
-5541 5525 0
-5541 5542 0
5543 -5525 -5540 0
-5543 5525 0
-5543 5540 0
5544 -5524 -5542 -5529 0
-5544 5524 0
-5544 5542 0
-5544 5529 0
-1122 5545 5539 5541 5543 5544 0
1122 -5545 0
1122 -5539 0
1122 -5541 0
1122 -5543 0
1122 -5544 0
5546 -5547 -5540 0
-5546 5547 0
-5546 5540 0
5548 -5549 -5540 0
-5548 5549 0
-5548 5540 0
5550 -5549 -5542 0
-5550 5549 0
-5550 5542 0
5551 -5547 -5542 -5529 0
-5551 5547 0
-5551 5542 0
-5551 5529 0
-1125 5552 5546 5548 5550 5551 0
1125 -5552 0
1125 -5546 0
1125 -5548 0
1125 -5550 0
1125 -5551 0
5553 -5536 -5549 0
-5553 5536 0
-5553 5549 0
5554 -5533 -5547 0
-5554 5533 0
-5554 5547 0
5555 -5533 -5549 0
-5555 5533 0
-5555 5549 0
5556 -5536 -5547 -5529 0
-5556 5536 0
-5556 5547 0
-5556 5529 0
-1123 5557 5553 5554 5555 5556 0
1123 -5557 0
1123 -5553 0
1123 -5554 0
1123 -5555 0
1123 -5556 0
5558 -5536 -5533 0
-5558 5536 0
-5558 5533 0
5559 -5533 -5533 0
-5559 5533 0
-5559 5533 0
5560 -5533 -5536 0
-5560 5533 0
-5560 5536 0
5561 -5536 -5536 -5529 0
-5561 5536 0
-5561 5536 0
-5561 5529 0
-5562 5563 5558 5559 5560 5561 0
5562 -5563 0
5562 -5558 0
5562 -5559 0
5562 -5560 0
5562 -5561 0
5564 -2474 -2474 0
-5564 2474 0
-5564 2474 0
-5565 2481 5564 0
5565 -2481 0
5565 -5564 0
5566 -2474 -2486 0
-5566 2474 0
-5566 2486 0
-484 2488 5566 0
484 -2488 0
484 -5566 0
5567 -2474 -2492 0
-5567 2474 0
-5567 2492 0
-482 2495 5567 0
482 -2495 0
482 -5567 0
5568 -2497 -2492 0
-5568 2497 0
-5568 2492 0
-485 2502 5568 0
485 -2502 0
485 -5568 0
5569 -2486 -2497 0
-5569 2486 0
-5569 2497 0
-483 2507 5569 0
483 -2507 0
483 -5569 0
5570 -2486 -2486 0
-5570 2486 0
-5570 2486 0
-5571 2513 5570 0
5571 -2513 0
5571 -5570 0
5572 -3368 -4225 0
-5572 3368 0
-5572 4225 0
4226 -4225 -4225 0
-4226 4225 0
-4226 4225 0
5573 -4225 -3368 0
-5573 4225 0
-5573 3368 0
5574 -3368 -3368 -4230 0
-5574 3368 0
-5574 3368 0
-5574 4230 0
-5575 3370 5572 4226 5573 5574 0
5575 -3370 0
5575 -5572 0
5575 -4226 0
5575 -5573 0
5575 -5574 0
5576 -3368 -4235 0
-5576 3368 0
-5576 4235 0
5577 -4225 -4235 0
-5577 4225 0
-5577 4235 0
5578 -4225 -3372 0
-5578 4225 0
-5578 3372 0
5579 -3368 -3372 -4230 0
-5579 3368 0
-5579 3372 0
-5579 4230 0
-164 3373 5576 5577 5578 5579 0
164 -3373 0
164 -5576 0
164 -5577 0
164 -5578 0
164 -5579 0
5580 -3368 -4240 0
-5580 3368 0
-5580 4240 0
5581 -4225 -3375 0
-5581 4225 0
-5581 3375 0
5582 -4225 -4240 0
-5582 4225 0
-5582 4240 0
5583 -3368 -3375 -4230 0
-5583 3368 0
-5583 3375 0
-5583 4230 0
-162 3376 5580 5581 5582 5583 0
162 -3376 0
162 -5580 0
162 -5581 0
162 -5582 0
162 -5583 0
5584 -3378 -4240 0
-5584 3378 0
-5584 4240 0
5585 -4224 -4240 0
-5585 4224 0
-5585 4240 0
5586 -4224 -3375 0
-5586 4224 0
-5586 3375 0
5587 -3378 -3375 -4230 0
-5587 3378 0
-5587 3375 0
-5587 4230 0
-165 3379 5584 5585 5586 5587 0
165 -3379 0
165 -5584 0
165 -5585 0
165 -5586 0
165 -5587 0
5588 -3372 -4224 0
-5588 3372 0
-5588 4224 0
5589 -4235 -3378 0
-5589 4235 0
-5589 3378 0
5590 -4235 -4224 0
-5590 4235 0
-5590 4224 0
5591 -3372 -3378 -4230 0
-5591 3372 0
-5591 3378 0
-5591 4230 0
-163 3381 5588 5589 5590 5591 0
163 -3381 0
163 -5588 0
163 -5589 0
163 -5590 0
163 -5591 0
5592 -3372 -4235 0
-5592 3372 0
-5592 4235 0
5593 -4235 -4235 0
-5593 4235 0
-5593 4235 0
5594 -4235 -3372 0
-5594 4235 0
-5594 3372 0
5595 -3372 -3372 -4230 0
-5595 3372 0
-5595 3372 0
-5595 4230 0
-5596 3384 5592 5593 5594 5595 0
5596 -3384 0
5596 -5592 0
5596 -5593 0
5596 -5594 0
5596 -5595 0
5597 -2515 -2982 0
-5597 2515 0
-5597 2982 0
3723 -2982 -2982 0
-3723 2982 0
-3723 2982 0
5598 -2982 -2515 0
-5598 2982 0
-5598 2515 0
5599 -2515 -2515 -1225 0
-5599 2515 0
-5599 2515 0
-5599 1225 0
-5600 2517 5597 3723 5598 5599 0
5600 -2517 0
5600 -5597 0
5600 -3723 0
5600 -5598 0
5600 -5599 0
5601 -2515 -1228 0
-5601 2515 0
-5601 1228 0
5602 -2982 -1228 0
-5602 2982 0
-5602 1228 0
5603 -2982 -1236 0
-5603 2982 0
-5603 1236 0
5604 -2515 -1236 -1225 0
-5604 2515 0
-5604 1236 0
-5604 1225 0
-194 2519 5601 5602 5603 5604 0
194 -2519 0
194 -5601 0
194 -5602 0
194 -5603 0
194 -5604 0
5605 -2515 -1231 0
-5605 2515 0
-5605 1231 0
5606 -2982 -1234 0
-5606 2982 0
-5606 1234 0
5607 -2982 -1231 0
-5607 2982 0
-5607 1231 0
5608 -2515 -1234 -1225 0
-5608 2515 0
-5608 1234 0
-5608 1225 0
-192 2521 5605 5606 5607 5608 0
192 -2521 0
192 -5605 0
192 -5606 0
192 -5607 0
192 -5608 0
5609 -1233 -1231 0
-5609 1233 0
-5609 1231 0
5610 -1223 -1231 0
-5610 1223 0
-5610 1231 0
5611 -1223 -1234 0
-5611 1223 0
-5611 1234 0
5612 -1233 -1234 -1225 0
-5612 1233 0
-5612 1234 0
-5612 1225 0
-195 1230 5609 5610 5611 5612 0
195 -1230 0
195 -5609 0
195 -5610 0
195 -5611 0
195 -5612 0
5613 -1236 -1223 0
-5613 1236 0
-5613 1223 0
5614 -1228 -1233 0
-5614 1228 0
-5614 1233 0
5615 -1228 -1223 0
-5615 1228 0
-5615 1223 0
5616 -1236 -1233 -1225 0
-5616 1236 0
-5616 1233 0
-5616 1225 0
-193 1227 5613 5614 5615 5616 0
193 -1227 0
193 -5613 0
193 -5614 0
193 -5615 0
193 -5616 0
5617 -1236 -1228 0
-5617 1236 0
-5617 1228 0
3411 -1228 -1228 0
-3411 1228 0
-3411 1228 0
5618 -1228 -1236 0
-5618 1228 0
-5618 1236 0
5619 -1236 -1236 -1225 0
-5619 1236 0
-5619 1236 0
-5619 1225 0
-5620 1239 5617 3411 5618 5619 0
5620 -1239 0
5620 -5617 0
5620 -3411 0
5620 -5618 0
5620 -5619 0
5621 -1950 -5622 0
-5621 1950 0
-5621 5622 0
5623 -5622 -5622 0
-5623 5622 0
-5623 5622 0
5624 -5622 -1950 0
-5624 5622 0
-5624 1950 0
5625 -1950 -1950 -5626 0
-5625 1950 0
-5625 1950 0
-5625 5626 0
-5627 1952 5621 5623 5624 5625 0
5627 -1952 0
5627 -5621 0
5627 -5623 0
5627 -5624 0
5627 -5625 0
5628 -1950 -5629 0
-5628 1950 0
-5628 5629 0
5630 -5622 -5629 0
-5630 5622 0
-5630 5629 0
5631 -5622 -1954 0
-5631 5622 0
-5631 1954 0
5632 -1950 -1954 -5626 0
-5632 1950 0
-5632 1954 0
-5632 5626 0
-334 1955 5628 5630 5631 5632 0
334 -1955 0
334 -5628 0
334 -5630 0
334 -5631 0
334 -5632 0
5633 -1950 -5634 0
-5633 1950 0
-5633 5634 0
5635 -5622 -1957 0
-5635 5622 0
-5635 1957 0
5636 -5622 -5634 0
-5636 5622 0
-5636 5634 0
5637 -1950 -1957 -5626 0
-5637 1950 0
-5637 1957 0
-5637 5626 0
-332 1958 5633 5635 5636 5637 0
332 -1958 0
332 -5633 0
332 -5635 0
332 -5636 0
332 -5637 0
5638 -1960 -5634 0
-5638 1960 0
-5638 5634 0
5639 -5640 -5634 0
-5639 5640 0
-5639 5634 0
5641 -5640 -1957 0
-5641 5640 0
-5641 1957 0
5642 -1960 -1957 -5626 0
-5642 1960 0
-5642 1957 0
-5642 5626 0
-335 1961 5638 5639 5641 5642 0
335 -1961 0
335 -5638 0
335 -5639 0
335 -5641 0
335 -5642 0
5643 -1954 -5640 0
-5643 1954 0
-5643 5640 0
5644 -5629 -1960 0
-5644 5629 0
-5644 1960 0
5645 -5629 -5640 0
-5645 5629 0
-5645 5640 0
5646 -1954 -1960 -5626 0
-5646 1954 0
-5646 1960 0
-5646 5626 0
-333 1963 5643 5644 5645 5646 0
333 -1963 0
333 -5643 0
333 -5644 0
333 -5645 0
333 -5646 0
5647 -1954 -5629 0
-5647 1954 0
-5647 5629 0
5648 -5629 -5629 0
-5648 5629 0
-5648 5629 0
5649 -5629 -1954 0
-5649 5629 0
-5649 1954 0
5650 -1954 -1954 -5626 0
-5650 1954 0
-5650 1954 0
-5650 5626 0
-5651 1966 5647 5648 5649 5650 0
5651 -1966 0
5651 -5647 0
5651 -5648 0
5651 -5649 0
5651 -5650 0
5652 -2527 -5450 0
-5652 2527 0
-5652 5450 0
5451 -5450 -5450 0
-5451 5450 0
-5451 5450 0
5653 -5450 -2527 0
-5653 5450 0
-5653 2527 0
5654 -2527 -2527 -1474 0
-5654 2527 0
-5654 2527 0
-5654 1474 0
-5655 2529 5652 5451 5653 5654 0
5655 -2529 0
5655 -5652 0
5655 -5451 0
5655 -5653 0
5655 -5654 0
5656 -2527 -1477 0
-5656 2527 0
-5656 1477 0
5657 -5450 -1477 0
-5657 5450 0
-5657 1477 0
5658 -5450 -1485 0
-5658 5450 0
-5658 1485 0
5659 -2527 -1485 -1474 0
-5659 2527 0
-5659 1485 0
-5659 1474 0
-34 2531 5656 5657 5658 5659 0
34 -2531 0
34 -5656 0
34 -5657 0
34 -5658 0
34 -5659 0
5660 -2527 -1480 0
-5660 2527 0
-5660 1480 0
5661 -5450 -1483 0
-5661 5450 0
-5661 1483 0
5662 -5450 -1480 0
-5662 5450 0
-5662 1480 0
5663 -2527 -1483 -1474 0
-5663 2527 0
-5663 1483 0
-5663 1474 0
-32 2533 5660 5661 5662 5663 0
32 -2533 0
32 -5660 0
32 -5661 0
32 -5662 0
32 -5663 0
5664 -1482 -1480 0
-5664 1482 0
-5664 1480 0
5665 -1472 -1480 0
-5665 1472 0
-5665 1480 0
5666 -1472 -1483 0
-5666 1472 0
-5666 1483 0
5667 -1482 -1483 -1474 0
-5667 1482 0
-5667 1483 0
-5667 1474 0
-35 1479 5664 5665 5666 5667 0
35 -1479 0
35 -5664 0
35 -5665 0
35 -5666 0
35 -5667 0
5668 -1485 -1472 0
-5668 1485 0
-5668 1472 0
5669 -1477 -1482 0
-5669 1477 0
-5669 1482 0
5670 -1477 -1472 0
-5670 1477 0
-5670 1472 0
5671 -1485 -1482 -1474 0
-5671 1485 0
-5671 1482 0
-5671 1474 0
-33 1476 5668 5669 5670 5671 0
33 -1476 0
33 -5668 0
33 -5669 0
33 -5670 0
33 -5671 0
5672 -1485 -1477 0
-5672 1485 0
-5672 1477 0
5673 -1477 -1477 0
-5673 1477 0
-5673 1477 0
5674 -1477 -1485 0
-5674 1477 0
-5674 1485 0
5675 -1485 -1485 -1474 0
-5675 1485 0
-5675 1485 0
-5675 1474 0
-5676 1488 5672 5673 5674 5675 0
5676 -1488 0
5676 -5672 0
5676 -5673 0
5676 -5674 0
5676 -5675 0
5677 -1711 -1711 0
-5677 1711 0
-5677 1711 0
-5678 1705 5677 0
5678 -1705 0
5678 -5677 0
5679 -1711 -2345 0
-5679 1711 0
-5679 2345 0
-379 2347 5679 0
379 -2347 0
379 -5679 0
5680 -1711 -1710 0
-5680 1711 0
-5680 1710 0
-377 1703 5680 0
377 -1703 0
377 -5680 0
5681 -1714 -1710 0
-5681 1714 0
-5681 1710 0
-380 1713 5681 0
380 -1713 0
380 -5681 0
5682 -2345 -1714 0
-5682 2345 0
-5682 1714 0
-378 2360 5682 0
378 -2360 0
378 -5682 0
5683 -2345 -2345 0
-5683 2345 0
-5683 2345 0
-5684 2366 5683 0
5684 -2366 0
5684 -5683 0
5685 -4129 -4129 0
-5685 4129 0
-5685 4129 0
-5686 4135 5685 0
5686 -4135 0
5686 -5685 0
5687 -4129 -3822 0
-5687 4129 0
-5687 3822 0
-894 4140 5687 0
894 -4140 0
894 -5687 0
5688 -4129 -3820 0
-5688 4129 0
-5688 3820 0
-892 4145 5688 0
892 -4145 0
892 -5688 0
5689 -3819 -3820 0
-5689 3819 0
-5689 3820 0
-895 3816 5689 0
895 -3816 0
895 -5689 0
5690 -3822 -3819 0
-5690 3822 0
-5690 3819 0
-893 3813 5690 0
893 -3813 0
893 -5690 0
5691 -3822 -3822 0
-5691 3822 0
-5691 3822 0
-5692 3825 5691 0
5692 -3825 0
5692 -5691 0
5693 -2368 -5398 0
-5693 2368 0
-5693 5398 0
5399 -5398 -5398 0
-5399 5398 0
-5399 5398 0
5694 -5398 -2368 0
-5694 5398 0
-5694 2368 0
5695 -2368 -2368 -2233 0
-5695 2368 0
-5695 2368 0
-5695 2233 0
-5696 2370 5693 5399 5694 5695 0
5696 -2370 0
5696 -5693 0
5696 -5399 0
5696 -5694 0
5696 -5695 0
5697 -2368 -2236 0
-5697 2368 0
-5697 2236 0
5698 -5398 -2236 0
-5698 5398 0
-5698 2236 0
5699 -5398 -2244 0
-5699 5398 0
-5699 2244 0
5700 -2368 -2244 -2233 0
-5700 2368 0
-5700 2244 0
-5700 2233 0
-449 2372 5697 5698 5699 5700 0
449 -2372 0
449 -5697 0
449 -5698 0
449 -5699 0
449 -5700 0
5701 -2368 -2239 0
-5701 2368 0
-5701 2239 0
5702 -5398 -2242 0
-5702 5398 0
-5702 2242 0
5703 -5398 -2239 0
-5703 5398 0
-5703 2239 0
5704 -2368 -2242 -2233 0
-5704 2368 0
-5704 2242 0
-5704 2233 0
-447 2374 5701 5702 5703 5704 0
447 -2374 0
447 -5701 0
447 -5702 0
447 -5703 0
447 -5704 0
5705 -2241 -2239 0
-5705 2241 0
-5705 2239 0
5706 -2231 -2239 0
-5706 2231 0
-5706 2239 0
5707 -2231 -2242 0
-5707 2231 0
-5707 2242 0
5708 -2241 -2242 -2233 0
-5708 2241 0
-5708 2242 0
-5708 2233 0
-450 2238 5705 5706 5707 5708 0
450 -2238 0
450 -5705 0
450 -5706 0
450 -5707 0
450 -5708 0
5709 -2244 -2231 0
-5709 2244 0
-5709 2231 0
5710 -2236 -2241 0
-5710 2236 0
-5710 2241 0
5711 -2236 -2231 0
-5711 2236 0
-5711 2231 0
5712 -2244 -2241 -2233 0
-5712 2244 0
-5712 2241 0
-5712 2233 0
-448 2235 5709 5710 5711 5712 0
448 -2235 0
448 -5709 0
448 -5710 0
448 -5711 0
448 -5712 0
5713 -2244 -2236 0
-5713 2244 0
-5713 2236 0
5714 -2236 -2236 0
-5714 2236 0
-5714 2236 0
5715 -2236 -2244 0
-5715 2236 0
-5715 2244 0
5716 -2244 -2244 -2233 0
-5716 2244 0
-5716 2244 0
-5716 2233 0
-5717 2247 5713 5714 5715 5716 0
5717 -2247 0
5717 -5713 0
5717 -5714 0
5717 -5715 0
5717 -5716 0
5718 -1832 -1825 0
-5718 1832 0
-5718 1825 0
1851 -1825 -1825 0
-1851 1825 0
-1851 1825 0
5719 -1825 -1832 0
-5719 1825 0
-5719 1832 0
5720 -1832 -1832 -1855 0
-5720 1832 0
-5720 1832 0
-5720 1855 0
-5721 1821 5718 1851 5719 5720 0
5721 -1821 0
5721 -5718 0
5721 -1851 0
5721 -5719 0
5721 -5720 0
5722 -1832 -1830 0
-5722 1832 0
-5722 1830 0
5723 -1825 -1830 0
-5723 1825 0
-5723 1830 0
5724 -1825 -1837 0
-5724 1825 0
-5724 1837 0
5725 -1832 -1837 -1855 0
-5725 1832 0
-5725 1837 0
-5725 1855 0
-404 1817 5722 5723 5724 5725 0
404 -1817 0
404 -5722 0
404 -5723 0
404 -5724 0
404 -5725 0
5726 -1832 -1849 0
-5726 1832 0
-5726 1849 0
5727 -1825 -1844 0
-5727 1825 0
-5727 1844 0
5728 -1825 -1849 0
-5728 1825 0
-5728 1849 0
5729 -1832 -1844 -1855 0
-5729 1832 0
-5729 1844 0
-5729 1855 0
-402 1841 5726 5727 5728 5729 0
402 -1841 0
402 -5726 0
402 -5727 0
402 -5728 0
402 -5729 0
5730 -1834 -1849 0
-5730 1834 0
-5730 1849 0
5731 -1828 -1849 0
-5731 1828 0
-5731 1849 0
5732 -1828 -1844 0
-5732 1828 0
-5732 1844 0
5733 -1834 -1844 -1855 0
-5733 1834 0
-5733 1844 0
-5733 1855 0
-405 1839 5730 5731 5732 5733 0
405 -1839 0
405 -5730 0
405 -5731 0
405 -5732 0
405 -5733 0
5734 -1837 -1828 0
-5734 1837 0
-5734 1828 0
5735 -1830 -1834 0
-5735 1830 0
-5735 1834 0
5736 -1830 -1828 0
-5736 1830 0
-5736 1828 0
5737 -1837 -1834 -1855 0
-5737 1837 0
-5737 1834 0
-5737 1855 0
-403 1816 5734 5735 5736 5737 0
403 -1816 0
403 -5734 0
403 -5735 0
403 -5736 0
403 -5737 0
5738 -1837 -1830 0
-5738 1837 0
-5738 1830 0
4532 -1830 -1830 0
-4532 1830 0
-4532 1830 0
5739 -1830 -1837 0
-5739 1830 0
-5739 1837 0
5740 -1837 -1837 -1855 0
-5740 1837 0
-5740 1837 0
-5740 1855 0
-5741 1823 5738 4532 5739 5740 0
5741 -1823 0
5741 -5738 0
5741 -4532 0
5741 -5739 0
5741 -5740 0
5742 -4375 -5743 0
-5742 4375 0
-5742 5743 0
5744 -5743 -5743 0
-5744 5743 0
-5744 5743 0
5745 -5743 -4375 0
-5745 5743 0
-5745 4375 0
5746 -4375 -4375 -5747 0
-5746 4375 0
-5746 4375 0
-5746 5747 0
-5748 4377 5742 5744 5745 5746 0
5748 -4377 0
5748 -5742 0
5748 -5744 0
5748 -5745 0
5748 -5746 0
5749 -4375 -5750 0
-5749 4375 0
-5749 5750 0
5751 -5743 -5750 0
-5751 5743 0
-5751 5750 0
5752 -5743 -4379 0
-5752 5743 0
-5752 4379 0
5753 -4375 -4379 -5747 0
-5753 4375 0
-5753 4379 0
-5753 5747 0
-344 4380 5749 5751 5752 5753 0
344 -4380 0
344 -5749 0
344 -5751 0
344 -5752 0
344 -5753 0
5754 -4375 -5755 0
-5754 4375 0
-5754 5755 0
5756 -5743 -4382 0
-5756 5743 0
-5756 4382 0
5757 -5743 -5755 0
-5757 5743 0
-5757 5755 0
5758 -4375 -4382 -5747 0
-5758 4375 0
-5758 4382 0
-5758 5747 0
-342 4383 5754 5756 5757 5758 0
342 -4383 0
342 -5754 0
342 -5756 0
342 -5757 0
342 -5758 0
5759 -4385 -5755 0
-5759 4385 0
-5759 5755 0
5760 -5761 -5755 0
-5760 5761 0
-5760 5755 0
5762 -5761 -4382 0
-5762 5761 0
-5762 4382 0
5763 -4385 -4382 -5747 0
-5763 4385 0
-5763 4382 0
-5763 5747 0
-345 4386 5759 5760 5762 5763 0
345 -4386 0
345 -5759 0
345 -5760 0
345 -5762 0
345 -5763 0
5764 -4379 -5761 0
-5764 4379 0
-5764 5761 0
5765 -5750 -4385 0
-5765 5750 0
-5765 4385 0
5766 -5750 -5761 0
-5766 5750 0
-5766 5761 0
5767 -4379 -4385 -5747 0
-5767 4379 0
-5767 4385 0
-5767 5747 0
-343 4388 5764 5765 5766 5767 0
343 -4388 0
343 -5764 0
343 -5765 0
343 -5766 0
343 -5767 0
5768 -4379 -5750 0
-5768 4379 0
-5768 5750 0
5769 -5750 -5750 0
-5769 5750 0
-5769 5750 0
5770 -5750 -4379 0
-5770 5750 0
-5770 4379 0
5771 -4379 -4379 -5747 0
-5771 4379 0
-5771 4379 0
-5771 5747 0
-5772 4391 5768 5769 5770 5771 0
5772 -4391 0
5772 -5768 0
5772 -5769 0
5772 -5770 0
5772 -5771 0
5773 -2043 -5774 0
-5773 2043 0
-5773 5774 0
5775 -5774 -5774 0
-5775 5774 0
-5775 5774 0
5776 -5774 -2043 0
-5776 5774 0
-5776 2043 0
5777 -2043 -2043 -5778 0
-5777 2043 0
-5777 2043 0
-5777 5778 0
-5779 2045 5773 5775 5776 5777 0
5779 -2045 0
5779 -5773 0
5779 -5775 0
5779 -5776 0
5779 -5777 0
5780 -2043 -5781 0
-5780 2043 0
-5780 5781 0
5782 -5774 -5781 0
-5782 5774 0
-5782 5781 0
5783 -5774 -2047 0
-5783 5774 0
-5783 2047 0
5784 -2043 -2047 -5778 0
-5784 2043 0
-5784 2047 0
-5784 5778 0
-314 2048 5780 5782 5783 5784 0
314 -2048 0
314 -5780 0
314 -5782 0
314 -5783 0
314 -5784 0
5785 -2043 -5786 0
-5785 2043 0
-5785 5786 0
5787 -5774 -2050 0
-5787 5774 0
-5787 2050 0
5788 -5774 -5786 0
-5788 5774 0
-5788 5786 0
5789 -2043 -2050 -5778 0
-5789 2043 0
-5789 2050 0
-5789 5778 0
-312 2051 5785 5787 5788 5789 0
312 -2051 0
312 -5785 0
312 -5787 0
312 -5788 0
312 -5789 0
5790 -2053 -5786 0
-5790 2053 0
-5790 5786 0
5791 -5792 -5786 0
-5791 5792 0
-5791 5786 0
5793 -5792 -2050 0
-5793 5792 0
-5793 2050 0
5794 -2053 -2050 -5778 0
-5794 2053 0
-5794 2050 0
-5794 5778 0
-315 2054 5790 5791 5793 5794 0
315 -2054 0
315 -5790 0
315 -5791 0
315 -5793 0
315 -5794 0
5795 -2047 -5792 0
-5795 2047 0
-5795 5792 0
5796 -5781 -2053 0
-5796 5781 0
-5796 2053 0
5797 -5781 -5792 0
-5797 5781 0
-5797 5792 0
5798 -2047 -2053 -5778 0
-5798 2047 0
-5798 2053 0
-5798 5778 0
-313 2056 5795 5796 5797 5798 0
313 -2056 0
313 -5795 0
313 -5796 0
313 -5797 0
313 -5798 0
5799 -2047 -5781 0
-5799 2047 0
-5799 5781 0
5800 -5781 -5781 0
-5800 5781 0
-5800 5781 0
5801 -5781 -2047 0
-5801 5781 0
-5801 2047 0
5802 -2047 -2047 -5778 0
-5802 2047 0
-5802 2047 0
-5802 5778 0
-5803 2059 5799 5800 5801 5802 0
5803 -2059 0
5803 -5799 0
5803 -5800 0
5803 -5801 0
5803 -5802 0
5804 -3539 -3521 0
-5804 3539 0
-5804 3521 0
3522 -3521 -3521 0
-3522 3521 0
-3522 3521 0
5805 -3521 -3539 0
-5805 3521 0
-5805 3539 0
5806 -3539 -3539 -1492 0
-5806 3539 0
-5806 3539 0
-5806 1492 0
-5807 3525 5804 3522 5805 5806 0
5807 -3525 0
5807 -5804 0
5807 -3522 0
5807 -5805 0
5807 -5806 0
5808 -3539 -1495 0
-5808 3539 0
-5808 1495 0
5809 -3521 -1495 0
-5809 3521 0
-5809 1495 0
5810 -3521 -1503 0
-5810 3521 0
-5810 1503 0
5811 -3539 -1503 -1492 0
-5811 3539 0
-5811 1503 0
-5811 1492 0
-464 3528 5808 5809 5810 5811 0
464 -3528 0
464 -5808 0
464 -5809 0
464 -5810 0
464 -5811 0
5812 -3539 -1498 0
-5812 3539 0
-5812 1498 0
5813 -3521 -1501 0
-5813 3521 0
-5813 1501 0
5814 -3521 -1498 0
-5814 3521 0
-5814 1498 0
5815 -3539 -1501 -1492 0
-5815 3539 0
-5815 1501 0
-5815 1492 0
-462 3533 5812 5813 5814 5815 0
462 -3533 0
462 -5812 0
462 -5813 0
462 -5814 0
462 -5815 0
5816 -1500 -1498 0
-5816 1500 0
-5816 1498 0
5817 -1490 -1498 0
-5817 1490 0
-5817 1498 0
5818 -1490 -1501 0
-5818 1490 0
-5818 1501 0
5819 -1500 -1501 -1492 0
-5819 1500 0
-5819 1501 0
-5819 1492 0
-465 1497 5816 5817 5818 5819 0
465 -1497 0
465 -5816 0
465 -5817 0
465 -5818 0
465 -5819 0
5820 -1503 -1490 0
-5820 1503 0
-5820 1490 0
5821 -1495 -1500 0
-5821 1495 0
-5821 1500 0
5822 -1495 -1490 0
-5822 1495 0
-5822 1490 0
5823 -1503 -1500 -1492 0
-5823 1503 0
-5823 1500 0
-5823 1492 0
-463 1494 5820 5821 5822 5823 0
463 -1494 0
463 -5820 0
463 -5821 0
463 -5822 0
463 -5823 0
5824 -1503 -1495 0
-5824 1503 0
-5824 1495 0
5825 -1495 -1495 0
-5825 1495 0
-5825 1495 0
5826 -1495 -1503 0
-5826 1495 0
-5826 1503 0
5827 -1503 -1503 -1492 0
-5827 1503 0
-5827 1503 0
-5827 1492 0
-5828 1506 5824 5825 5826 5827 0
5828 -1506 0
5828 -5824 0
5828 -5825 0
5828 -5826 0
5828 -5827 0
5829 -5524 -5524 0
-5829 5524 0
-5829 5524 0
-5830 5531 5829 0
5830 -5531 0
5830 -5829 0
5831 -5524 -5536 0
-5831 5524 0
-5831 5536 0
-1199 5538 5831 0
1199 -5538 0
1199 -5831 0
5832 -5524 -5542 0
-5832 5524 0
-5832 5542 0
-1197 5545 5832 0
1197 -5545 0
1197 -5832 0
5833 -5547 -5542 0
-5833 5547 0
-5833 5542 0
-1200 5552 5833 0
1200 -5552 0
1200 -5833 0
5834 -5536 -5547 0
-5834 5536 0
-5834 5547 0
-1198 5557 5834 0
1198 -5557 0
1198 -5834 0
5835 -5536 -5536 0
-5835 5536 0
-5835 5536 0
-5836 5563 5835 0
5836 -5563 0
5836 -5835 0
5837 -5242 -5838 0
-5837 5242 0
-5837 5838 0
5839 -5838 -5838 0
-5839 5838 0
-5839 5838 0
5840 -5838 -5242 0
-5840 5838 0
-5840 5242 0
5841 -5242 -5242 -5842 0
-5841 5242 0
-5841 5242 0
-5841 5842 0
-5843 5244 5837 5839 5840 5841 0
5843 -5244 0
5843 -5837 0
5843 -5839 0
5843 -5840 0
5843 -5841 0
5844 -5242 -5845 0
-5844 5242 0
-5844 5845 0
5846 -5838 -5845 0
-5846 5838 0
-5846 5845 0
5847 -5838 -5246 0
-5847 5838 0
-5847 5246 0
5848 -5242 -5246 -5842 0
-5848 5242 0
-5848 5246 0
-5848 5842 0
-264 5247 5844 5846 5847 5848 0
264 -5247 0
264 -5844 0
264 -5846 0
264 -5847 0
264 -5848 0
5849 -5242 -5850 0
-5849 5242 0
-5849 5850 0
5851 -5838 -5249 0
-5851 5838 0
-5851 5249 0
5852 -5838 -5850 0
-5852 5838 0
-5852 5850 0
5853 -5242 -5249 -5842 0
-5853 5242 0
-5853 5249 0
-5853 5842 0
-262 5250 5849 5851 5852 5853 0
262 -5250 0
262 -5849 0
262 -5851 0
262 -5852 0
262 -5853 0
5854 -5252 -5850 0
-5854 5252 0
-5854 5850 0
5855 -5856 -5850 0
-5855 5856 0
-5855 5850 0
5857 -5856 -5249 0
-5857 5856 0
-5857 5249 0
5858 -5252 -5249 -5842 0
-5858 5252 0
-5858 5249 0
-5858 5842 0
-265 5253 5854 5855 5857 5858 0
265 -5253 0
265 -5854 0
265 -5855 0
265 -5857 0
265 -5858 0
5859 -5246 -5856 0
-5859 5246 0
-5859 5856 0
5860 -5845 -5252 0
-5860 5845 0
-5860 5252 0
5861 -5845 -5856 0
-5861 5845 0
-5861 5856 0
5862 -5246 -5252 -5842 0
-5862 5246 0
-5862 5252 0
-5862 5842 0
-263 5255 5859 5860 5861 5862 0
263 -5255 0
263 -5859 0
263 -5860 0
263 -5861 0
263 -5862 0
5863 -5246 -5845 0
-5863 5246 0
-5863 5845 0
5864 -5845 -5845 0
-5864 5845 0
-5864 5845 0
5865 -5845 -5246 0
-5865 5845 0
-5865 5246 0
5866 -5246 -5246 -5842 0
-5866 5246 0
-5866 5246 0
-5866 5842 0
-5867 5258 5863 5864 5865 5866 0
5867 -5258 0
5867 -5863 0
5867 -5864 0
5867 -5865 0
5867 -5866 0
5868 -4224 -4224 0
-5868 4224 0
-5868 4224 0
-5869 4230 5868 0
5869 -4230 0
5869 -5868 0
5870 -4224 -3381 0
-5870 4224 0
-5870 3381 0
-619 4235 5870 0
619 -4235 0
619 -5870 0
5871 -4224 -3379 0
-5871 4224 0
-5871 3379 0
-617 4240 5871 0
617 -4240 0
617 -5871 0
5872 -3378 -3379 0
-5872 3378 0
-5872 3379 0
-620 3375 5872 0
620 -3375 0
620 -5872 0
5873 -3381 -3378 0
-5873 3381 0
-5873 3378 0
-618 3372 5873 0
618 -3372 0
618 -5873 0
5874 -3381 -3381 0
-5874 3381 0
-5874 3381 0
-5875 3384 5874 0
5875 -3384 0
5875 -5874 0
5876 -5357 -5357 0
-5876 5357 0
-5876 5357 0
-5877 5364 5876 0
5877 -5364 0
5877 -5876 0
5878 -5357 -5369 0
-5878 5357 0
-5878 5369 0
-709 5371 5878 0
709 -5371 0
709 -5878 0
5879 -5357 -5375 0
-5879 5357 0
-5879 5375 0
-707 5378 5879 0
707 -5378 0
707 -5879 0
5880 -5380 -5375 0
-5880 5380 0
-5880 5375 0
-710 5385 5880 0
710 -5385 0
710 -5880 0
5881 -5369 -5380 0
-5881 5369 0
-5881 5380 0
-708 5390 5881 0
708 -5390 0
708 -5881 0
5882 -5369 -5369 0
-5882 5369 0
-5882 5369 0
-5883 5396 5882 0
5883 -5396 0
5883 -5882 0
5884 -3809 -4130 0
-5884 3809 0
-5884 4130 0
4131 -4130 -4130 0
-4131 4130 0
-4131 4130 0
5885 -4130 -3809 0
-5885 4130 0
-5885 3809 0
5886 -3809 -3809 -4135 0
-5886 3809 0
-5886 3809 0
-5886 4135 0
-5887 3811 5884 4131 5885 5886 0
5887 -3811 0
5887 -5884 0
5887 -4131 0
5887 -5885 0
5887 -5886 0
5888 -3809 -4140 0
-5888 3809 0
-5888 4140 0
5889 -4130 -4140 0
-5889 4130 0
-5889 4140 0
5890 -4130 -3813 0
-5890 4130 0
-5890 3813 0
5891 -3809 -3813 -4135 0
-5891 3809 0
-5891 3813 0
-5891 4135 0
-609 3814 5888 5889 5890 5891 0
609 -3814 0
609 -5888 0
609 -5889 0
609 -5890 0
609 -5891 0
5892 -3809 -4145 0
-5892 3809 0
-5892 4145 0
5893 -4130 -3816 0
-5893 4130 0
-5893 3816 0
5894 -4130 -4145 0
-5894 4130 0
-5894 4145 0
5895 -3809 -3816 -4135 0
-5895 3809 0
-5895 3816 0
-5895 4135 0
-607 3817 5892 5893 5894 5895 0
607 -3817 0
607 -5892 0
607 -5893 0
607 -5894 0
607 -5895 0
5896 -3819 -4145 0
-5896 3819 0
-5896 4145 0
5897 -4129 -4145 0
-5897 4129 0
-5897 4145 0
5898 -4129 -3816 0
-5898 4129 0
-5898 3816 0
5899 -3819 -3816 -4135 0
-5899 3819 0
-5899 3816 0
-5899 4135 0
-610 3820 5896 5897 5898 5899 0
610 -3820 0
610 -5896 0
610 -5897 0
610 -5898 0
610 -5899 0
5900 -3813 -4129 0
-5900 3813 0
-5900 4129 0
5901 -4140 -3819 0
-5901 4140 0
-5901 3819 0
5902 -4140 -4129 0
-5902 4140 0
-5902 4129 0
5903 -3813 -3819 -4135 0
-5903 3813 0
-5903 3819 0
-5903 4135 0
-608 3822 5900 5901 5902 5903 0
608 -3822 0
608 -5900 0
608 -5901 0
608 -5902 0
608 -5903 0
5904 -3813 -4140 0
-5904 3813 0
-5904 4140 0
5905 -4140 -4140 0
-5905 4140 0
-5905 4140 0
5906 -4140 -3813 0
-5906 4140 0
-5906 3813 0
5907 -3813 -3813 -4135 0
-5907 3813 0
-5907 3813 0
-5907 4135 0
-5908 3825 5904 5905 5906 5907 0
5908 -3825 0
5908 -5904 0
5908 -5905 0
5908 -5906 0
5908 -5907 0
5909 -1526 -5910 0
-5909 1526 0
-5909 5910 0
5911 -5910 -5910 0
-5911 5910 0
-5911 5910 0
5912 -5910 -1526 0
-5912 5910 0
-5912 1526 0
5913 -1526 -1526 -5914 0
-5913 1526 0
-5913 1526 0
-5913 5914 0
-5915 1528 5909 5911 5912 5913 0
5915 -1528 0
5915 -5909 0
5915 -5911 0
5915 -5912 0
5915 -5913 0
5916 -1526 -5917 0
-5916 1526 0
-5916 5917 0
5918 -5910 -5917 0
-5918 5910 0
-5918 5917 0
5919 -5910 -1530 0
-5919 5910 0
-5919 1530 0
5920 -1526 -1530 -5914 0
-5920 1526 0
-5920 1530 0
-5920 5914 0
-1064 1531 5916 5918 5919 5920 0
1064 -1531 0
1064 -5916 0
1064 -5918 0
1064 -5919 0
1064 -5920 0
5921 -1526 -5922 0
-5921 1526 0
-5921 5922 0
5923 -5910 -1533 0
-5923 5910 0
-5923 1533 0
5924 -5910 -5922 0
-5924 5910 0
-5924 5922 0
5925 -1526 -1533 -5914 0
-5925 1526 0
-5925 1533 0
-5925 5914 0
-1062 1534 5921 5923 5924 5925 0
1062 -1534 0
1062 -5921 0
1062 -5923 0
1062 -5924 0
1062 -5925 0
5926 -1536 -5922 0
-5926 1536 0
-5926 5922 0
5927 -5928 -5922 0
-5927 5928 0
-5927 5922 0
5929 -5928 -1533 0
-5929 5928 0
-5929 1533 0
5930 -1536 -1533 -5914 0
-5930 1536 0
-5930 1533 0
-5930 5914 0
-1065 1537 5926 5927 5929 5930 0
1065 -1537 0
1065 -5926 0
1065 -5927 0
1065 -5929 0
1065 -5930 0
5931 -1530 -5928 0
-5931 1530 0
-5931 5928 0
5932 -5917 -1536 0
-5932 5917 0
-5932 1536 0
5933 -5917 -5928 0
-5933 5917 0
-5933 5928 0
5934 -1530 -1536 -5914 0
-5934 1530 0
-5934 1536 0
-5934 5914 0
-1063 1539 5931 5932 5933 5934 0
1063 -1539 0
1063 -5931 0
1063 -5932 0
1063 -5933 0
1063 -5934 0
5935 -1530 -5917 0
-5935 1530 0
-5935 5917 0
5936 -5917 -5917 0
-5936 5917 0
-5936 5917 0
5937 -5917 -1530 0
-5937 5917 0
-5937 1530 0
5938 -1530 -1530 -5914 0
-5938 1530 0
-5938 1530 0
-5938 5914 0
-5939 1542 5935 5936 5937 5938 0
5939 -1542 0
5939 -5935 0
5939 -5936 0
5939 -5937 0
5939 -5938 0
5940 -4281 -4281 0
-5940 4281 0
-5940 4281 0
-5941 4288 5940 0
5941 -4288 0
5941 -5940 0
5942 -4281 -4293 0
-5942 4281 0
-5942 4293 0
-1039 4295 5942 0
1039 -4295 0
1039 -5942 0
5943 -4281 -4299 0
-5943 4281 0
-5943 4299 0
-1037 4302 5943 0
1037 -4302 0
1037 -5943 0
5944 -4304 -4299 0
-5944 4304 0
-5944 4299 0
-1040 4309 5944 0
1040 -4309 0
1040 -5944 0
5945 -4293 -4304 0
-5945 4293 0
-5945 4304 0
-1038 4314 5945 0
1038 -4314 0
1038 -5945 0
5946 -4293 -4293 0
-5946 4293 0
-5946 4293 0
-5947 4320 5946 0
5947 -4320 0
5947 -5946 0
5948 -1765 -1765 0
-5948 1765 0
-5948 1765 0
-5949 1759 5948 0
5949 -1759 0
5949 -5948 0
5950 -1765 -2833 0
-5950 1765 0
-5950 2833 0
-854 2815 5950 0
854 -2815 0
854 -5950 0
5951 -1765 -1764 0
-5951 1765 0
-5951 1764 0
-852 1757 5951 0
852 -1757 0
852 -5951 0
5952 -1768 -1764 0
-5952 1768 0
-5952 1764 0
-855 1767 5952 0
855 -1767 0
855 -5952 0
5953 -2833 -1768 0
-5953 2833 0
-5953 1768 0
-853 2818 5953 0
853 -2818 0
853 -5953 0
5954 -2833 -2833 0
-5954 2833 0
-5954 2833 0
-5955 2839 5954 0
5955 -2839 0
5955 -5954 0
5956 -4880 -4880 0
-5956 4880 0
-5956 4880 0
-5957 4887 5956 0
5957 -4887 0
5957 -5956 0
5958 -4880 -4892 0
-5958 4880 0
-5958 4892 0
-1014 4894 5958 0
1014 -4894 0
1014 -5958 0
5959 -4880 -4898 0
-5959 4880 0
-5959 4898 0
-1012 4901 5959 0
1012 -4901 0
1012 -5959 0
5960 -4903 -4898 0
-5960 4903 0
-5960 4898 0
-1015 4908 5960 0
1015 -4908 0
1015 -5960 0
5961 -4892 -4903 0
-5961 4892 0
-5961 4903 0
-1013 4913 5961 0
1013 -4913 0
1013 -5961 0
5962 -4892 -4892 0
-5962 4892 0
-5962 4892 0
-5963 4919 5962 0
5963 -4919 0
5963 -5962 0
5964 -1610 -1610 0
-5964 1610 0
-5964 1610 0
-5965 1590 5964 0
5965 -1590 0
5965 -5964 0
5966 -1610 -1618 0
-5966 1610 0
-5966 1618 0
-909 1594 5966 0
909 -1594 0
909 -5966 0
5967 -1610 -1613 0
-5967 1610 0
-5967 1613 0
-907 1601 5967 0
907 -1601 0
907 -5967 0
5968 -1608 -1613 0
-5968 1608 0
-5968 1613 0
-910 1603 5968 0
910 -1603 0
910 -5968 0
5969 -1618 -1608 0
-5969 1618 0
-5969 1608 0
-908 1597 5969 0
908 -1597 0
908 -5969 0
5970 -1618 -1618 0
-5970 1618 0
-5970 1618 0
-5971 1624 5970 0
5971 -1624 0
5971 -5970 0
5972 -4636 -4636 0
-5972 4636 0
-5972 4636 0
-5973 4643 5972 0
5973 -4643 0
5973 -5972 0
5974 -4636 -4648 0
-5974 4636 0
-5974 4648 0
-679 4650 5974 0
679 -4650 0
679 -5974 0
5975 -4636 -4654 0
-5975 4636 0
-5975 4654 0
-677 4657 5975 0
677 -4657 0
677 -5975 0
5976 -4659 -4654 0
-5976 4659 0
-5976 4654 0
-680 4664 5976 0
680 -4664 0
680 -5976 0
5977 -4648 -4659 0
-5977 4648 0
-5977 4659 0
-678 4669 5977 0
678 -4669 0
678 -5977 0
5978 -4648 -4648 0
-5978 4648 0
-5978 4648 0
-5979 4675 5978 0
5979 -4675 0
5979 -5978 0
5980 -3773 -3749 0
-5980 3773 0
-5980 3749 0
3750 -3749 -3749 0
-3750 3749 0
-3750 3749 0
5981 -3749 -3773 0
-5981 3749 0
-5981 3773 0
5982 -3773 -3773 -3755 0
-5982 3773 0
-5982 3773 0
-5982 3755 0
-5983 3753 5980 3750 5981 5982 0
5983 -3753 0
5983 -5980 0
5983 -3750 0
5983 -5981 0
5983 -5982 0
5984 -3773 -3762 0
-5984 3773 0
-5984 3762 0
5985 -3749 -3762 0
-5985 3749 0
-5985 3762 0
5986 -3749 -3781 0
-5986 3749 0
-5986 3781 0
5987 -3773 -3781 -3755 0
-5987 3773 0
-5987 3781 0
-5987 3755 0
-134 3757 5984 5985 5986 5987 0
134 -3757 0
134 -5984 0
134 -5985 0
134 -5986 0
134 -5987 0
5988 -3773 -3769 0
-5988 3773 0
-5988 3769 0
5989 -3749 -3776 0
-5989 3749 0
-5989 3776 0
5990 -3749 -3769 0
-5990 3749 0
-5990 3769 0
5991 -3773 -3776 -3755 0
-5991 3773 0
-5991 3776 0
-5991 3755 0
-132 3764 5988 5989 5990 5991 0
132 -3764 0
132 -5988 0
132 -5989 0
132 -5990 0
132 -5991 0
5992 -3771 -3769 0
-5992 3771 0
-5992 3769 0
5993 -3748 -3769 0
-5993 3748 0
-5993 3769 0
5994 -3748 -3776 0
-5994 3748 0
-5994 3776 0
5995 -3771 -3776 -3755 0
-5995 3771 0
-5995 3776 0
-5995 3755 0
-135 3766 5992 5993 5994 5995 0
135 -3766 0
135 -5992 0
135 -5993 0
135 -5994 0
135 -5995 0
5996 -3781 -3748 0
-5996 3781 0
-5996 3748 0
5997 -3762 -3771 0
-5997 3762 0
-5997 3771 0
5998 -3762 -3748 0
-5998 3762 0
-5998 3748 0
5999 -3781 -3771 -3755 0
-5999 3781 0
-5999 3771 0
-5999 3755 0
-133 3760 5996 5997 5998 5999 0
133 -3760 0
133 -5996 0
133 -5997 0
133 -5998 0
133 -5999 0
6000 -3781 -3762 0
-6000 3781 0
-6000 3762 0
6001 -3762 -3762 0
-6001 3762 0
-6001 3762 0
6002 -3762 -3781 0
-6002 3762 0
-6002 3781 0
6003 -3781 -3781 -3755 0
-6003 3781 0
-6003 3781 0
-6003 3755 0
-6004 3787 6000 6001 6002 6003 0
6004 -3787 0
6004 -6000 0
6004 -6001 0
6004 -6002 0
6004 -6003 0
6005 -1303 -1303 0
-6005 1303 0
-6005 1303 0
-6006 1297 6005 0
6006 -1297 0
6006 -6005 0
6007 -1303 -4748 0
-6007 1303 0
-6007 4748 0
-414 4730 6007 0
414 -4730 0
414 -6007 0
6008 -1303 -1302 0
-6008 1303 0
-6008 1302 0
-412 1295 6008 0
412 -1295 0
412 -6008 0
6009 -1306 -1302 0
-6009 1306 0
-6009 1302 0
-415 1305 6009 0
415 -1305 0
415 -6009 0
6010 -4748 -1306 0
-6010 4748 0
-6010 1306 0
-413 4733 6010 0
413 -4733 0
413 -6010 0
6011 -4748 -4748 0
-6011 4748 0
-6011 4748 0
-6012 4754 6011 0
6012 -4754 0
6012 -6011 0
6013 -4432 -4432 0
-6013 4432 0
-6013 4432 0
-6014 4439 6013 0
6014 -4439 0
6014 -6013 0
6015 -4432 -4444 0
-6015 4432 0
-6015 4444 0
-654 4446 6015 0
654 -4446 0
654 -6015 0
6016 -4432 -4450 0
-6016 4432 0
-6016 4450 0
-652 4453 6016 0
652 -4453 0
652 -6016 0
6017 -4455 -4450 0
-6017 4455 0
-6017 4450 0
-655 4460 6017 0
655 -4460 0
655 -6017 0
6018 -4444 -4455 0
-6018 4444 0
-6018 4455 0
-653 4465 6018 0
653 -4465 0
653 -6018 0
6019 -4444 -4444 0
-6019 4444 0
-6019 4444 0
-6020 4471 6019 0
6020 -4471 0
6020 -6019 0
6021 -2499 -2475 0
-6021 2499 0
-6021 2475 0
2476 -2475 -2475 0
-2476 2475 0
-2476 2475 0
6022 -2475 -2499 0
-6022 2475 0
-6022 2499 0
6023 -2499 -2499 -2481 0
-6023 2499 0
-6023 2499 0
-6023 2481 0
-6024 2479 6021 2476 6022 6023 0
6024 -2479 0
6024 -6021 0
6024 -2476 0
6024 -6022 0
6024 -6023 0
6025 -2499 -2488 0
-6025 2499 0
-6025 2488 0
6026 -2475 -2488 0
-6026 2475 0
-6026 2488 0
6027 -2475 -2507 0
-6027 2475 0
-6027 2507 0
6028 -2499 -2507 -2481 0
-6028 2499 0
-6028 2507 0
-6028 2481 0
-234 2483 6025 6026 6027 6028 0
234 -2483 0
234 -6025 0
234 -6026 0
234 -6027 0
234 -6028 0
6029 -2499 -2495 0
-6029 2499 0
-6029 2495 0
6030 -2475 -2502 0
-6030 2475 0
-6030 2502 0
6031 -2475 -2495 0
-6031 2475 0
-6031 2495 0
6032 -2499 -2502 -2481 0
-6032 2499 0
-6032 2502 0
-6032 2481 0
-232 2490 6029 6030 6031 6032 0
232 -2490 0
232 -6029 0
232 -6030 0
232 -6031 0
232 -6032 0
6033 -2497 -2495 0
-6033 2497 0
-6033 2495 0
6034 -2474 -2495 0
-6034 2474 0
-6034 2495 0
6035 -2474 -2502 0
-6035 2474 0
-6035 2502 0
6036 -2497 -2502 -2481 0
-6036 2497 0
-6036 2502 0
-6036 2481 0
-235 2492 6033 6034 6035 6036 0
235 -2492 0
235 -6033 0
235 -6034 0
235 -6035 0
235 -6036 0
6037 -2507 -2474 0
-6037 2507 0
-6037 2474 0
6038 -2488 -2497 0
-6038 2488 0
-6038 2497 0
6039 -2488 -2474 0
-6039 2488 0
-6039 2474 0
6040 -2507 -2497 -2481 0
-6040 2507 0
-6040 2497 0
-6040 2481 0
-233 2486 6037 6038 6039 6040 0
233 -2486 0
233 -6037 0
233 -6038 0
233 -6039 0
233 -6040 0
6041 -2507 -2488 0
-6041 2507 0
-6041 2488 0
6042 -2488 -2488 0
-6042 2488 0
-6042 2488 0
6043 -2488 -2507 0
-6043 2488 0
-6043 2507 0
6044 -2507 -2507 -2481 0
-6044 2507 0
-6044 2507 0
-6044 2481 0
-6045 2513 6041 6042 6043 6044 0
6045 -2513 0
6045 -6041 0
6045 -6042 0
6045 -6043 0
6045 -6044 0
6046 -2436 -2428 0
-6046 2436 0
-6046 2428 0
5299 -2428 -2428 0
-5299 2428 0
-5299 2428 0
6047 -2428 -2436 0
-6047 2428 0
-6047 2436 0
6048 -2436 -2436 -2425 0
-6048 2436 0
-6048 2436 0
-6048 2425 0
-6049 2439 6046 5299 6047 6048 0
6049 -2439 0
6049 -6046 0
6049 -5299 0
6049 -6047 0
6049 -6048 0
6050 -2436 -3841 0
-6050 2436 0
-6050 3841 0
6051 -2428 -3841 0
-6051 2428 0
-6051 3841 0
6052 -2428 -3791 0
-6052 2428 0
-6052 3791 0
6053 -2436 -3791 -2425 0
-6053 2436 0
-6053 3791 0
-6053 2425 0
-29 3792 6050 6051 6052 6053 0
29 -3792 0
29 -6050 0
29 -6051 0
29 -6052 0
29 -6053 0
6054 -2436 -2423 0
-6054 2436 0
-6054 2423 0
6055 -2428 -2433 0
-6055 2428 0
-6055 2433 0
6056 -2428 -2423 0
-6056 2428 0
-6056 2423 0
6057 -2436 -2433 -2425 0
-6057 2436 0
-6057 2433 0
-6057 2425 0
-27 2427 6054 6055 6056 6057 0
27 -2427 0
27 -6054 0
27 -6055 0
27 -6056 0
27 -6057 0
6058 -2434 -2423 0
-6058 2434 0
-6058 2423 0
6059 -2431 -2423 0
-6059 2431 0
-6059 2423 0
6060 -2431 -2433 0
-6060 2431 0
-6060 2433 0
6061 -2434 -2433 -2425 0
-6061 2434 0
-6061 2433 0
-6061 2425 0
-30 2430 6058 6059 6060 6061 0
30 -2430 0
30 -6058 0
30 -6059 0
30 -6060 0
30 -6061 0
6062 -3791 -2431 0
-6062 3791 0
-6062 2431 0
6063 -3841 -2434 0
-6063 3841 0
-6063 2434 0
6064 -3841 -2431 0
-6064 3841 0
-6064 2431 0
6065 -3791 -2434 -2425 0
-6065 3791 0
-6065 2434 0
-6065 2425 0
-28 3796 6062 6063 6064 6065 0
28 -3796 0
28 -6062 0
28 -6063 0
28 -6064 0
28 -6065 0
6066 -3791 -3841 0
-6066 3791 0
-6066 3841 0
6067 -3841 -3841 0
-6067 3841 0
-6067 3841 0
6068 -3841 -3791 0
-6068 3841 0
-6068 3791 0
6069 -3791 -3791 -2425 0
-6069 3791 0
-6069 3791 0
-6069 2425 0
-6070 3799 6066 6067 6068 6069 0
6070 -3799 0
6070 -6066 0
6070 -6067 0
6070 -6068 0
6070 -6069 0
6071 -1436 -6072 0
-6071 1436 0
-6071 6072 0
6073 -6072 -6072 0
-6073 6072 0
-6073 6072 0
6074 -6072 -1436 0
-6074 6072 0
-6074 1436 0
6075 -1436 -1436 -6076 0
-6075 1436 0
-6075 1436 0
-6075 6076 0
-6077 1438 6071 6073 6074 6075 0
6077 -1438 0
6077 -6071 0
6077 -6073 0
6077 -6074 0
6077 -6075 0
6078 -1436 -6079 0
-6078 1436 0
-6078 6079 0
6080 -6072 -6079 0
-6080 6072 0
-6080 6079 0
6081 -6072 -1440 0
-6081 6072 0
-6081 1440 0
6082 -1436 -1440 -6076 0
-6082 1436 0
-6082 1440 0
-6082 6076 0
-354 1441 6078 6080 6081 6082 0
354 -1441 0
354 -6078 0
354 -6080 0
354 -6081 0
354 -6082 0
6083 -1436 -6084 0
-6083 1436 0
-6083 6084 0
6085 -6072 -1443 0
-6085 6072 0
-6085 1443 0
6086 -6072 -6084 0
-6086 6072 0
-6086 6084 0
6087 -1436 -1443 -6076 0
-6087 1436 0
-6087 1443 0
-6087 6076 0
-352 1444 6083 6085 6086 6087 0
352 -1444 0
352 -6083 0
352 -6085 0
352 -6086 0
352 -6087 0
6088 -1446 -6084 0
-6088 1446 0
-6088 6084 0
6089 -6090 -6084 0
-6089 6090 0
-6089 6084 0
6091 -6090 -1443 0
-6091 6090 0
-6091 1443 0
6092 -1446 -1443 -6076 0
-6092 1446 0
-6092 1443 0
-6092 6076 0
-355 1447 6088 6089 6091 6092 0
355 -1447 0
355 -6088 0
355 -6089 0
355 -6091 0
355 -6092 0
6093 -1440 -6090 0
-6093 1440 0
-6093 6090 0
6094 -6079 -1446 0
-6094 6079 0
-6094 1446 0
6095 -6079 -6090 0
-6095 6079 0
-6095 6090 0
6096 -1440 -1446 -6076 0
-6096 1440 0
-6096 1446 0
-6096 6076 0
-353 1449 6093 6094 6095 6096 0
353 -1449 0
353 -6093 0
353 -6094 0
353 -6095 0
353 -6096 0
6097 -1440 -6079 0
-6097 1440 0
-6097 6079 0
6098 -6079 -6079 0
-6098 6079 0
-6098 6079 0
6099 -6079 -1440 0
-6099 6079 0
-6099 1440 0
6100 -1440 -1440 -6076 0
-6100 1440 0
-6100 1440 0
-6100 6076 0
-6101 1452 6097 6098 6099 6100 0
6101 -1452 0
6101 -6097 0
6101 -6098 0
6101 -6099 0
6101 -6100 0
6102 -2423 -3841 0
-6102 2423 0
-6102 3841 0
6067 -3841 -3841 0
-6067 3841 0
-6067 3841 0
6103 -3841 -2423 0
-6103 3841 0
-6103 2423 0
6104 -2423 -2423 -3799 0
-6104 2423 0
-6104 2423 0
-6104 3799 0
-6105 2425 6102 6067 6103 6104 0
6105 -2425 0
6105 -6102 0
6105 -6067 0
6105 -6103 0
6105 -6104 0
6106 -2423 -3792 0
-6106 2423 0
-6106 3792 0
6107 -3841 -3792 0
-6107 3841 0
-6107 3792 0
6108 -3841 -2427 0
-6108 3841 0
-6108 2427 0
6109 -2423 -2427 -3799 0
-6109 2423 0
-6109 2427 0
-6109 3799 0
-4 2428 6106 6107 6108 6109 0
4 -2428 0
4 -6106 0
4 -6107 0
4 -6108 0
4 -6109 0
6110 -2423 -3796 0
-6110 2423 0
-6110 3796 0
6111 -3841 -2430 0
-6111 3841 0
-6111 2430 0
6112 -3841 -3796 0
-6112 3841 0
-6112 3796 0
6113 -2423 -2430 -3799 0
-6113 2423 0
-6113 2430 0
-6113 3799 0
-2 2431 6110 6111 6112 6113 0
2 -2431 0
2 -6110 0
2 -6111 0
2 -6112 0
2 -6113 0
6114 -2433 -3796 0
-6114 2433 0
-6114 3796 0
6115 -3791 -3796 0
-6115 3791 0
-6115 3796 0
6116 -3791 -2430 0
-6116 3791 0
-6116 2430 0
6117 -2433 -2430 -3799 0
-6117 2433 0
-6117 2430 0
-6117 3799 0
-5 2434 6114 6115 6116 6117 0
5 -2434 0
5 -6114 0
5 -6115 0
5 -6116 0
5 -6117 0
6118 -2427 -3791 0
-6118 2427 0
-6118 3791 0
6119 -3792 -2433 0
-6119 3792 0
-6119 2433 0
6120 -3792 -3791 0
-6120 3792 0
-6120 3791 0
6121 -2427 -2433 -3799 0
-6121 2427 0
-6121 2433 0
-6121 3799 0
-3 2436 6118 6119 6120 6121 0
3 -2436 0
3 -6118 0
3 -6119 0
3 -6120 0
3 -6121 0
6122 -2427 -3792 0
-6122 2427 0
-6122 3792 0
5320 -3792 -3792 0
-5320 3792 0
-5320 3792 0
6123 -3792 -2427 0
-6123 3792 0
-6123 2427 0
6124 -2427 -2427 -3799 0
-6124 2427 0
-6124 2427 0
-6124 3799 0
-6125 2439 6122 5320 6123 6124 0
6125 -2439 0
6125 -6122 0
6125 -5320 0
6125 -6123 0
6125 -6124 0
6126 -6127 -6127 0
-6126 6127 0
-6126 6127 0
-6128 6129 6126 0
6128 -6129 0
6128 -6126 0
6130 -6127 -6131 0
-6130 6127 0
-6130 6131 0
-684 6132 6130 0
684 -6132 0
684 -6130 0
6133 -6127 -6134 0
-6133 6127 0
-6133 6134 0
-682 6135 6133 0
682 -6135 0
682 -6133 0
6136 -6137 -6134 0
-6136 6137 0
-6136 6134 0
-685 6138 6136 0
685 -6138 0
685 -6136 0
6139 -6131 -6137 0
-6139 6131 0
-6139 6137 0
-683 6140 6139 0
683 -6140 0
683 -6139 0
6141 -6131 -6131 0
-6141 6131 0
-6141 6131 0
-6142 6143 6141 0
6142 -6143 0
6142 -6141 0
6144 -1893 -6145 0
-6144 1893 0
-6144 6145 0
6146 -6145 -6145 0
-6146 6145 0
-6146 6145 0
6147 -6145 -1893 0
-6147 6145 0
-6147 1893 0
6148 -1893 -1893 -6149 0
-6148 1893 0
-6148 1893 0
-6148 6149 0
-6150 1895 6144 6146 6147 6148 0
6150 -1895 0
6150 -6144 0
6150 -6146 0
6150 -6147 0
6150 -6148 0
6151 -1893 -6152 0
-6151 1893 0
-6151 6152 0
6153 -6145 -6152 0
-6153 6145 0
-6153 6152 0
6154 -6145 -1897 0
-6154 6145 0
-6154 1897 0
6155 -1893 -1897 -6149 0
-6155 1893 0
-6155 1897 0
-6155 6149 0
-1084 1898 6151 6153 6154 6155 0
1084 -1898 0
1084 -6151 0
1084 -6153 0
1084 -6154 0
1084 -6155 0
6156 -1893 -6157 0
-6156 1893 0
-6156 6157 0
6158 -6145 -1900 0
-6158 6145 0
-6158 1900 0
6159 -6145 -6157 0
-6159 6145 0
-6159 6157 0
6160 -1893 -1900 -6149 0
-6160 1893 0
-6160 1900 0
-6160 6149 0
-1082 1901 6156 6158 6159 6160 0
1082 -1901 0
1082 -6156 0
1082 -6158 0
1082 -6159 0
1082 -6160 0
6161 -1903 -6157 0
-6161 1903 0
-6161 6157 0
6162 -6163 -6157 0
-6162 6163 0
-6162 6157 0
6164 -6163 -1900 0
-6164 6163 0
-6164 1900 0
6165 -1903 -1900 -6149 0
-6165 1903 0
-6165 1900 0
-6165 6149 0
-1085 1904 6161 6162 6164 6165 0
1085 -1904 0
1085 -6161 0
1085 -6162 0
1085 -6164 0
1085 -6165 0
6166 -1897 -6163 0
-6166 1897 0
-6166 6163 0
6167 -6152 -1903 0
-6167 6152 0
-6167 1903 0
6168 -6152 -6163 0
-6168 6152 0
-6168 6163 0
6169 -1897 -1903 -6149 0
-6169 1897 0
-6169 1903 0
-6169 6149 0
-1083 1906 6166 6167 6168 6169 0
1083 -1906 0
1083 -6166 0
1083 -6167 0
1083 -6168 0
1083 -6169 0
6170 -1897 -6152 0
-6170 1897 0
-6170 6152 0
6171 -6152 -6152 0
-6171 6152 0
-6171 6152 0
6172 -6152 -1897 0
-6172 6152 0
-6172 1897 0
6173 -1897 -1897 -6149 0
-6173 1897 0
-6173 1897 0
-6173 6149 0
-6174 1909 6170 6171 6172 6173 0
6174 -1909 0
6174 -6170 0
6174 -6171 0
6174 -6172 0
6174 -6173 0
6175 -2218 -2200 0
-6175 2218 0
-6175 2200 0
2201 -2200 -2200 0
-2201 2200 0
-2201 2200 0
6176 -2200 -2218 0
-6176 2200 0
-6176 2218 0
6177 -2218 -2218 -1741 0
-6177 2218 0
-6177 2218 0
-6177 1741 0
-6178 2204 6175 2201 6176 6177 0
6178 -2204 0
6178 -6175 0
6178 -2201 0
6178 -6176 0
6178 -6177 0
6179 -2218 -1744 0
-6179 2218 0
-6179 1744 0
6180 -2200 -1744 0
-6180 2200 0
-6180 1744 0
6181 -2200 -1752 0
-6181 2200 0
-6181 1752 0
6182 -2218 -1752 -1741 0
-6182 2218 0
-6182 1752 0
-6182 1741 0
-44 2207 6179 6180 6181 6182 0
44 -2207 0
44 -6179 0
44 -6180 0
44 -6181 0
44 -6182 0
6183 -2218 -1747 0
-6183 2218 0
-6183 1747 0
6184 -2200 -1750 0
-6184 2200 0
-6184 1750 0
6185 -2200 -1747 0
-6185 2200 0
-6185 1747 0
6186 -2218 -1750 -1741 0
-6186 2218 0
-6186 1750 0
-6186 1741 0
-42 2212 6183 6184 6185 6186 0
42 -2212 0
42 -6183 0
42 -6184 0
42 -6185 0
42 -6186 0
6187 -1749 -1747 0
-6187 1749 0
-6187 1747 0
6188 -1739 -1747 0
-6188 1739 0
-6188 1747 0
6189 -1739 -1750 0
-6189 1739 0
-6189 1750 0
6190 -1749 -1750 -1741 0
-6190 1749 0
-6190 1750 0
-6190 1741 0
-45 1746 6187 6188 6189 6190 0
45 -1746 0
45 -6187 0
45 -6188 0
45 -6189 0
45 -6190 0
6191 -1752 -1739 0
-6191 1752 0
-6191 1739 0
6192 -1744 -1749 0
-6192 1744 0
-6192 1749 0
6193 -1744 -1739 0
-6193 1744 0
-6193 1739 0
6194 -1752 -1749 -1741 0
-6194 1752 0
-6194 1749 0
-6194 1741 0
-43 1743 6191 6192 6193 6194 0
43 -1743 0
43 -6191 0
43 -6192 0
43 -6193 0
43 -6194 0
6195 -1752 -1744 0
-6195 1752 0
-6195 1744 0
6196 -1744 -1744 0
-6196 1744 0
-6196 1744 0
6197 -1744 -1752 0
-6197 1744 0
-6197 1752 0
6198 -1752 -1752 -1741 0
-6198 1752 0
-6198 1752 0
-6198 1741 0
-6199 1755 6195 6196 6197 6198 0
6199 -1755 0
6199 -6195 0
6199 -6196 0
6199 -6197 0
6199 -6198 0
6200 -4255 -6201 0
-6200 4255 0
-6200 6201 0
6202 -6201 -6201 0
-6202 6201 0
-6202 6201 0
6203 -6201 -4255 0
-6203 6201 0
-6203 4255 0
6204 -4255 -4255 -6205 0
-6204 4255 0
-6204 4255 0
-6204 6205 0
-6206 4257 6200 6202 6203 6204 0
6206 -4257 0
6206 -6200 0
6206 -6202 0
6206 -6203 0
6206 -6204 0
6207 -4255 -6208 0
-6207 4255 0
-6207 6208 0
6209 -6201 -6208 0
-6209 6201 0
-6209 6208 0
6210 -6201 -4259 0
-6210 6201 0
-6210 4259 0
6211 -4255 -4259 -6205 0
-6211 4255 0
-6211 4259 0
-6211 6205 0
-1044 4260 6207 6209 6210 6211 0
1044 -4260 0
1044 -6207 0
1044 -6209 0
1044 -6210 0
1044 -6211 0
6212 -4255 -6213 0
-6212 4255 0
-6212 6213 0
6214 -6201 -4262 0
-6214 6201 0
-6214 4262 0
6215 -6201 -6213 0
-6215 6201 0
-6215 6213 0
6216 -4255 -4262 -6205 0
-6216 4255 0
-6216 4262 0
-6216 6205 0
-1042 4263 6212 6214 6215 6216 0
1042 -4263 0
1042 -6212 0
1042 -6214 0
1042 -6215 0
1042 -6216 0
6217 -4265 -6213 0
-6217 4265 0
-6217 6213 0
6218 -6219 -6213 0
-6218 6219 0
-6218 6213 0
6220 -6219 -4262 0
-6220 6219 0
-6220 4262 0
6221 -4265 -4262 -6205 0
-6221 4265 0
-6221 4262 0
-6221 6205 0
-1045 4266 6217 6218 6220 6221 0
1045 -4266 0
1045 -6217 0
1045 -6218 0
1045 -6220 0
1045 -6221 0
6222 -4259 -6219 0
-6222 4259 0
-6222 6219 0
6223 -6208 -4265 0
-6223 6208 0
-6223 4265 0
6224 -6208 -6219 0
-6224 6208 0
-6224 6219 0
6225 -4259 -4265 -6205 0
-6225 4259 0
-6225 4265 0
-6225 6205 0
-1043 4268 6222 6223 6224 6225 0
1043 -4268 0
1043 -6222 0
1043 -6223 0
1043 -6224 0
1043 -6225 0
6226 -4259 -6208 0
-6226 4259 0
-6226 6208 0
6227 -6208 -6208 0
-6227 6208 0
-6227 6208 0
6228 -6208 -4259 0
-6228 6208 0
-6228 4259 0
6229 -4259 -4259 -6205 0
-6229 4259 0
-6229 4259 0
-6229 6205 0
-6230 4271 6226 6227 6228 6229 0
6230 -4271 0
6230 -6226 0
6230 -6227 0
6230 -6228 0
6230 -6229 0
6231 -3593 -3593 0
-6231 3593 0
-6231 3593 0
-6232 3600 6231 0
6232 -3600 0
6232 -6231 0
6233 -3593 -3605 0
-6233 3593 0
-6233 3605 0
-1089 3607 6233 0
1089 -3607 0
1089 -6233 0
6234 -3593 -3611 0
-6234 3593 0
-6234 3611 0
-1087 3614 6234 0
1087 -3614 0
1087 -6234 0
6235 -3616 -3611 0
-6235 3616 0
-6235 3611 0
-1090 3621 6235 0
1090 -3621 0
1090 -6235 0
6236 -3605 -3616 0
-6236 3605 0
-6236 3616 0
-1088 3626 6236 0
1088 -3626 0
1088 -6236 0
6237 -3605 -3605 0
-6237 3605 0
-6237 3605 0
-6238 3632 6237 0
6238 -3632 0
6238 -6237 0
6239 -2110 -2110 0
-6239 2110 0
-6239 2110 0
-6240 2117 6239 0
6240 -2117 0
6240 -6239 0
6241 -2110 -2122 0
-6241 2110 0
-6241 2122 0
-634 2124 6241 0
634 -2124 0
634 -6241 0
6242 -2110 -2128 0
-6242 2110 0
-6242 2128 0
-632 2131 6242 0
632 -2131 0
632 -6242 0
6243 -2133 -2128 0
-6243 2133 0
-6243 2128 0
-635 2138 6243 0
635 -2138 0
635 -6243 0
6244 -2122 -2133 0
-6244 2122 0
-6244 2133 0
-633 2143 6244 0
633 -2143 0
633 -6244 0
6245 -2122 -2122 0
-6245 2122 0
-6245 2122 0
-6246 2149 6245 0
6246 -2149 0
6246 -6245 0
6247 -4854 -6248 0
-6247 4854 0
-6247 6248 0
6249 -6248 -6248 0
-6249 6248 0
-6249 6248 0
6250 -6248 -4854 0
-6250 6248 0
-6250 4854 0
6251 -4854 -4854 -6252 0
-6251 4854 0
-6251 4854 0
-6251 6252 0
-6253 4856 6247 6249 6250 6251 0
6253 -4856 0
6253 -6247 0
6253 -6249 0
6253 -6250 0
6253 -6251 0
6254 -4854 -6255 0
-6254 4854 0
-6254 6255 0
6256 -6248 -6255 0
-6256 6248 0
-6256 6255 0
6257 -6248 -4858 0
-6257 6248 0
-6257 4858 0
6258 -4854 -4858 -6252 0
-6258 4854 0
-6258 4858 0
-6258 6252 0
-364 4859 6254 6256 6257 6258 0
364 -4859 0
364 -6254 0
364 -6256 0
364 -6257 0
364 -6258 0
6259 -4854 -6260 0
-6259 4854 0
-6259 6260 0
6261 -6248 -4861 0
-6261 6248 0
-6261 4861 0
6262 -6248 -6260 0
-6262 6248 0
-6262 6260 0
6263 -4854 -4861 -6252 0
-6263 4854 0
-6263 4861 0
-6263 6252 0
-362 4862 6259 6261 6262 6263 0
362 -4862 0
362 -6259 0
362 -6261 0
362 -6262 0
362 -6263 0
6264 -4864 -6260 0
-6264 4864 0
-6264 6260 0
6265 -6266 -6260 0
-6265 6266 0
-6265 6260 0
6267 -6266 -4861 0
-6267 6266 0
-6267 4861 0
6268 -4864 -4861 -6252 0
-6268 4864 0
-6268 4861 0
-6268 6252 0
-365 4865 6264 6265 6267 6268 0
365 -4865 0
365 -6264 0
365 -6265 0
365 -6267 0
365 -6268 0
6269 -4858 -6266 0
-6269 4858 0
-6269 6266 0
6270 -6255 -4864 0
-6270 6255 0
-6270 4864 0
6271 -6255 -6266 0
-6271 6255 0
-6271 6266 0
6272 -4858 -4864 -6252 0
-6272 4858 0
-6272 4864 0
-6272 6252 0
-363 4867 6269 6270 6271 6272 0
363 -4867 0
363 -6269 0
363 -6270 0
363 -6271 0
363 -6272 0
6273 -4858 -6255 0
-6273 4858 0
-6273 6255 0
6274 -6255 -6255 0
-6274 6255 0
-6274 6255 0
6275 -6255 -4858 0
-6275 6255 0
-6275 4858 0
6276 -4858 -4858 -6252 0
-6276 4858 0
-6276 4858 0
-6276 6252 0
-6277 4870 6273 6274 6275 6276 0
6277 -4870 0
6277 -6273 0
6277 -6274 0
6277 -6275 0
6277 -6276 0
6278 -3437 -3437 0
-6278 3437 0
-6278 3437 0
-6279 3444 6278 0
6279 -3444 0
6279 -6278 0
6280 -3437 -3449 0
-6280 3437 0
-6280 3449 0
-504 3451 6280 0
504 -3451 0
504 -6280 0
6281 -3437 -3455 0
-6281 3437 0
-6281 3455 0
-502 3458 6281 0
502 -3458 0
502 -6281 0
6282 -3460 -3455 0
-6282 3460 0
-6282 3455 0
-505 3465 6282 0
505 -3465 0
505 -6282 0
6283 -3449 -3460 0
-6283 3449 0
-6283 3460 0
-503 3470 6283 0
503 -3470 0
503 -6283 0
6284 -3449 -3449 0
-6284 3449 0
-6284 3449 0
-6285 3476 6284 0
6285 -3476 0
6285 -6284 0
6286 -2539 -2539 0
-6286 2539 0
-6286 2539 0
-6287 2546 6286 0
6287 -2546 0
6287 -6286 0
6288 -2539 -2551 0
-6288 2539 0
-6288 2551 0
-694 2553 6288 0
694 -2553 0
694 -6288 0
6289 -2539 -2557 0
-6289 2539 0
-6289 2557 0
-692 2560 6289 0
692 -2560 0
692 -6289 0
6290 -2562 -2557 0
-6290 2562 0
-6290 2557 0
-695 2567 6290 0
695 -2567 0
695 -6290 0
6291 -2551 -2562 0
-6291 2551 0
-6291 2562 0
-693 2572 6291 0
693 -2572 0
693 -6291 0
6292 -2551 -2551 0
-6292 2551 0
-6292 2551 0
-6293 2578 6292 0
6293 -2578 0
6293 -6292 0
6294 -1585 -1585 0
-6294 1585 0
-6294 1585 0
-6295 1592 6294 0
6295 -1592 0
6295 -6294 0
6296 -1585 -1597 0
-6296 1585 0
-6296 1597 0
-989 1599 6296 0
989 -1599 0
989 -6296 0
6297 -1585 -1603 0
-6297 1585 0
-6297 1603 0
-987 1606 6297 0
987 -1606 0
987 -6297 0
6298 -1608 -1603 0
-6298 1608 0
-6298 1603 0
-990 1613 6298 0
990 -1613 0
990 -6298 0
6299 -1597 -1608 0
-6299 1597 0
-6299 1608 0
-988 1618 6299 0
988 -1618 0
988 -6299 0
6300 -1597 -1597 0
-6300 1597 0
-6300 1597 0
-6301 1624 6300 0
6301 -1624 0
6301 -6300 0
6302 -3039 -3015 0
-6302 3039 0
-6302 3015 0
3016 -3015 -3015 0
-3016 3015 0
-3016 3015 0
6303 -3015 -3039 0
-6303 3015 0
-6303 3039 0
6304 -3039 -3039 -3021 0
-6304 3039 0
-6304 3039 0
-6304 3021 0
-6305 3019 6302 3016 6303 6304 0
6305 -3019 0
6305 -6302 0
6305 -3016 0
6305 -6303 0
6305 -6304 0
6306 -3039 -3028 0
-6306 3039 0
-6306 3028 0
6307 -3015 -3028 0
-6307 3015 0
-6307 3028 0
6308 -3015 -3047 0
-6308 3015 0
-6308 3047 0
6309 -3039 -3047 -3021 0
-6309 3039 0
-6309 3047 0
-6309 3021 0
-524 3023 6306 6307 6308 6309 0
524 -3023 0
524 -6306 0
524 -6307 0
524 -6308 0
524 -6309 0
6310 -3039 -3035 0
-6310 3039 0
-6310 3035 0
6311 -3015 -3042 0
-6311 3015 0
-6311 3042 0
6312 -3015 -3035 0
-6312 3015 0
-6312 3035 0
6313 -3039 -3042 -3021 0
-6313 3039 0
-6313 3042 0
-6313 3021 0
-522 3030 6310 6311 6312 6313 0
522 -3030 0
522 -6310 0
522 -6311 0
522 -6312 0
522 -6313 0
6314 -3037 -3035 0
-6314 3037 0
-6314 3035 0
6315 -3014 -3035 0
-6315 3014 0
-6315 3035 0
6316 -3014 -3042 0
-6316 3014 0
-6316 3042 0
6317 -3037 -3042 -3021 0
-6317 3037 0
-6317 3042 0
-6317 3021 0
-525 3032 6314 6315 6316 6317 0
525 -3032 0
525 -6314 0
525 -6315 0
525 -6316 0
525 -6317 0
6318 -3047 -3014 0
-6318 3047 0
-6318 3014 0
6319 -3028 -3037 0
-6319 3028 0
-6319 3037 0
6320 -3028 -3014 0
-6320 3028 0
-6320 3014 0
6321 -3047 -3037 -3021 0
-6321 3047 0
-6321 3037 0
-6321 3021 0
-523 3026 6318 6319 6320 6321 0
523 -3026 0
523 -6318 0
523 -6319 0
523 -6320 0
523 -6321 0
6322 -3047 -3028 0
-6322 3047 0
-6322 3028 0
6323 -3028 -3028 0
-6323 3028 0
-6323 3028 0
6324 -3028 -3047 0
-6324 3028 0
-6324 3047 0
6325 -3047 -3047 -3021 0
-6325 3047 0
-6325 3047 0
-6325 3021 0
-6326 3053 6322 6323 6324 6325 0
6326 -3053 0
6326 -6322 0
6326 -6323 0
6326 -6324 0
6326 -6325 0
6327 -1703 -2347 0
-6327 1703 0
-6327 2347 0
2449 -2347 -2347 0
-2449 2347 0
-2449 2347 0
6328 -2347 -1703 0
-6328 2347 0
-6328 1703 0
6329 -1703 -1703 -2366 0
-6329 1703 0
-6329 1703 0
-6329 2366 0
-6330 1705 6327 2449 6328 6329 0
6330 -1705 0
6330 -6327 0
6330 -2449 0
6330 -6328 0
6330 -6329 0
6331 -1703 -2342 0
-6331 1703 0
-6331 2342 0
6332 -2347 -2342 0
-6332 2347 0
-6332 2342 0
6333 -2347 -1707 0
-6333 2347 0
-6333 1707 0
6334 -1703 -1707 -2366 0
-6334 1703 0
-6334 1707 0
-6334 2366 0
-104 1708 6331 6332 6333 6334 0
104 -1708 0
104 -6331 0
104 -6332 0
104 -6333 0
104 -6334 0
6335 -1703 -2345 0
-6335 1703 0
-6335 2345 0
6336 -2347 -1710 0
-6336 2347 0
-6336 1710 0
6337 -2347 -2345 0
-6337 2347 0
-6337 2345 0
6338 -1703 -1710 -2366 0
-6338 1703 0
-6338 1710 0
-6338 2366 0
-102 1711 6335 6336 6337 6338 0
102 -1711 0
102 -6335 0
102 -6336 0
102 -6337 0
102 -6338 0
6339 -1713 -2345 0
-6339 1713 0
-6339 2345 0
6340 -2360 -2345 0
-6340 2360 0
-6340 2345 0
6341 -2360 -1710 0
-6341 2360 0
-6341 1710 0
6342 -1713 -1710 -2366 0
-6342 1713 0
-6342 1710 0
-6342 2366 0
-105 1714 6339 6340 6341 6342 0
105 -1714 0
105 -6339 0
105 -6340 0
105 -6341 0
105 -6342 0
6343 -1707 -2360 0
-6343 1707 0
-6343 2360 0
6344 -2342 -1713 0
-6344 2342 0
-6344 1713 0
6345 -2342 -2360 0
-6345 2342 0
-6345 2360 0
6346 -1707 -1713 -2366 0
-6346 1707 0
-6346 1713 0
-6346 2366 0
-103 1716 6343 6344 6345 6346 0
103 -1716 0
103 -6343 0
103 -6344 0
103 -6345 0
103 -6346 0
6347 -1707 -2342 0
-6347 1707 0
-6347 2342 0
2362 -2342 -2342 0
-2362 2342 0
-2362 2342 0
6348 -2342 -1707 0
-6348 2342 0
-6348 1707 0
6349 -1707 -1707 -2366 0
-6349 1707 0
-6349 1707 0
-6349 2366 0
-6350 1719 6347 2362 6348 6349 0
6350 -1719 0
6350 -6347 0
6350 -2362 0
6350 -6348 0
6350 -6349 0
6351 -4111 -6352 0
-6351 4111 0
-6351 6352 0
6353 -6352 -6352 0
-6353 6352 0
-6353 6352 0
6354 -6352 -4111 0
-6354 6352 0
-6354 4111 0
6355 -4111 -4111 -6356 0
-6355 4111 0
-6355 4111 0
-6355 6356 0
-6357 4113 6351 6353 6354 6355 0
6357 -4113 0
6357 -6351 0
6357 -6353 0
6357 -6354 0
6357 -6355 0
6358 -4111 -6359 0
-6358 4111 0
-6358 6359 0
6360 -6352 -6359 0
-6360 6352 0
-6360 6359 0
6361 -6352 -4115 0
-6361 6352 0
-6361 4115 0
6362 -4111 -4115 -6356 0
-6362 4111 0
-6362 4115 0
-6362 6356 0
-764 4116 6358 6360 6361 6362 0
764 -4116 0
764 -6358 0
764 -6360 0
764 -6361 0
764 -6362 0
6363 -4111 -6364 0
-6363 4111 0
-6363 6364 0
6365 -6352 -4118 0
-6365 6352 0
-6365 4118 0
6366 -6352 -6364 0
-6366 6352 0
-6366 6364 0
6367 -4111 -4118 -6356 0
-6367 4111 0
-6367 4118 0
-6367 6356 0
-762 4119 6363 6365 6366 6367 0
762 -4119 0
762 -6363 0
762 -6365 0
762 -6366 0
762 -6367 0
6368 -4121 -6364 0
-6368 4121 0
-6368 6364 0
6369 -6370 -6364 0
-6369 6370 0
-6369 6364 0
6371 -6370 -4118 0
-6371 6370 0
-6371 4118 0
6372 -4121 -4118 -6356 0
-6372 4121 0
-6372 4118 0
-6372 6356 0
-765 4122 6368 6369 6371 6372 0
765 -4122 0
765 -6368 0
765 -6369 0
765 -6371 0
765 -6372 0
6373 -4115 -6370 0
-6373 4115 0
-6373 6370 0
6374 -6359 -4121 0
-6374 6359 0
-6374 4121 0
6375 -6359 -6370 0
-6375 6359 0
-6375 6370 0
6376 -4115 -4121 -6356 0
-6376 4115 0
-6376 4121 0
-6376 6356 0
-763 4124 6373 6374 6375 6376 0
763 -4124 0
763 -6373 0
763 -6374 0
763 -6375 0
763 -6376 0
6377 -4115 -6359 0
-6377 4115 0
-6377 6359 0
6378 -6359 -6359 0
-6378 6359 0
-6378 6359 0
6379 -6359 -4115 0
-6379 6359 0
-6379 4115 0
6380 -4115 -4115 -6356 0
-6380 4115 0
-6380 4115 0
-6380 6356 0
-6381 4127 6377 6378 6379 6380 0
6381 -4127 0
6381 -6377 0
6381 -6378 0
6381 -6379 0
6381 -6380 0
6382 -6127 -6383 0
-6382 6127 0
-6382 6383 0
6384 -6383 -6383 0
-6384 6383 0
-6384 6383 0
6385 -6383 -6127 0
-6385 6383 0
-6385 6127 0
6386 -6127 -6127 -6387 0
-6386 6127 0
-6386 6127 0
-6386 6387 0
-6388 6129 6382 6384 6385 6386 0
6388 -6129 0
6388 -6382 0
6388 -6384 0
6388 -6385 0
6388 -6386 0
6389 -6127 -6390 0
-6389 6127 0
-6389 6390 0
6391 -6383 -6390 0
-6391 6383 0
-6391 6390 0
6392 -6383 -6131 0
-6392 6383 0
-6392 6131 0
6393 -6127 -6131 -6387 0
-6393 6127 0
-6393 6131 0
-6393 6387 0
-289 6132 6389 6391 6392 6393 0
289 -6132 0
289 -6389 0
289 -6391 0
289 -6392 0
289 -6393 0
6394 -6127 -6395 0
-6394 6127 0
-6394 6395 0
6396 -6383 -6134 0
-6396 6383 0
-6396 6134 0
6397 -6383 -6395 0
-6397 6383 0
-6397 6395 0
6398 -6127 -6134 -6387 0
-6398 6127 0
-6398 6134 0
-6398 6387 0
-287 6135 6394 6396 6397 6398 0
287 -6135 0
287 -6394 0
287 -6396 0
287 -6397 0
287 -6398 0
6399 -6137 -6395 0
-6399 6137 0
-6399 6395 0
6400 -6401 -6395 0
-6400 6401 0
-6400 6395 0
6402 -6401 -6134 0
-6402 6401 0
-6402 6134 0
6403 -6137 -6134 -6387 0
-6403 6137 0
-6403 6134 0
-6403 6387 0
-290 6138 6399 6400 6402 6403 0
290 -6138 0
290 -6399 0
290 -6400 0
290 -6402 0
290 -6403 0
6404 -6131 -6401 0
-6404 6131 0
-6404 6401 0
6405 -6390 -6137 0
-6405 6390 0
-6405 6137 0
6406 -6390 -6401 0
-6406 6390 0
-6406 6401 0
6407 -6131 -6137 -6387 0
-6407 6131 0
-6407 6137 0
-6407 6387 0
-288 6140 6404 6405 6406 6407 0
288 -6140 0
288 -6404 0
288 -6405 0
288 -6406 0
288 -6407 0
6408 -6131 -6390 0
-6408 6131 0
-6408 6390 0
6409 -6390 -6390 0
-6409 6390 0
-6409 6390 0
6410 -6390 -6131 0
-6410 6390 0
-6410 6131 0
6411 -6131 -6131 -6387 0
-6411 6131 0
-6411 6131 0
-6411 6387 0
-6412 6143 6408 6409 6410 6411 0
6412 -6143 0
6412 -6408 0
6412 -6409 0
6412 -6410 0
6412 -6411 0
6413 -2001 -1977 0
-6413 2001 0
-6413 1977 0
1978 -1977 -1977 0
-1978 1977 0
-1978 1977 0
6414 -1977 -2001 0
-6414 1977 0
-6414 2001 0
6415 -2001 -2001 -1983 0
-6415 2001 0
-6415 2001 0
-6415 1983 0
-6416 1981 6413 1978 6414 6415 0
6416 -1981 0
6416 -6413 0
6416 -1978 0
6416 -6414 0
6416 -6415 0
6417 -2001 -1990 0
-6417 2001 0
-6417 1990 0
6418 -1977 -1990 0
-6418 1977 0
-6418 1990 0
6419 -1977 -2009 0
-6419 1977 0
-6419 2009 0
6420 -2001 -2009 -1983 0
-6420 2001 0
-6420 2009 0
-6420 1983 0
-639 1985 6417 6418 6419 6420 0
639 -1985 0
639 -6417 0
639 -6418 0
639 -6419 0
639 -6420 0
6421 -2001 -1997 0
-6421 2001 0
-6421 1997 0
6422 -1977 -2004 0
-6422 1977 0
-6422 2004 0
6423 -1977 -1997 0
-6423 1977 0
-6423 1997 0
6424 -2001 -2004 -1983 0
-6424 2001 0
-6424 2004 0
-6424 1983 0
-637 1992 6421 6422 6423 6424 0
637 -1992 0
637 -6421 0
637 -6422 0
637 -6423 0
637 -6424 0
6425 -1999 -1997 0
-6425 1999 0
-6425 1997 0
6426 -1976 -1997 0
-6426 1976 0
-6426 1997 0
6427 -1976 -2004 0
-6427 1976 0
-6427 2004 0
6428 -1999 -2004 -1983 0
-6428 1999 0
-6428 2004 0
-6428 1983 0
-640 1994 6425 6426 6427 6428 0
640 -1994 0
640 -6425 0
640 -6426 0
640 -6427 0
640 -6428 0
6429 -2009 -1976 0
-6429 2009 0
-6429 1976 0
6430 -1990 -1999 0
-6430 1990 0
-6430 1999 0
6431 -1990 -1976 0
-6431 1990 0
-6431 1976 0
6432 -2009 -1999 -1983 0
-6432 2009 0
-6432 1999 0
-6432 1983 0
-638 1988 6429 6430 6431 6432 0
638 -1988 0
638 -6429 0
638 -6430 0
638 -6431 0
638 -6432 0
6433 -2009 -1990 0
-6433 2009 0
-6433 1990 0
6434 -1990 -1990 0
-6434 1990 0
-6434 1990 0
6435 -1990 -2009 0
-6435 1990 0
-6435 2009 0
6436 -2009 -2009 -1983 0
-6436 2009 0
-6436 2009 0
-6436 1983 0
-6437 2015 6433 6434 6435 6436 0
6437 -2015 0
6437 -6433 0
6437 -6434 0
6437 -6435 0
6437 -6436 0
6438 -2652 -2652 0
-6438 2652 0
-6438 2652 0
-6439 2659 6438 0
6439 -2659 0
6439 -6438 0
6440 -2652 -2664 0
-6440 2652 0
-6440 2664 0
-139 2666 6440 0
139 -2666 0
139 -6440 0
6441 -2652 -2670 0
-6441 2652 0
-6441 2670 0
-137 2673 6441 0
137 -2673 0
137 -6441 0
6442 -2675 -2670 0
-6442 2675 0
-6442 2670 0
-140 2680 6442 0
140 -2680 0
140 -6442 0
6443 -2664 -2675 0
-6443 2664 0
-6443 2675 0
-138 2685 6443 0
138 -2685 0
138 -6443 0
6444 -2664 -2664 0
-6444 2664 0
-6444 2664 0
-6445 2691 6444 0
6445 -2691 0
6445 -6444 0
6446 -3539 -3539 0
-6446 3539 0
-6446 3539 0
-6447 3525 6446 0
6447 -3525 0
6447 -6446 0
6448 -3539 -1503 0
-6448 3539 0
-6448 1503 0
-879 3528 6448 0
879 -3528 0
879 -6448 0
6449 -3539 -1501 0
-6449 3539 0
-6449 1501 0
-877 3533 6449 0
877 -3533 0
877 -6449 0
6450 -1500 -1501 0
-6450 1500 0
-6450 1501 0
-880 1497 6450 0
880 -1497 0
880 -6450 0
6451 -1503 -1500 0
-6451 1503 0
-6451 1500 0
-878 1494 6451 0
878 -1494 0
878 -6451 0
6452 -1503 -1503 0
-6452 1503 0
-6452 1503 0
-6453 1506 6452 0
6453 -1506 0
6453 -6452 0
6454 -6455 -6455 0
-6454 6455 0
-6454 6455 0
-1687 6456 6454 0
1687 -6456 0
1687 -6454 0
6457 -6455 -6458 0
-6457 6455 0
-6457 6458 0
-1690 6459 6457 0
1690 -6459 0
1690 -6457 0
6460 -6455 -6461 0
-6460 6455 0
-6460 6461 0
-1693 6462 6460 0
1693 -6462 0
1693 -6460 0
6463 -6464 -6461 0
-6463 6464 0
-6463 6461 0
-1696 6465 6463 0
1696 -6465 0
1696 -6463 0
6466 -6455 -6467 0
-6466 6455 0
-6466 6467 0
-1929 6468 6466 0
1929 -6468 0
1929 -6466 0
6469 -6455 -6470 0
-6469 6455 0
-6469 6470 0
-1685 6471 6469 0
1685 -6471 0
1685 -6469 0
6472 -6464 -6470 0
-6472 6464 0
-6472 6470 0
-1695 6473 6472 0
1695 -6473 0
1695 -6472 0
6474 -6458 -6464 0
-6474 6458 0
-6474 6464 0
-1698 6475 6474 0
1698 -6475 0
1698 -6474 0
6476 -6458 -6458 0
-6476 6458 0
-6476 6458 0
-1701 6477 6476 0
1701 -6477 0
1701 -6476 0
6478 -6458 -6467 0
-6478 6458 0
-6478 6467 0
-1924 6479 6478 0
1924 -6479 0
1924 -6478 0
6480 -6458 -6470 0
-6480 6458 0
-6480 6470 0
-1689 6481 6480 0
1689 -6481 0
1689 -6480 0
6482 -6461 -6470 0
-6482 6461 0
-6482 6470 0
-1692 6483 6482 0
1692 -6483 0
1692 -6482 0
6484 -6467 -6464 0
-6484 6467 0
-6484 6464 0
-1942 6485 6484 0
1942 -6485 0
1942 -6484 0
6486 -6467 -6461 0
-6486 6467 0
-6486 6461 0
-1927 6487 6486 0
1927 -6487 0
1927 -6486 0
6488 -6467 -6467 0
-6488 6467 0
-6488 6467 0
-1948 6489 6488 0
1948 -6489 0
1948 -6488 0
6490 -6491 -6492 0
-6490 6491 0
-6490 6492 0
6493 -6492 -6492 0
-6493 6492 0
-6493 6492 0
6494 -6492 -6491 0
-6494 6492 0
-6494 6491 0
6495 -6491 -6491 -6496 0
-6495 6491 0
-6495 6491 0
-6495 6496 0
-1510 6497 6490 6493 6494 6495 0
1510 -6497 0
1510 -6490 0
1510 -6493 0
1510 -6494 0
1510 -6495 0
6498 -6491 -6499 0
-6498 6491 0
-6498 6499 0
6500 -6492 -6499 0
-6500 6492 0
-6500 6499 0
6501 -6492 -6502 0
-6501 6492 0
-6501 6502 0
6503 -6491 -6502 -6496 0
-6503 6491 0
-6503 6502 0
-6503 6496 0
-2734 6504 6498 6500 6501 6503 0
2734 -6504 0
2734 -6498 0
2734 -6500 0
2734 -6501 0
2734 -6503 0
6505 -6491 -6506 0
-6505 6491 0
-6505 6506 0
6507 -6492 -6508 0
-6507 6492 0
-6507 6508 0
6509 -6492 -6506 0
-6509 6492 0
-6509 6506 0
6510 -6491 -6508 -6496 0
-6510 6491 0
-6510 6508 0
-6510 6496 0
-1508 6511 6505 6507 6509 6510 0
1508 -6511 0
1508 -6505 0
1508 -6507 0
1508 -6509 0
1508 -6510 0
6512 -6513 -6506 0
-6512 6513 0
-6512 6506 0
6514 -6515 -6506 0
-6514 6515 0
-6514 6506 0
6516 -6515 -6508 0
-6516 6515 0
-6516 6508 0
6517 -6513 -6508 -6496 0
-6517 6513 0
-6517 6508 0
-6517 6496 0
-1518 6518 6512 6514 6516 6517 0
1518 -6518 0
1518 -6512 0
1518 -6514 0
1518 -6516 0
1518 -6517 0
6519 -6491 -6520 0
-6519 6491 0
-6519 6520 0
6521 -6492 -6520 0
-6521 6492 0
-6521 6520 0
6522 -6492 -6523 0
-6522 6492 0
-6522 6523 0
6524 -6491 -6523 -6496 0
-6524 6491 0
-6524 6523 0
-6524 6496 0
-1513 6525 6519 6521 6522 6524 0
1513 -6525 0
1513 -6519 0
1513 -6521 0
1513 -6522 0
1513 -6524 0
6526 -6491 -6527 0
-6526 6491 0
-6526 6527 0
6528 -6492 -6529 0
-6528 6492 0
-6528 6529 0
6530 -6492 -6527 0
-6530 6492 0
-6530 6527 0
6531 -6491 -6529 -6496 0
-6531 6491 0
-6531 6529 0
-6531 6496 0
-1516 6532 6526 6528 6530 6531 0
1516 -6532 0
1516 -6526 0
1516 -6528 0
1516 -6530 0
1516 -6531 0
6533 -6513 -6527 0
-6533 6513 0
-6533 6527 0
6534 -6515 -6527 0
-6534 6515 0
-6534 6527 0
6535 -6515 -6529 0
-6535 6515 0
-6535 6529 0
6536 -6513 -6529 -6496 0
-6536 6513 0
-6536 6529 0
-6536 6496 0
-1519 6537 6533 6534 6535 6536 0
1519 -6537 0
1519 -6533 0
1519 -6534 0
1519 -6535 0
1519 -6536 0
6538 -6502 -6515 0
-6538 6502 0
-6538 6515 0
6539 -6499 -6513 0
-6539 6499 0
-6539 6513 0
6540 -6499 -6515 0
-6540 6499 0
-6540 6515 0
6541 -6502 -6513 -6496 0
-6541 6502 0
-6541 6513 0
-6541 6496 0
-2380 6542 6538 6539 6540 6541 0
2380 -6542 0
2380 -6538 0
2380 -6539 0
2380 -6540 0
2380 -6541 0
6543 -6502 -6499 0
-6543 6502 0
-6543 6499 0
6544 -6499 -6499 0
-6544 6499 0
-6544 6499 0
6545 -6499 -6502 0
-6545 6499 0
-6545 6502 0
6546 -6502 -6502 -6496 0
-6546 6502 0
-6546 6502 0
-6546 6496 0
-2382 6547 6543 6544 6545 6546 0
2382 -6547 0
2382 -6543 0
2382 -6544 0
2382 -6545 0
2382 -6546 0
6548 -6502 -6520 0
-6548 6502 0
-6548 6520 0
6549 -6499 -6520 0
-6549 6499 0
-6549 6520 0
6550 -6499 -6523 0
-6550 6499 0
-6550 6523 0
6551 -6502 -6523 -6496 0
-6551 6502 0
-6551 6523 0
-6551 6496 0
-2384 6552 6548 6549 6550 6551 0
2384 -6552 0
2384 -6548 0
2384 -6549 0
2384 -6550 0
2384 -6551 0
6553 -6502 -6527 0
-6553 6502 0
-6553 6527 0
6554 -6499 -6529 0
-6554 6499 0
-6554 6529 0
6555 -6499 -6527 0
-6555 6499 0
-6555 6527 0
6556 -6502 -6529 -6496 0
-6556 6502 0
-6556 6529 0
-6556 6496 0
-2386 6557 6553 6554 6555 6556 0
2386 -6557 0
2386 -6553 0
2386 -6554 0
2386 -6555 0
2386 -6556 0
6558 -6508 -6527 0
-6558 6508 0
-6558 6527 0
6559 -6506 -6527 0
-6559 6506 0
-6559 6527 0
6560 -6506 -6529 0
-6560 6506 0
-6560 6529 0
6561 -6508 -6529 -6496 0
-6561 6508 0
-6561 6529 0
-6561 6496 0
-1515 6562 6558 6559 6560 6561 0
1515 -6562 0
1515 -6558 0
1515 -6559 0
1515 -6560 0
1515 -6561 0
6563 -6523 -6515 0
-6563 6523 0
-6563 6515 0
6564 -6520 -6513 0
-6564 6520 0
-6564 6513 0
6565 -6520 -6515 0
-6565 6520 0
-6565 6515 0
6566 -6523 -6513 -6496 0
-6566 6523 0
-6566 6513 0
-6566 6496 0
-1521 6567 6563 6564 6565 6566 0
1521 -6567 0
1521 -6563 0
1521 -6564 0
1521 -6565 0
1521 -6566 0
6568 -6523 -6506 0
-6568 6523 0
-6568 6506 0
6569 -6520 -6508 0
-6569 6520 0
-6569 6508 0
6570 -6520 -6506 0
-6570 6520 0
-6570 6506 0
6571 -6523 -6508 -6496 0
-6571 6523 0
-6571 6508 0
-6571 6496 0
-1512 6572 6568 6569 6570 6571 0
1512 -6572 0
1512 -6568 0
1512 -6569 0
1512 -6570 0
1512 -6571 0
6573 -6523 -6520 0
-6573 6523 0
-6573 6520 0
6574 -6520 -6520 0
-6574 6520 0
-6574 6520 0
6575 -6520 -6523 0
-6575 6520 0
-6575 6523 0
6576 -6523 -6523 -6496 0
-6576 6523 0
-6576 6523 0
-6576 6496 0
-1524 6577 6573 6574 6575 6576 0
1524 -6577 0
1524 -6573 0
1524 -6574 0
1524 -6575 0
1524 -6576 0
6578 -6579 -6580 0
-6578 6579 0
-6578 6580 0
6581 -6580 -6580 0
-6581 6580 0
-6581 6580 0
6582 -6580 -6579 0
-6582 6580 0
-6582 6579 0
6583 -6579 -6579 -6584 0
-6583 6579 0
-6583 6579 0
-6583 6584 0
-1474 6585 6578 6581 6582 6583 0
1474 -6585 0
1474 -6578 0
1474 -6581 0
1474 -6582 0
1474 -6583 0
6586 -6579 -6587 0
-6586 6579 0
-6586 6587 0
6588 -6580 -6587 0
-6588 6580 0
-6588 6587 0
6589 -6580 -6590 0
-6589 6580 0
-6589 6590 0
6591 -6579 -6590 -6584 0
-6591 6579 0
-6591 6590 0
-6591 6584 0
-5450 6592 6586 6588 6589 6591 0
5450 -6592 0
5450 -6586 0
5450 -6588 0
5450 -6589 0
5450 -6591 0
6593 -6579 -6594 0
-6593 6579 0
-6593 6594 0
6595 -6580 -6596 0
-6595 6580 0
-6595 6596 0
6597 -6580 -6594 0
-6597 6580 0
-6597 6594 0
6598 -6579 -6596 -6584 0
-6598 6579 0
-6598 6596 0
-6598 6584 0
-1472 6599 6593 6595 6597 6598 0
1472 -6599 0
1472 -6593 0
1472 -6595 0
1472 -6597 0
1472 -6598 0
6600 -6601 -6594 0
-6600 6601 0
-6600 6594 0
6602 -6603 -6594 0
-6602 6603 0
-6602 6594 0
6604 -6603 -6596 0
-6604 6603 0
-6604 6596 0
6605 -6601 -6596 -6584 0
-6605 6601 0
-6605 6596 0
-6605 6584 0
-1482 6606 6600 6602 6604 6605 0
1482 -6606 0
1482 -6600 0
1482 -6602 0
1482 -6604 0
1482 -6605 0
6607 -6579 -6608 0
-6607 6579 0
-6607 6608 0
6609 -6580 -6608 0
-6609 6580 0
-6609 6608 0
6610 -6580 -6611 0
-6610 6580 0
-6610 6611 0
6612 -6579 -6611 -6584 0
-6612 6579 0
-6612 6611 0
-6612 6584 0
-1477 6613 6607 6609 6610 6612 0
1477 -6613 0
1477 -6607 0
1477 -6609 0
1477 -6610 0
1477 -6612 0
6614 -6579 -6615 0
-6614 6579 0
-6614 6615 0
6616 -6580 -6617 0
-6616 6580 0
-6616 6617 0
6618 -6580 -6615 0
-6618 6580 0
-6618 6615 0
6619 -6579 -6617 -6584 0
-6619 6579 0
-6619 6617 0
-6619 6584 0
-1480 6620 6614 6616 6618 6619 0
1480 -6620 0
1480 -6614 0
1480 -6616 0
1480 -6618 0
1480 -6619 0
6621 -6601 -6615 0
-6621 6601 0
-6621 6615 0
6622 -6603 -6615 0
-6622 6603 0
-6622 6615 0
6623 -6603 -6617 0
-6623 6603 0
-6623 6617 0
6624 -6601 -6617 -6584 0
-6624 6601 0
-6624 6617 0
-6624 6584 0
-1483 6625 6621 6622 6623 6624 0
1483 -6625 0
1483 -6621 0
1483 -6622 0
1483 -6623 0
1483 -6624 0
6626 -6590 -6603 0
-6626 6590 0
-6626 6603 0
6627 -6587 -6601 0
-6627 6587 0
-6627 6601 0
6628 -6587 -6603 0
-6628 6587 0
-6628 6603 0
6629 -6590 -6601 -6584 0
-6629 6590 0
-6629 6601 0
-6629 6584 0
-2527 6630 6626 6627 6628 6629 0
2527 -6630 0
2527 -6626 0
2527 -6627 0
2527 -6628 0
2527 -6629 0
6631 -6590 -6587 0
-6631 6590 0
-6631 6587 0
6632 -6587 -6587 0
-6632 6587 0
-6632 6587 0
6633 -6587 -6590 0
-6633 6587 0
-6633 6590 0
6634 -6590 -6590 -6584 0
-6634 6590 0
-6634 6590 0
-6634 6584 0
-2529 6635 6631 6632 6633 6634 0
2529 -6635 0
2529 -6631 0
2529 -6632 0
2529 -6633 0
2529 -6634 0
6636 -6590 -6608 0
-6636 6590 0
-6636 6608 0
6637 -6587 -6608 0
-6637 6587 0
-6637 6608 0
6638 -6587 -6611 0
-6638 6587 0
-6638 6611 0
6639 -6590 -6611 -6584 0
-6639 6590 0
-6639 6611 0
-6639 6584 0
-2531 6640 6636 6637 6638 6639 0
2531 -6640 0
2531 -6636 0
2531 -6637 0
2531 -6638 0
2531 -6639 0
6641 -6590 -6615 0
-6641 6590 0
-6641 6615 0
6642 -6587 -6617 0
-6642 6587 0
-6642 6617 0
6643 -6587 -6615 0
-6643 6587 0
-6643 6615 0
6644 -6590 -6617 -6584 0
-6644 6590 0
-6644 6617 0
-6644 6584 0
-2533 6645 6641 6642 6643 6644 0
2533 -6645 0
2533 -6641 0
2533 -6642 0
2533 -6643 0
2533 -6644 0
6646 -6596 -6615 0
-6646 6596 0
-6646 6615 0
6647 -6594 -6615 0
-6647 6594 0
-6647 6615 0
6648 -6594 -6617 0
-6648 6594 0
-6648 6617 0
6649 -6596 -6617 -6584 0
-6649 6596 0
-6649 6617 0
-6649 6584 0
-1479 6650 6646 6647 6648 6649 0
1479 -6650 0
1479 -6646 0
1479 -6647 0
1479 -6648 0
1479 -6649 0
6651 -6611 -6603 0
-6651 6611 0
-6651 6603 0
6652 -6608 -6601 0
-6652 6608 0
-6652 6601 0
6653 -6608 -6603 0
-6653 6608 0
-6653 6603 0
6654 -6611 -6601 -6584 0
-6654 6611 0
-6654 6601 0
-6654 6584 0
-1485 6655 6651 6652 6653 6654 0
1485 -6655 0
1485 -6651 0
1485 -6652 0
1485 -6653 0
1485 -6654 0
6656 -6611 -6594 0
-6656 6611 0
-6656 6594 0
6657 -6608 -6596 0
-6657 6608 0
-6657 6596 0
6658 -6608 -6594 0
-6658 6608 0
-6658 6594 0
6659 -6611 -6596 -6584 0
-6659 6611 0
-6659 6596 0
-6659 6584 0
-1476 6660 6656 6657 6658 6659 0
1476 -6660 0
1476 -6656 0
1476 -6657 0
1476 -6658 0
1476 -6659 0
6661 -6611 -6608 0
-6661 6611 0
-6661 6608 0
6662 -6608 -6608 0
-6662 6608 0
-6662 6608 0
6663 -6608 -6611 0
-6663 6608 0
-6663 6611 0
6664 -6611 -6611 -6584 0
-6664 6611 0
-6664 6611 0
-6664 6584 0
-1488 6665 6661 6662 6663 6664 0
1488 -6665 0
1488 -6661 0
1488 -6662 0
1488 -6663 0
1488 -6664 0
6666 -6667 -6668 0
-6666 6667 0
-6666 6668 0
6669 -6668 -6668 0
-6669 6668 0
-6669 6668 0
6670 -6668 -6667 0
-6670 6668 0
-6670 6667 0
6671 -6667 -6667 -6672 0
-6671 6667 0
-6671 6667 0
-6671 6672 0
-1780 6673 6666 6669 6670 6671 0
1780 -6673 0
1780 -6666 0
1780 -6669 0
1780 -6670 0
1780 -6671 0
6674 -6667 -6675 0
-6674 6667 0
-6674 6675 0
6676 -6668 -6675 0
-6676 6668 0
-6676 6675 0
6677 -6668 -6678 0
-6677 6668 0
-6677 6678 0
6679 -6667 -6678 -6672 0
-6679 6667 0
-6679 6678 0
-6679 6672 0
-1776 6680 6674 6676 6677 6679 0
1776 -6680 0
1776 -6674 0
1776 -6676 0
1776 -6677 0
1776 -6679 0
6681 -6667 -6682 0
-6681 6667 0
-6681 6682 0
6683 -6668 -6684 0
-6683 6668 0
-6683 6684 0
6685 -6668 -6682 0
-6685 6668 0
-6685 6682 0
6686 -6667 -6684 -6672 0
-6686 6667 0
-6686 6684 0
-6686 6672 0
-1800 6687 6681 6683 6685 6686 0
1800 -6687 0
1800 -6681 0
1800 -6683 0
1800 -6685 0
1800 -6686 0
6688 -6689 -6682 0
-6688 6689 0
-6688 6682 0
6690 -6691 -6682 0
-6690 6691 0
-6690 6682 0
6692 -6691 -6684 0
-6692 6691 0
-6692 6684 0
6693 -6689 -6684 -6672 0
-6693 6689 0
-6693 6684 0
-6693 6672 0
-1798 6694 6688 6690 6692 6693 0
1798 -6694 0
1798 -6688 0
1798 -6690 0
1798 -6692 0
1798 -6693 0
6695 -6667 -6696 0
-6695 6667 0
-6695 6696 0
6697 -6668 -6696 0
-6697 6668 0
-6697 6696 0
6698 -6668 -6699 0
-6698 6668 0
-6698 6699 0
6700 -6667 -6699 -6672 0
-6700 6667 0
-6700 6699 0
-6700 6672 0
-1784 6701 6695 6697 6698 6700 0
1784 -6701 0
1784 -6695 0
1784 -6697 0
1784 -6698 0
1784 -6700 0
6702 -6667 -6703 0
-6702 6667 0
-6702 6703 0
6704 -6668 -6705 0
-6704 6668 0
-6704 6705 0
6706 -6668 -6703 0
-6706 6668 0
-6706 6703 0
6707 -6667 -6705 -6672 0
-6707 6667 0
-6707 6705 0
-6707 6672 0
-1791 6708 6702 6704 6706 6707 0
1791 -6708 0
1791 -6702 0
1791 -6704 0
1791 -6706 0
1791 -6707 0
6709 -6689 -6703 0
-6709 6689 0
-6709 6703 0
6710 -6691 -6703 0
-6710 6691 0
-6710 6703 0
6711 -6691 -6705 0
-6711 6691 0
-6711 6705 0
6712 -6689 -6705 -6672 0
-6712 6689 0
-6712 6705 0
-6712 6672 0
-1793 6713 6709 6710 6711 6712 0
1793 -6713 0
1793 -6709 0
1793 -6710 0
1793 -6711 0
1793 -6712 0
6714 -6678 -6691 0
-6714 6678 0
-6714 6691 0
6715 -6675 -6689 0
-6715 6675 0
-6715 6689 0
6716 -6675 -6691 0
-6716 6675 0
-6716 6691 0
6717 -6678 -6689 -6672 0
-6717 6678 0
-6717 6689 0
-6717 6672 0
-1775 6718 6714 6715 6716 6717 0
1775 -6718 0
1775 -6714 0
1775 -6715 0
1775 -6716 0
1775 -6717 0
6719 -6678 -6675 0
-6719 6678 0
-6719 6675 0
6720 -6675 -6675 0
-6720 6675 0
-6720 6675 0
6721 -6675 -6678 0
-6721 6675 0
-6721 6678 0
6722 -6678 -6678 -6672 0
-6722 6678 0
-6722 6678 0
-6722 6672 0
-1782 6723 6719 6720 6721 6722 0
1782 -6723 0
1782 -6719 0
1782 -6720 0
1782 -6721 0
1782 -6722 0
6724 -6678 -6696 0
-6724 6678 0
-6724 6696 0
6725 -6675 -6696 0
-6725 6675 0
-6725 6696 0
6726 -6675 -6699 0
-6726 6675 0
-6726 6699 0
6727 -6678 -6699 -6672 0
-6727 6678 0
-6727 6699 0
-6727 6672 0
-1789 6728 6724 6725 6726 6727 0
1789 -6728 0
1789 -6724 0
1789 -6725 0
1789 -6726 0
1789 -6727 0
6729 -6678 -6703 0
-6729 6678 0
-6729 6703 0
6730 -6675 -6705 0
-6730 6675 0
-6730 6705 0
6731 -6675 -6703 0
-6731 6675 0
-6731 6703 0
6732 -6678 -6705 -6672 0
-6732 6678 0
-6732 6705 0
-6732 6672 0
-1796 6733 6729 6730 6731 6732 0
1796 -6733 0
1796 -6729 0
1796 -6730 0
1796 -6731 0
1796 -6732 0
6734 -6684 -6703 0
-6734 6684 0
-6734 6703 0
6735 -6682 -6703 0
-6735 6682 0
-6735 6703 0
6736 -6682 -6705 0
-6736 6682 0
-6736 6705 0
6737 -6684 -6705 -6672 0
-6737 6684 0
-6737 6705 0
-6737 6672 0
-1803 6738 6734 6735 6736 6737 0
1803 -6738 0
1803 -6734 0
1803 -6735 0
1803 -6736 0
1803 -6737 0
6739 -6699 -6691 0
-6739 6699 0
-6739 6691 0
6740 -6696 -6689 0
-6740 6696 0
-6740 6689 0
6741 -6696 -6691 0
-6741 6696 0
-6741 6691 0
6742 -6699 -6689 -6672 0
-6742 6699 0
-6742 6689 0
-6742 6672 0
-1787 6743 6739 6740 6741 6742 0
1787 -6743 0
1787 -6739 0
1787 -6740 0
1787 -6741 0
1787 -6742 0
6744 -6699 -6682 0
-6744 6699 0
-6744 6682 0
6745 -6696 -6684 0
-6745 6696 0
-6745 6684 0
6746 -6696 -6682 0
-6746 6696 0
-6746 6682 0
6747 -6699 -6684 -6672 0
-6747 6699 0
-6747 6684 0
-6747 6672 0
-1808 6748 6744 6745 6746 6747 0
1808 -6748 0
1808 -6744 0
1808 -6745 0
1808 -6746 0
1808 -6747 0
6749 -6699 -6696 0
-6749 6699 0
-6749 6696 0
6750 -6696 -6696 0
-6750 6696 0
-6750 6696 0
6751 -6696 -6699 0
-6751 6696 0
-6751 6699 0
6752 -6699 -6699 -6672 0
-6752 6699 0
-6752 6699 0
-6752 6672 0
-1814 6753 6749 6750 6751 6752 0
1814 -6753 0
1814 -6749 0
1814 -6750 0
1814 -6751 0
1814 -6752 0
6754 -6755 -6755 0
-6754 6755 0
-6754 6755 0
-2698 6756 6754 0
2698 -6756 0
2698 -6754 0
6757 -6755 -6758 0
-6757 6755 0
-6757 6758 0
-2694 6759 6757 0
2694 -6759 0
2694 -6757 0
6760 -6755 -6761 0
-6760 6755 0
-6760 6761 0
-2718 6762 6760 0
2718 -6762 0
2718 -6760 0
6763 -6764 -6761 0
-6763 6764 0
-6763 6761 0
-2716 6765 6763 0
2716 -6765 0
2716 -6763 0
6766 -6755 -6767 0
-6766 6755 0
-6766 6767 0
-2702 6768 6766 0
2702 -6768 0
2702 -6766 0
6769 -6755 -6770 0
-6769 6755 0
-6769 6770 0
-2709 6771 6769 0
2709 -6771 0
2709 -6769 0
6772 -6764 -6770 0
-6772 6764 0
-6772 6770 0
-2711 6773 6772 0
2711 -6773 0
2711 -6772 0
6774 -6758 -6764 0
-6774 6758 0
-6774 6764 0
-2693 6775 6774 0
2693 -6775 0
2693 -6774 0
6776 -6758 -6758 0
-6776 6758 0
-6776 6758 0
-2700 6777 6776 0
2700 -6777 0
2700 -6776 0
6778 -6758 -6767 0
-6778 6758 0
-6778 6767 0
-2707 6779 6778 0
2707 -6779 0
2707 -6778 0
6780 -6758 -6770 0
-6780 6758 0
-6780 6770 0
-2714 6781 6780 0
2714 -6781 0
2714 -6780 0
6782 -6761 -6770 0
-6782 6761 0
-6782 6770 0
-2721 6783 6782 0
2721 -6783 0
2721 -6782 0
6784 -6767 -6764 0
-6784 6767 0
-6784 6764 0
-2705 6785 6784 0
2705 -6785 0
2705 -6784 0
6786 -6767 -6761 0
-6786 6767 0
-6786 6761 0
-2726 6787 6786 0
2726 -6787 0
2726 -6786 0
6788 -6767 -6767 0
-6788 6767 0
-6788 6767 0
-2732 6789 6788 0
2732 -6789 0
2732 -6788 0
6790 -6620 -6613 0
-6790 6620 0
-6790 6613 0
6791 -6613 -6613 0
-6791 6613 0
-6791 6613 0
6792 -6613 -6620 0
-6792 6613 0
-6792 6620 0
6793 -6620 -6620 -6665 0
-6793 6620 0
-6793 6620 0
-6793 6665 0
-2425 6585 6790 6791 6792 6793 0
2425 -6585 0
2425 -6790 0
2425 -6791 0
2425 -6792 0
2425 -6793 0
6794 -6620 -6640 0
-6794 6620 0
-6794 6640 0
6795 -6613 -6640 0
-6795 6613 0
-6795 6640 0
6796 -6613 -6645 0
-6796 6613 0
-6796 6645 0
6797 -6620 -6645 -6665 0
-6797 6620 0
-6797 6645 0
-6797 6665 0
-2428 6592 6794 6795 6796 6797 0
2428 -6592 0
2428 -6794 0
2428 -6795 0
2428 -6796 0
2428 -6797 0
6798 -6620 -6660 0
-6798 6620 0
-6798 6660 0
6799 -6613 -6650 0
-6799 6613 0
-6799 6650 0
6800 -6613 -6660 0
-6800 6613 0
-6800 6660 0
6801 -6620 -6650 -6665 0
-6801 6620 0
-6801 6650 0
-6801 6665 0
-2431 6599 6798 6799 6800 6801 0
2431 -6599 0
2431 -6798 0
2431 -6799 0
2431 -6800 0
2431 -6801 0
6802 -6625 -6660 0
-6802 6625 0
-6802 6660 0
6803 -6655 -6660 0
-6803 6655 0
-6803 6660 0
6804 -6655 -6650 0
-6804 6655 0
-6804 6650 0
6805 -6625 -6650 -6665 0
-6805 6625 0
-6805 6650 0
-6805 6665 0
-2434 6606 6802 6803 6804 6805 0
2434 -6606 0
2434 -6802 0
2434 -6803 0
2434 -6804 0
2434 -6805 0
6806 -6620 -6608 0
-6806 6620 0
-6806 6608 0
6807 -6613 -6608 0
-6807 6613 0
-6807 6608 0
6808 -6613 -6615 0
-6808 6613 0
-6808 6615 0
6809 -6620 -6615 -6665 0
-6809 6620 0
-6809 6615 0
-6809 6665 0
-3841 6580 6806 6807 6808 6809 0
3841 -6580 0
3841 -6806 0
3841 -6807 0
3841 -6808 0
3841 -6809 0
6810 -6620 -6611 0
-6810 6620 0
-6810 6611 0
6811 -6613 -6617 0
-6811 6613 0
-6811 6617 0
6812 -6613 -6611 0
-6812 6613 0
-6812 6611 0
6813 -6620 -6617 -6665 0
-6813 6620 0
-6813 6617 0
-6813 6665 0
-2423 6579 6810 6811 6812 6813 0
2423 -6579 0
2423 -6810 0
2423 -6811 0
2423 -6812 0
2423 -6813 0
6814 -6625 -6611 0
-6814 6625 0
-6814 6611 0
6815 -6655 -6611 0
-6815 6655 0
-6815 6611 0
6816 -6655 -6617 0
-6816 6655 0
-6816 6617 0
6817 -6625 -6617 -6665 0
-6817 6625 0
-6817 6617 0
-6817 6665 0
-2433 6601 6814 6815 6816 6817 0
2433 -6601 0
2433 -6814 0
2433 -6815 0
2433 -6816 0
2433 -6817 0
6818 -6645 -6655 0
-6818 6645 0
-6818 6655 0
6819 -6640 -6625 0
-6819 6640 0
-6819 6625 0
6820 -6640 -6655 0
-6820 6640 0
-6820 6655 0
6821 -6645 -6625 -6665 0
-6821 6645 0
-6821 6625 0
-6821 6665 0
-2436 6630 6818 6819 6820 6821 0
2436 -6630 0
2436 -6818 0
2436 -6819 0
2436 -6820 0
2436 -6821 0
6822 -6645 -6640 0
-6822 6645 0
-6822 6640 0
6823 -6640 -6640 0
-6823 6640 0
-6823 6640 0
6824 -6640 -6645 0
-6824 6640 0
-6824 6645 0
6825 -6645 -6645 -6665 0
-6825 6645 0
-6825 6645 0
-6825 6665 0
-2439 6635 6822 6823 6824 6825 0
2439 -6635 0
2439 -6822 0
2439 -6823 0
2439 -6824 0
2439 -6825 0
6826 -6645 -6608 0
-6826 6645 0
-6826 6608 0
6827 -6640 -6608 0
-6827 6640 0
-6827 6608 0
6828 -6640 -6615 0
-6828 6640 0
-6828 6615 0
6829 -6645 -6615 -6665 0
-6829 6645 0
-6829 6615 0
-6829 6665 0
-3792 6587 6826 6827 6828 6829 0
3792 -6587 0
3792 -6826 0
3792 -6827 0
3792 -6828 0
3792 -6829 0
6830 -6645 -6611 0
-6830 6645 0
-6830 6611 0
6831 -6640 -6617 0
-6831 6640 0
-6831 6617 0
6832 -6640 -6611 0
-6832 6640 0
-6832 6611 0
6833 -6645 -6617 -6665 0
-6833 6645 0
-6833 6617 0
-6833 6665 0
-2427 6590 6830 6831 6832 6833 0
2427 -6590 0
2427 -6830 0
2427 -6831 0
2427 -6832 0
2427 -6833 0
6834 -6650 -6611 0
-6834 6650 0
-6834 6611 0
6835 -6660 -6611 0
-6835 6660 0
-6835 6611 0
6836 -6660 -6617 0
-6836 6660 0
-6836 6617 0
6837 -6650 -6617 -6665 0
-6837 6650 0
-6837 6617 0
-6837 6665 0
-2430 6596 6834 6835 6836 6837 0
2430 -6596 0
2430 -6834 0
2430 -6835 0
2430 -6836 0
2430 -6837 0
6838 -6615 -6655 0
-6838 6615 0
-6838 6655 0
6839 -6608 -6625 0
-6839 6608 0
-6839 6625 0
6840 -6608 -6655 0
-6840 6608 0
-6840 6655 0
6841 -6615 -6625 -6665 0
-6841 6615 0
-6841 6625 0
-6841 6665 0
-3791 6603 6838 6839 6840 6841 0
3791 -6603 0
3791 -6838 0
3791 -6839 0
3791 -6840 0
3791 -6841 0
6842 -6615 -6660 0
-6842 6615 0
-6842 6660 0
6843 -6608 -6650 0
-6843 6608 0
-6843 6650 0
6844 -6608 -6660 0
-6844 6608 0
-6844 6660 0
6845 -6615 -6650 -6665 0
-6845 6615 0
-6845 6650 0
-6845 6665 0
-3796 6594 6842 6843 6844 6845 0
3796 -6594 0
3796 -6842 0
3796 -6843 0
3796 -6844 0
3796 -6845 0
6846 -6615 -6608 0
-6846 6615 0
-6846 6608 0
6662 -6608 -6608 0
-6662 6608 0
-6662 6608 0
6847 -6608 -6615 0
-6847 6608 0
-6847 6615 0
6848 -6615 -6615 -6665 0
-6848 6615 0
-6848 6615 0
-6848 6665 0
-3799 6584 6846 6662 6847 6848 0
3799 -6584 0
3799 -6846 0
3799 -6662 0
3799 -6847 0
3799 -6848 0
6849 -6491 -6491 0
-6849 6491 0
-6849 6491 0
-2370 6497 6849 0
2370 -6497 0
2370 -6849 0
6850 -6491 -6502 0
-6850 6491 0
-6850 6502 0
-5398 6504 6850 0
5398 -6504 0
5398 -6850 0
6851 -6491 -6508 0
-6851 6491 0
-6851 6508 0
-2368 6511 6851 0
2368 -6511 0
2368 -6851 0
6852 -6513 -6508 0
-6852 6513 0
-6852 6508 0
-2241 6518 6852 0
2241 -6518 0
2241 -6852 0
6853 -6491 -6523 0
-6853 6491 0
-6853 6523 0
-2372 6525 6853 0
2372 -6525 0
2372 -6853 0
6854 -6491 -6529 0
-6854 6491 0
-6854 6529 0
-2374 6532 6854 0
2374 -6532 0
2374 -6854 0
6855 -6513 -6529 0
-6855 6513 0
-6855 6529 0
-2238 6537 6855 0
2238 -6537 0
2238 -6855 0
6856 -6502 -6513 0
-6856 6502 0
-6856 6513 0
-2231 6542 6856 0
2231 -6542 0
2231 -6856 0
6857 -6502 -6502 0
-6857 6502 0
-6857 6502 0
-2233 6547 6857 0
2233 -6547 0
2233 -6857 0
6858 -6502 -6523 0
-6858 6502 0
-6858 6523 0
-2236 6552 6858 0
2236 -6552 0
2236 -6858 0
6859 -6502 -6529 0
-6859 6502 0
-6859 6529 0
-2239 6557 6859 0
2239 -6557 0
2239 -6859 0
6860 -6508 -6529 0
-6860 6508 0
-6860 6529 0
-2242 6562 6860 0
2242 -6562 0
2242 -6860 0
6861 -6523 -6513 0
-6861 6523 0
-6861 6513 0
-2235 6567 6861 0
2235 -6567 0
2235 -6861 0
6862 -6523 -6508 0
-6862 6523 0
-6862 6508 0
-2244 6572 6862 0
2244 -6572 0
2244 -6862 0
6863 -6523 -6523 0
-6863 6523 0
-6863 6523 0
-2247 6577 6863 0
2247 -6577 0
2247 -6863 0
6864 -6865 -6865 0
-6864 6865 0
-6864 6865 0
-1983 6866 6864 0
1983 -6866 0
1983 -6864 0
6867 -6865 -6868 0
-6867 6865 0
-6867 6868 0
-1977 6869 6867 0
1977 -6869 0
1977 -6867 0
6870 -6865 -6871 0
-6870 6865 0
-6870 6871 0
-1976 6872 6870 0
1976 -6872 0
1976 -6870 0
6873 -6874 -6871 0
-6873 6874 0
-6873 6871 0
-1999 6875 6873 0
1999 -6875 0
1999 -6873 0
6876 -6865 -6877 0
-6876 6865 0
-6876 6877 0
-1990 6878 6876 0
1990 -6878 0
1990 -6876 0
6879 -6865 -6880 0
-6879 6865 0
-6879 6880 0
-1997 6881 6879 0
1997 -6881 0
1997 -6879 0
6882 -6874 -6880 0
-6882 6874 0
-6882 6880 0
-2004 6883 6882 0
2004 -6883 0
2004 -6882 0
6884 -6868 -6874 0
-6884 6868 0
-6884 6874 0
-2001 6885 6884 0
2001 -6885 0
2001 -6884 0
6886 -6868 -6868 0
-6886 6868 0
-6886 6868 0
-1981 6887 6886 0
1981 -6887 0
1981 -6886 0
6888 -6868 -6877 0
-6888 6868 0
-6888 6877 0
-1985 6889 6888 0
1985 -6889 0
1985 -6888 0
6890 -6868 -6880 0
-6890 6868 0
-6890 6880 0
-1992 6891 6890 0
1992 -6891 0
1992 -6890 0
6892 -6871 -6880 0
-6892 6871 0
-6892 6880 0
-1994 6893 6892 0
1994 -6893 0
1994 -6892 0
6894 -6877 -6874 0
-6894 6877 0
-6894 6874 0
-2009 6895 6894 0
2009 -6895 0
2009 -6894 0
6896 -6877 -6871 0
-6896 6877 0
-6896 6871 0
-1988 6897 6896 0
1988 -6897 0
1988 -6896 0
6898 -6877 -6877 0
-6898 6877 0
-6898 6877 0
-2015 6899 6898 0
2015 -6899 0
2015 -6898 0
6900 -6901 -6902 0
-6900 6901 0
-6900 6902 0
6903 -6902 -6902 0
-6903 6902 0
-6903 6902 0
6904 -6902 -6901 0
-6904 6902 0
-6904 6901 0
6905 -6901 -6901 -6906 0
-6905 6901 0
-6905 6901 0
-6905 6906 0
-3180 6907 6900 6903 6904 6905 0
3180 -6907 0
3180 -6900 0
3180 -6903 0
3180 -6904 0
3180 -6905 0
6908 -6901 -6909 0
-6908 6901 0
-6908 6909 0
6910 -6902 -6909 0
-6910 6902 0
-6910 6909 0
6911 -6902 -6912 0
-6911 6902 0
-6911 6912 0
6913 -6901 -6912 -6906 0
-6913 6901 0
-6913 6912 0
-6913 6906 0
-3176 6914 6908 6910 6911 6913 0
3176 -6914 0
3176 -6908 0
3176 -6910 0
3176 -6911 0
3176 -6913 0
6915 -6901 -6916 0
-6915 6901 0
-6915 6916 0
6917 -6902 -6918 0
-6917 6902 0
-6917 6918 0
6919 -6902 -6916 0
-6919 6902 0
-6919 6916 0
6920 -6901 -6918 -6906 0
-6920 6901 0
-6920 6918 0
-6920 6906 0
-3200 6921 6915 6917 6919 6920 0
3200 -6921 0
3200 -6915 0
3200 -6917 0
3200 -6919 0
3200 -6920 0
6922 -6923 -6916 0
-6922 6923 0
-6922 6916 0
6924 -6925 -6916 0
-6924 6925 0
-6924 6916 0
6926 -6925 -6918 0
-6926 6925 0
-6926 6918 0
6927 -6923 -6918 -6906 0
-6927 6923 0
-6927 6918 0
-6927 6906 0
-3198 6928 6922 6924 6926 6927 0
3198 -6928 0
3198 -6922 0
3198 -6924 0
3198 -6926 0
3198 -6927 0
6929 -6901 -6930 0
-6929 6901 0
-6929 6930 0
6931 -6902 -6930 0
-6931 6902 0
-6931 6930 0
6932 -6902 -6933 0
-6932 6902 0
-6932 6933 0
6934 -6901 -6933 -6906 0
-6934 6901 0
-6934 6933 0
-6934 6906 0
-3184 6935 6929 6931 6932 6934 0
3184 -6935 0
3184 -6929 0
3184 -6931 0
3184 -6932 0
3184 -6934 0
6936 -6901 -6937 0
-6936 6901 0
-6936 6937 0
6938 -6902 -6939 0
-6938 6902 0
-6938 6939 0
6940 -6902 -6937 0
-6940 6902 0
-6940 6937 0
6941 -6901 -6939 -6906 0
-6941 6901 0
-6941 6939 0
-6941 6906 0
-3191 6942 6936 6938 6940 6941 0
3191 -6942 0
3191 -6936 0
3191 -6938 0
3191 -6940 0
3191 -6941 0
6943 -6923 -6937 0
-6943 6923 0
-6943 6937 0
6944 -6925 -6937 0
-6944 6925 0
-6944 6937 0
6945 -6925 -6939 0
-6945 6925 0
-6945 6939 0
6946 -6923 -6939 -6906 0
-6946 6923 0
-6946 6939 0
-6946 6906 0
-3193 6947 6943 6944 6945 6946 0
3193 -6947 0
3193 -6943 0
3193 -6944 0
3193 -6945 0
3193 -6946 0
6948 -6912 -6925 0
-6948 6912 0
-6948 6925 0
6949 -6909 -6923 0
-6949 6909 0
-6949 6923 0
6950 -6909 -6925 0
-6950 6909 0
-6950 6925 0
6951 -6912 -6923 -6906 0
-6951 6912 0
-6951 6923 0
-6951 6906 0
-3175 6952 6948 6949 6950 6951 0
3175 -6952 0
3175 -6948 0
3175 -6949 0
3175 -6950 0
3175 -6951 0
6953 -6912 -6909 0
-6953 6912 0
-6953 6909 0
6954 -6909 -6909 0
-6954 6909 0
-6954 6909 0
6955 -6909 -6912 0
-6955 6909 0
-6955 6912 0
6956 -6912 -6912 -6906 0
-6956 6912 0
-6956 6912 0
-6956 6906 0
-3182 6957 6953 6954 6955 6956 0
3182 -6957 0
3182 -6953 0
3182 -6954 0
3182 -6955 0
3182 -6956 0
6958 -6912 -6930 0
-6958 6912 0
-6958 6930 0
6959 -6909 -6930 0
-6959 6909 0
-6959 6930 0
6960 -6909 -6933 0
-6960 6909 0
-6960 6933 0
6961 -6912 -6933 -6906 0
-6961 6912 0
-6961 6933 0
-6961 6906 0
-3189 6962 6958 6959 6960 6961 0
3189 -6962 0
3189 -6958 0
3189 -6959 0
3189 -6960 0
3189 -6961 0
6963 -6912 -6937 0
-6963 6912 0
-6963 6937 0
6964 -6909 -6939 0
-6964 6909 0
-6964 6939 0
6965 -6909 -6937 0
-6965 6909 0
-6965 6937 0
6966 -6912 -6939 -6906 0
-6966 6912 0
-6966 6939 0
-6966 6906 0
-3196 6967 6963 6964 6965 6966 0
3196 -6967 0
3196 -6963 0
3196 -6964 0
3196 -6965 0
3196 -6966 0
6968 -6918 -6937 0
-6968 6918 0
-6968 6937 0
6969 -6916 -6937 0
-6969 6916 0
-6969 6937 0
6970 -6916 -6939 0
-6970 6916 0
-6970 6939 0
6971 -6918 -6939 -6906 0
-6971 6918 0
-6971 6939 0
-6971 6906 0
-3203 6972 6968 6969 6970 6971 0
3203 -6972 0
3203 -6968 0
3203 -6969 0
3203 -6970 0
3203 -6971 0
6973 -6933 -6925 0
-6973 6933 0
-6973 6925 0
6974 -6930 -6923 0
-6974 6930 0
-6974 6923 0
6975 -6930 -6925 0
-6975 6930 0
-6975 6925 0
6976 -6933 -6923 -6906 0
-6976 6933 0
-6976 6923 0
-6976 6906 0
-3187 6977 6973 6974 6975 6976 0
3187 -6977 0
3187 -6973 0
3187 -6974 0
3187 -6975 0
3187 -6976 0
6978 -6933 -6916 0
-6978 6933 0
-6978 6916 0
6979 -6930 -6918 0
-6979 6930 0
-6979 6918 0
6980 -6930 -6916 0
-6980 6930 0
-6980 6916 0
6981 -6933 -6918 -6906 0
-6981 6933 0
-6981 6918 0
-6981 6906 0
-3208 6982 6978 6979 6980 6981 0
3208 -6982 0
3208 -6978 0
3208 -6979 0
3208 -6980 0
3208 -6981 0
6983 -6933 -6930 0
-6983 6933 0
-6983 6930 0
6984 -6930 -6930 0
-6984 6930 0
-6984 6930 0
6985 -6930 -6933 0
-6985 6930 0
-6985 6933 0
6986 -6933 -6933 -6906 0
-6986 6933 0
-6986 6933 0
-6986 6906 0
-3214 6987 6983 6984 6985 6986 0
3214 -6987 0
3214 -6983 0
3214 -6984 0
3214 -6985 0
3214 -6986 0
6988 -6989 -6989 0
-6988 6989 0
-6988 6989 0
-5215 6990 6988 0
5215 -6990 0
5215 -6988 0
6991 -6989 -6992 0
-6991 6989 0
-6991 6992 0
-5211 6993 6991 0
5211 -6993 0
5211 -6991 0
6994 -6989 -6995 0
-6994 6989 0
-6994 6995 0
-5229 6996 6994 0
5229 -6996 0
5229 -6994 0
6997 -6998 -6995 0
-6997 6998 0
-6997 6995 0
-3126 6999 6997 0
3126 -6999 0
3126 -6997 0
7000 -6989 -7001 0
-7000 6989 0
-7000 7001 0
-5218 7002 7000 0
5218 -7002 0
5218 -7000 0
7003 -6989 -7004 0
-7003 6989 0
-7003 7004 0
-5223 7005 7003 0
5223 -7005 0
5223 -7003 0
7006 -6998 -7004 0
-7006 6998 0
-7006 7004 0
-3123 7007 7006 0
3123 -7007 0
3123 -7006 0
7008 -6992 -6998 0
-7008 6992 0
-7008 6998 0
-3116 7009 7008 0
3116 -7009 0
3116 -7008 0
7010 -6992 -6992 0
-7010 6992 0
-7010 6992 0
-3118 7011 7010 0
3118 -7011 0
3118 -7010 0
7012 -6992 -7001 0
-7012 6992 0
-7012 7001 0
-3121 7013 7012 0
3121 -7013 0
3121 -7012 0
7014 -6992 -7004 0
-7014 6992 0
-7014 7004 0
-3124 7015 7014 0
3124 -7015 0
3124 -7014 0
7016 -6995 -7004 0
-7016 6995 0
-7016 7004 0
-3127 7017 7016 0
3127 -7017 0
3127 -7016 0
7018 -7001 -6998 0
-7018 7001 0
-7018 6998 0
-3120 7019 7018 0
3120 -7019 0
3120 -7018 0
7020 -7001 -6995 0
-7020 7001 0
-7020 6995 0
-3129 7021 7020 0
3129 -7021 0
3129 -7020 0
7022 -7001 -7001 0
-7022 7001 0
-7022 7001 0
-3132 7023 7022 0
3132 -7023 0
3132 -7022 0
7024 -7025 -7026 0
-7024 7025 0
-7024 7026 0
7027 -7026 -7026 0
-7027 7026 0
-7027 7026 0
7028 -7026 -7025 0
-7028 7026 0
-7028 7025 0
7029 -7025 -7025 -7030 0
-7029 7025 0
-7029 7025 0
-7029 7030 0
-3444 7031 7024 7027 7028 7029 0
3444 -7031 0
3444 -7024 0
3444 -7027 0
3444 -7028 0
3444 -7029 0
7032 -7025 -7033 0
-7032 7025 0
-7032 7033 0
7034 -7026 -7033 0
-7034 7026 0
-7034 7033 0
7035 -7026 -7036 0
-7035 7026 0
-7035 7036 0
7037 -7025 -7036 -7030 0
-7037 7025 0
-7037 7036 0
-7037 7030 0
-3438 7038 7032 7034 7035 7037 0
3438 -7038 0
3438 -7032 0
3438 -7034 0
3438 -7035 0
3438 -7037 0
7039 -7025 -7040 0
-7039 7025 0
-7039 7040 0
7041 -7026 -7042 0
-7041 7026 0
-7041 7042 0
7043 -7026 -7040 0
-7043 7026 0
-7043 7040 0
7044 -7025 -7042 -7030 0
-7044 7025 0
-7044 7042 0
-7044 7030 0
-3437 7045 7039 7041 7043 7044 0
3437 -7045 0
3437 -7039 0
3437 -7041 0
3437 -7043 0
3437 -7044 0
7046 -7047 -7040 0
-7046 7047 0
-7046 7040 0
7048 -7049 -7040 0
-7048 7049 0
-7048 7040 0
7050 -7049 -7042 0
-7050 7049 0
-7050 7042 0
7051 -7047 -7042 -7030 0
-7051 7047 0
-7051 7042 0
-7051 7030 0
-3460 7052 7046 7048 7050 7051 0
3460 -7052 0
3460 -7046 0
3460 -7048 0
3460 -7050 0
3460 -7051 0
7053 -7025 -7054 0
-7053 7025 0
-7053 7054 0
7055 -7026 -7054 0
-7055 7026 0
-7055 7054 0
7056 -7026 -7057 0
-7056 7026 0
-7056 7057 0
7058 -7025 -7057 -7030 0
-7058 7025 0
-7058 7057 0
-7058 7030 0
-3451 7059 7053 7055 7056 7058 0
3451 -7059 0
3451 -7053 0
3451 -7055 0
3451 -7056 0
3451 -7058 0
7060 -7025 -7061 0
-7060 7025 0
-7060 7061 0
7062 -7026 -7063 0
-7062 7026 0
-7062 7063 0
7064 -7026 -7061 0
-7064 7026 0
-7064 7061 0
7065 -7025 -7063 -7030 0
-7065 7025 0
-7065 7063 0
-7065 7030 0
-3458 7066 7060 7062 7064 7065 0
3458 -7066 0
3458 -7060 0
3458 -7062 0
3458 -7064 0
3458 -7065 0
7067 -7047 -7061 0
-7067 7047 0
-7067 7061 0
7068 -7049 -7061 0
-7068 7049 0
-7068 7061 0
7069 -7049 -7063 0
-7069 7049 0
-7069 7063 0
7070 -7047 -7063 -7030 0
-7070 7047 0
-7070 7063 0
-7070 7030 0
-3465 7071 7067 7068 7069 7070 0
3465 -7071 0
3465 -7067 0
3465 -7068 0
3465 -7069 0
3465 -7070 0
7072 -7036 -7049 0
-7072 7036 0
-7072 7049 0
7073 -7033 -7047 0
-7073 7033 0
-7073 7047 0
7074 -7033 -7049 0
-7074 7033 0
-7074 7049 0
7075 -7036 -7047 -7030 0
-7075 7036 0
-7075 7047 0
-7075 7030 0
-3462 7076 7072 7073 7074 7075 0
3462 -7076 0
3462 -7072 0
3462 -7073 0
3462 -7074 0
3462 -7075 0
7077 -7036 -7033 0
-7077 7036 0
-7077 7033 0
7078 -7033 -7033 0
-7078 7033 0
-7078 7033 0
7079 -7033 -7036 0
-7079 7033 0
-7079 7036 0
7080 -7036 -7036 -7030 0
-7080 7036 0
-7080 7036 0
-7080 7030 0
-3442 7081 7077 7078 7079 7080 0
3442 -7081 0
3442 -7077 0
3442 -7078 0
3442 -7079 0
3442 -7080 0
7082 -7036 -7054 0
-7082 7036 0
-7082 7054 0
7083 -7033 -7054 0
-7083 7033 0
-7083 7054 0
7084 -7033 -7057 0
-7084 7033 0
-7084 7057 0
7085 -7036 -7057 -7030 0
-7085 7036 0
-7085 7057 0
-7085 7030 0
-3446 7086 7082 7083 7084 7085 0
3446 -7086 0
3446 -7082 0
3446 -7083 0
3446 -7084 0
3446 -7085 0
7087 -7036 -7061 0
-7087 7036 0
-7087 7061 0
7088 -7033 -7063 0
-7088 7033 0
-7088 7063 0
7089 -7033 -7061 0
-7089 7033 0
-7089 7061 0
7090 -7036 -7063 -7030 0
-7090 7036 0
-7090 7063 0
-7090 7030 0
-3453 7091 7087 7088 7089 7090 0
3453 -7091 0
3453 -7087 0
3453 -7088 0
3453 -7089 0
3453 -7090 0
7092 -7042 -7061 0
-7092 7042 0
-7092 7061 0
7093 -7040 -7061 0
-7093 7040 0
-7093 7061 0
7094 -7040 -7063 0
-7094 7040 0
-7094 7063 0
7095 -7042 -7063 -7030 0
-7095 7042 0
-7095 7063 0
-7095 7030 0
-3455 7096 7092 7093 7094 7095 0
3455 -7096 0
3455 -7092 0
3455 -7093 0
3455 -7094 0
3455 -7095 0
7097 -7057 -7049 0
-7097 7057 0
-7097 7049 0
7098 -7054 -7047 0
-7098 7054 0
-7098 7047 0
7099 -7054 -7049 0
-7099 7054 0
-7099 7049 0
7100 -7057 -7047 -7030 0
-7100 7057 0
-7100 7047 0
-7100 7030 0
-3470 7101 7097 7098 7099 7100 0
3470 -7101 0
3470 -7097 0
3470 -7098 0
3470 -7099 0
3470 -7100 0
7102 -7057 -7040 0
-7102 7057 0
-7102 7040 0
7103 -7054 -7042 0
-7103 7054 0
-7103 7042 0
7104 -7054 -7040 0
-7104 7054 0
-7104 7040 0
7105 -7057 -7042 -7030 0
-7105 7057 0
-7105 7042 0
-7105 7030 0
-3449 7106 7102 7103 7104 7105 0
3449 -7106 0
3449 -7102 0
3449 -7103 0
3449 -7104 0
3449 -7105 0
7107 -7057 -7054 0
-7107 7057 0
-7107 7054 0
7108 -7054 -7054 0
-7108 7054 0
-7108 7054 0
7109 -7054 -7057 0
-7109 7054 0
-7109 7057 0
7110 -7057 -7057 -7030 0
-7110 7057 0
-7110 7057 0
-7110 7030 0
-3476 7111 7107 7108 7109 7110 0
3476 -7111 0
3476 -7107 0
3476 -7108 0
3476 -7109 0
3476 -7110 0
7112 -6579 -6579 0
-7112 6579 0
-7112 6579 0
-1669 6585 7112 0
1669 -6585 0
1669 -7112 0
7113 -6579 -6590 0
-7113 6579 0
-7113 6590 0
-2306 6592 7113 0
2306 -6592 0
2306 -7113 0
7114 -6579 -6596 0
-7114 6579 0
-7114 6596 0
-1667 6599 7114 0
1667 -6599 0
1667 -7114 0
7115 -6601 -6596 0
-7115 6601 0
-7115 6596 0
-1677 6606 7115 0
1677 -6606 0
1677 -7115 0
7116 -6579 -6611 0
-7116 6579 0
-7116 6611 0
-1672 6613 7116 0
1672 -6613 0
1672 -7116 0
7117 -6579 -6617 0
-7117 6579 0
-7117 6617 0
-1675 6620 7117 0
1675 -6620 0
1675 -7117 0
7118 -6601 -6617 0
-7118 6601 0
-7118 6617 0
-1678 6625 7118 0
1678 -6625 0
1678 -7118 0
7119 -6590 -6601 0
-7119 6590 0
-7119 6601 0
-2324 6630 7119 0
2324 -6630 0
2324 -7119 0
7120 -6590 -6590 0
-7120 6590 0
-7120 6590 0
-2310 6635 7120 0
2310 -6635 0
2310 -7120 0
7121 -6590 -6611 0
-7121 6590 0
-7121 6611 0
-2313 6640 7121 0
2313 -6640 0
2313 -7121 0
7122 -6590 -6617 0
-7122 6590 0
-7122 6617 0
-2318 6645 7122 0
2318 -6645 0
2318 -7122 0
7123 -6596 -6617 0
-7123 6596 0
-7123 6617 0
-1674 6650 7123 0
1674 -6650 0
1674 -7123 0
7124 -6611 -6601 0
-7124 6611 0
-7124 6601 0
-1680 6655 7124 0
1680 -6655 0
1680 -7124 0
7125 -6611 -6596 0
-7125 6611 0
-7125 6596 0
-1671 6660 7125 0
1671 -6660 0
1671 -7125 0
7126 -6611 -6611 0
-7126 6611 0
-7126 6611 0
-1683 6665 7126 0
1683 -6665 0
1683 -7126 0
7127 -7128 -7128 0
-7127 7128 0
-7127 7128 0
-2846 7129 7127 0
2846 -7129 0
2846 -7127 0
7130 -7128 -7131 0
-7130 7128 0
-7130 7131 0
-2842 7132 7130 0
2842 -7132 0
2842 -7130 0
7133 -7128 -7134 0
-7133 7128 0
-7133 7134 0
-2866 7135 7133 0
2866 -7135 0
2866 -7133 0
7136 -7137 -7134 0
-7136 7137 0
-7136 7134 0
-2864 7138 7136 0
2864 -7138 0
2864 -7136 0
7139 -7128 -7140 0
-7139 7128 0
-7139 7140 0
-2850 7141 7139 0
2850 -7141 0
2850 -7139 0
7142 -7128 -7143 0
-7142 7128 0
-7142 7143 0
-2857 7144 7142 0
2857 -7144 0
2857 -7142 0
7145 -7137 -7143 0
-7145 7137 0
-7145 7143 0
-2859 7146 7145 0
2859 -7146 0
2859 -7145 0
7147 -7131 -7137 0
-7147 7131 0
-7147 7137 0
-2841 7148 7147 0
2841 -7148 0
2841 -7147 0
7149 -7131 -7131 0
-7149 7131 0
-7149 7131 0
-2848 7150 7149 0
2848 -7150 0
2848 -7149 0
7151 -7131 -7140 0
-7151 7131 0
-7151 7140 0
-2855 7152 7151 0
2855 -7152 0
2855 -7151 0
7153 -7131 -7143 0
-7153 7131 0
-7153 7143 0
-2862 7154 7153 0
2862 -7154 0
2862 -7153 0
7155 -7134 -7143 0
-7155 7134 0
-7155 7143 0
-2869 7156 7155 0
2869 -7156 0
2869 -7155 0
7157 -7140 -7137 0
-7157 7140 0
-7157 7137 0
-2853 7158 7157 0
2853 -7158 0
2853 -7157 0
7159 -7140 -7134 0
-7159 7140 0
-7159 7134 0
-2874 7160 7159 0
2874 -7160 0
2874 -7159 0
7161 -7140 -7140 0
-7161 7140 0
-7161 7140 0
-2880 7162 7161 0
2880 -7162 0
2880 -7161 0
7163 -7164 -7165 0
-7163 7164 0
-7163 7165 0
7166 -7165 -7165 0
-7166 7165 0
-7166 7165 0
7167 -7165 -7164 0
-7167 7165 0
-7167 7164 0
7168 -7164 -7164 -7169 0
-7168 7164 0
-7168 7164 0
-7168 7169 0
-2544 7170 7163 7166 7167 7168 0
2544 -7170 0
2544 -7163 0
2544 -7166 0
2544 -7167 0
2544 -7168 0
7171 -7164 -7172 0
-7171 7164 0
-7171 7172 0
7173 -7165 -7172 0
-7173 7165 0
-7173 7172 0
7174 -7165 -7175 0
-7174 7165 0
-7174 7175 0
7176 -7164 -7175 -7169 0
-7176 7164 0
-7176 7175 0
-7176 7169 0
-2540 7177 7171 7173 7174 7176 0
2540 -7177 0
2540 -7171 0
2540 -7173 0
2540 -7174 0
2540 -7176 0
7178 -7164 -7179 0
-7178 7164 0
-7178 7179 0
7180 -7165 -7181 0
-7180 7165 0
-7180 7181 0
7182 -7165 -7179 0
-7182 7165 0
-7182 7179 0
7183 -7164 -7181 -7169 0
-7183 7164 0
-7183 7181 0
-7183 7169 0
-2564 7184 7178 7180 7182 7183 0
2564 -7184 0
2564 -7178 0
2564 -7180 0
2564 -7182 0
2564 -7183 0
7185 -7186 -7179 0
-7185 7186 0
-7185 7179 0
7187 -7188 -7179 0
-7187 7188 0
-7187 7179 0
7189 -7188 -7181 0
-7189 7188 0
-7189 7181 0
7190 -7186 -7181 -7169 0
-7190 7186 0
-7190 7181 0
-7190 7169 0
-2562 7191 7185 7187 7189 7190 0
2562 -7191 0
2562 -7185 0
2562 -7187 0
2562 -7189 0
2562 -7190 0
7192 -7164 -7193 0
-7192 7164 0
-7192 7193 0
7194 -7165 -7193 0
-7194 7165 0
-7194 7193 0
7195 -7165 -7196 0
-7195 7165 0
-7195 7196 0
7197 -7164 -7196 -7169 0
-7197 7164 0
-7197 7196 0
-7197 7169 0
-2548 7198 7192 7194 7195 7197 0
2548 -7198 0
2548 -7192 0
2548 -7194 0
2548 -7195 0
2548 -7197 0
7199 -7164 -7200 0
-7199 7164 0
-7199 7200 0
7201 -7165 -7202 0
-7201 7165 0
-7201 7202 0
7203 -7165 -7200 0
-7203 7165 0
-7203 7200 0
7204 -7164 -7202 -7169 0
-7204 7164 0
-7204 7202 0
-7204 7169 0
-2555 7205 7199 7201 7203 7204 0
2555 -7205 0
2555 -7199 0
2555 -7201 0
2555 -7203 0
2555 -7204 0
7206 -7186 -7200 0
-7206 7186 0
-7206 7200 0
7207 -7188 -7200 0
-7207 7188 0
-7207 7200 0
7208 -7188 -7202 0
-7208 7188 0
-7208 7202 0
7209 -7186 -7202 -7169 0
-7209 7186 0
-7209 7202 0
-7209 7169 0
-2557 7210 7206 7207 7208 7209 0
2557 -7210 0
2557 -7206 0
2557 -7207 0
2557 -7208 0
2557 -7209 0
7211 -7175 -7188 0
-7211 7175 0
-7211 7188 0
7212 -7172 -7186 0
-7212 7172 0
-7212 7186 0
7213 -7172 -7188 0
-7213 7172 0
-7213 7188 0
7214 -7175 -7186 -7169 0
-7214 7175 0
-7214 7186 0
-7214 7169 0
-2539 7215 7211 7212 7213 7214 0
2539 -7215 0
2539 -7211 0
2539 -7212 0
2539 -7213 0
2539 -7214 0
7216 -7175 -7172 0
-7216 7175 0
-7216 7172 0
7217 -7172 -7172 0
-7217 7172 0
-7217 7172 0
7218 -7172 -7175 0
-7218 7172 0
-7218 7175 0
7219 -7175 -7175 -7169 0
-7219 7175 0
-7219 7175 0
-7219 7169 0
-2546 7220 7216 7217 7218 7219 0
2546 -7220 0
2546 -7216 0
2546 -7217 0
2546 -7218 0
2546 -7219 0
7221 -7175 -7193 0
-7221 7175 0
-7221 7193 0
7222 -7172 -7193 0
-7222 7172 0
-7222 7193 0
7223 -7172 -7196 0
-7223 7172 0
-7223 7196 0
7224 -7175 -7196 -7169 0
-7224 7175 0
-7224 7196 0
-7224 7169 0
-2553 7225 7221 7222 7223 7224 0
2553 -7225 0
2553 -7221 0
2553 -7222 0
2553 -7223 0
2553 -7224 0
7226 -7175 -7200 0
-7226 7175 0
-7226 7200 0
7227 -7172 -7202 0
-7227 7172 0
-7227 7202 0
7228 -7172 -7200 0
-7228 7172 0
-7228 7200 0
7229 -7175 -7202 -7169 0
-7229 7175 0
-7229 7202 0
-7229 7169 0
-2560 7230 7226 7227 7228 7229 0
2560 -7230 0
2560 -7226 0
2560 -7227 0
2560 -7228 0
2560 -7229 0
7231 -7181 -7200 0
-7231 7181 0
-7231 7200 0
7232 -7179 -7200 0
-7232 7179 0
-7232 7200 0
7233 -7179 -7202 0
-7233 7179 0
-7233 7202 0
7234 -7181 -7202 -7169 0
-7234 7181 0
-7234 7202 0
-7234 7169 0
-2567 7235 7231 7232 7233 7234 0
2567 -7235 0
2567 -7231 0
2567 -7232 0
2567 -7233 0
2567 -7234 0
7236 -7196 -7188 0
-7236 7196 0
-7236 7188 0
7237 -7193 -7186 0
-7237 7193 0
-7237 7186 0
7238 -7193 -7188 0
-7238 7193 0
-7238 7188 0
7239 -7196 -7186 -7169 0
-7239 7196 0
-7239 7186 0
-7239 7169 0
-2551 7240 7236 7237 7238 7239 0
2551 -7240 0
2551 -7236 0
2551 -7237 0
2551 -7238 0
2551 -7239 0
7241 -7196 -7179 0
-7241 7196 0
-7241 7179 0
7242 -7193 -7181 0
-7242 7193 0
-7242 7181 0
7243 -7193 -7179 0
-7243 7193 0
-7243 7179 0
7244 -7196 -7181 -7169 0
-7244 7196 0
-7244 7181 0
-7244 7169 0
-2572 7245 7241 7242 7243 7244 0
2572 -7245 0
2572 -7241 0
2572 -7242 0
2572 -7243 0
2572 -7244 0
7246 -7196 -7193 0
-7246 7196 0
-7246 7193 0
7247 -7193 -7193 0
-7247 7193 0
-7247 7193 0
7248 -7193 -7196 0
-7248 7193 0
-7248 7196 0
7249 -7196 -7196 -7169 0
-7249 7196 0
-7249 7196 0
-7249 7169 0
-2578 7250 7246 7247 7248 7249 0
2578 -7250 0
2578 -7246 0
2578 -7247 0
2578 -7248 0
2578 -7249 0
7251 -6532 -6525 0
-7251 6532 0
-7251 6525 0
7252 -6525 -6525 0
-7252 6525 0
-7252 6525 0
7253 -6525 -6532 0
-7253 6525 0
-7253 6532 0
7254 -6532 -6532 -6577 0
-7254 6532 0
-7254 6532 0
-7254 6577 0
-1297 6497 7251 7252 7253 7254 0
1297 -6497 0
1297 -7251 0
1297 -7252 0
1297 -7253 0
1297 -7254 0
7255 -6532 -6552 0
-7255 6532 0
-7255 6552 0
7256 -6525 -6552 0
-7256 6525 0
-7256 6552 0
7257 -6525 -6557 0
-7257 6525 0
-7257 6557 0
7258 -6532 -6557 -6577 0
-7258 6532 0
-7258 6557 0
-7258 6577 0
-1300 6504 7255 7256 7257 7258 0
1300 -6504 0
1300 -7255 0
1300 -7256 0
1300 -7257 0
1300 -7258 0
7259 -6532 -6572 0
-7259 6532 0
-7259 6572 0
7260 -6525 -6562 0
-7260 6525 0
-7260 6562 0
7261 -6525 -6572 0
-7261 6525 0
-7261 6572 0
7262 -6532 -6562 -6577 0
-7262 6532 0
-7262 6562 0
-7262 6577 0
-1303 6511 7259 7260 7261 7262 0
1303 -6511 0
1303 -7259 0
1303 -7260 0
1303 -7261 0
1303 -7262 0
7263 -6537 -6572 0
-7263 6537 0
-7263 6572 0
7264 -6567 -6572 0
-7264 6567 0
-7264 6572 0
7265 -6567 -6562 0
-7265 6567 0
-7265 6562 0
7266 -6537 -6562 -6577 0
-7266 6537 0
-7266 6562 0
-7266 6577 0
-1306 6518 7263 7264 7265 7266 0
1306 -6518 0
1306 -7263 0
1306 -7264 0
1306 -7265 0
1306 -7266 0
7267 -6532 -6520 0
-7267 6532 0
-7267 6520 0
7268 -6525 -6520 0
-7268 6525 0
-7268 6520 0
7269 -6525 -6527 0
-7269 6525 0
-7269 6527 0
7270 -6532 -6527 -6577 0
-7270 6532 0
-7270 6527 0
-7270 6577 0
-4730 6492 7267 7268 7269 7270 0
4730 -6492 0
4730 -7267 0
4730 -7268 0
4730 -7269 0
4730 -7270 0
7271 -6532 -6523 0
-7271 6532 0
-7271 6523 0
7272 -6525 -6529 0
-7272 6525 0
-7272 6529 0
7273 -6525 -6523 0
-7273 6525 0
-7273 6523 0
7274 -6532 -6529 -6577 0
-7274 6532 0
-7274 6529 0
-7274 6577 0
-1295 6491 7271 7272 7273 7274 0
1295 -6491 0
1295 -7271 0
1295 -7272 0
1295 -7273 0
1295 -7274 0
7275 -6537 -6523 0
-7275 6537 0
-7275 6523 0
7276 -6567 -6523 0
-7276 6567 0
-7276 6523 0
7277 -6567 -6529 0
-7277 6567 0
-7277 6529 0
7278 -6537 -6529 -6577 0
-7278 6537 0
-7278 6529 0
-7278 6577 0
-1305 6513 7275 7276 7277 7278 0
1305 -6513 0
1305 -7275 0
1305 -7276 0
1305 -7277 0
1305 -7278 0
7279 -6557 -6567 0
-7279 6557 0
-7279 6567 0
7280 -6552 -6537 0
-7280 6552 0
-7280 6537 0
7281 -6552 -6567 0
-7281 6552 0
-7281 6567 0
7282 -6557 -6537 -6577 0
-7282 6557 0
-7282 6537 0
-7282 6577 0
-1308 6542 7279 7280 7281 7282 0
1308 -6542 0
1308 -7279 0
1308 -7280 0
1308 -7281 0
1308 -7282 0
7283 -6557 -6552 0
-7283 6557 0
-7283 6552 0
7284 -6552 -6552 0
-7284 6552 0
-7284 6552 0
7285 -6552 -6557 0
-7285 6552 0
-7285 6557 0
7286 -6557 -6557 -6577 0
-7286 6557 0
-7286 6557 0
-7286 6577 0
-1311 6547 7283 7284 7285 7286 0
1311 -6547 0
1311 -7283 0
1311 -7284 0
1311 -7285 0
1311 -7286 0
7287 -6557 -6520 0
-7287 6557 0
-7287 6520 0
7288 -6552 -6520 0
-7288 6552 0
-7288 6520 0
7289 -6552 -6527 0
-7289 6552 0
-7289 6527 0
7290 -6557 -6527 -6577 0
-7290 6557 0
-7290 6527 0
-7290 6577 0
-4735 6499 7287 7288 7289 7290 0
4735 -6499 0
4735 -7287 0
4735 -7288 0
4735 -7289 0
4735 -7290 0
7291 -6557 -6523 0
-7291 6557 0
-7291 6523 0
7292 -6552 -6529 0
-7292 6552 0
-7292 6529 0
7293 -6552 -6523 0
-7293 6552 0
-7293 6523 0
7294 -6557 -6529 -6577 0
-7294 6557 0
-7294 6529 0
-7294 6577 0
-1299 6502 7291 7292 7293 7294 0
1299 -6502 0
1299 -7291 0
1299 -7292 0
1299 -7293 0
1299 -7294 0
7295 -6562 -6523 0
-7295 6562 0
-7295 6523 0
7296 -6572 -6523 0
-7296 6572 0
-7296 6523 0
7297 -6572 -6529 0
-7297 6572 0
-7297 6529 0
7298 -6562 -6529 -6577 0
-7298 6562 0
-7298 6529 0
-7298 6577 0
-1302 6508 7295 7296 7297 7298 0
1302 -6508 0
1302 -7295 0
1302 -7296 0
1302 -7297 0
1302 -7298 0
7299 -6527 -6567 0
-7299 6527 0
-7299 6567 0
7300 -6520 -6537 0
-7300 6520 0
-7300 6537 0
7301 -6520 -6567 0
-7301 6520 0
-7301 6567 0
7302 -6527 -6537 -6577 0
-7302 6527 0
-7302 6537 0
-7302 6577 0
-4733 6515 7299 7300 7301 7302 0
4733 -6515 0
4733 -7299 0
4733 -7300 0
4733 -7301 0
4733 -7302 0
7303 -6527 -6572 0
-7303 6527 0
-7303 6572 0
7304 -6520 -6562 0
-7304 6520 0
-7304 6562 0
7305 -6520 -6572 0
-7305 6520 0
-7305 6572 0
7306 -6527 -6562 -6577 0
-7306 6527 0
-7306 6562 0
-7306 6577 0
-4748 6506 7303 7304 7305 7306 0
4748 -6506 0
4748 -7303 0
4748 -7304 0
4748 -7305 0
4748 -7306 0
7307 -6527 -6520 0
-7307 6527 0
-7307 6520 0
6574 -6520 -6520 0
-6574 6520 0
-6574 6520 0
7308 -6520 -6527 0
-7308 6520 0
-7308 6527 0
7309 -6527 -6527 -6577 0
-7309 6527 0
-7309 6527 0
-7309 6577 0
-4754 6496 7307 6574 7308 7309 0
4754 -6496 0
4754 -7307 0
4754 -6574 0
4754 -7308 0
4754 -7309 0
7310 -7311 -7311 0
-7310 7311 0
-7310 7311 0
-5747 7312 7310 0
5747 -7312 0
5747 -7310 0
7313 -7311 -7314 0
-7313 7311 0
-7313 7314 0
-5743 7315 7313 0
5743 -7315 0
5743 -7313 0
7316 -7311 -7317 0
-7316 7311 0
-7316 7317 0
-5761 7318 7316 0
5761 -7318 0
5761 -7316 0
7319 -7320 -7317 0
-7319 7320 0
-7319 7317 0
-4385 7321 7319 0
4385 -7321 0
4385 -7319 0
7322 -7311 -7323 0
-7322 7311 0
-7322 7323 0
-5750 7324 7322 0
5750 -7324 0
5750 -7322 0
7325 -7311 -7326 0
-7325 7311 0
-7325 7326 0
-5755 7327 7325 0
5755 -7327 0
5755 -7325 0
7328 -7320 -7326 0
-7328 7320 0
-7328 7326 0
-4382 7329 7328 0
4382 -7329 0
4382 -7328 0
7330 -7314 -7320 0
-7330 7314 0
-7330 7320 0
-4375 7331 7330 0
4375 -7331 0
4375 -7330 0
7332 -7314 -7314 0
-7332 7314 0
-7332 7314 0
-4377 7333 7332 0
4377 -7333 0
4377 -7332 0
7334 -7314 -7323 0
-7334 7314 0
-7334 7323 0
-4380 7335 7334 0
4380 -7335 0
4380 -7334 0
7336 -7314 -7326 0
-7336 7314 0
-7336 7326 0
-4383 7337 7336 0
4383 -7337 0
4383 -7336 0
7338 -7317 -7326 0
-7338 7317 0
-7338 7326 0
-4386 7339 7338 0
4386 -7339 0
4386 -7338 0
7340 -7323 -7320 0
-7340 7323 0
-7340 7320 0
-4379 7341 7340 0
4379 -7341 0
4379 -7340 0
7342 -7323 -7317 0
-7342 7323 0
-7342 7317 0
-4388 7343 7342 0
4388 -7343 0
4388 -7342 0
7344 -7323 -7323 0
-7344 7323 0
-7344 7323 0
-4391 7345 7344 0
4391 -7345 0
4391 -7344 0
7346 -7347 -7347 0
-7346 7347 0
-7346 7347 0
-2253 7348 7346 0
2253 -7348 0
2253 -7346 0
7349 -7347 -7350 0
-7349 7347 0
-7349 7350 0
-2249 7351 7349 0
2249 -7351 0
2249 -7349 0
7352 -7347 -7353 0
-7352 7347 0
-7352 7353 0
-2267 7354 7352 0
2267 -7354 0
2267 -7352 0
7355 -7356 -7353 0
-7355 7356 0
-7355 7353 0
-1287 7357 7355 0
1287 -7357 0
1287 -7355 0
7358 -7347 -7359 0
-7358 7347 0
-7358 7359 0
-2256 7360 7358 0
2256 -7360 0
2256 -7358 0
7361 -7347 -7362 0
-7361 7347 0
-7361 7362 0
-2261 7363 7361 0
2261 -7363 0
2261 -7361 0
7364 -7356 -7362 0
-7364 7356 0
-7364 7362 0
-1284 7365 7364 0
1284 -7365 0
1284 -7364 0
7366 -7350 -7356 0
-7366 7350 0
-7366 7356 0
-1277 7367 7366 0
1277 -7367 0
1277 -7366 0
7368 -7350 -7350 0
-7368 7350 0
-7368 7350 0
-1279 7369 7368 0
1279 -7369 0
1279 -7368 0
7370 -7350 -7359 0
-7370 7350 0
-7370 7359 0
-1282 7371 7370 0
1282 -7371 0
1282 -7370 0
7372 -7350 -7362 0
-7372 7350 0
-7372 7362 0
-1285 7373 7372 0
1285 -7373 0
1285 -7372 0
7374 -7353 -7362 0
-7374 7353 0
-7374 7362 0
-1288 7375 7374 0
1288 -7375 0
1288 -7374 0
7376 -7359 -7356 0
-7376 7359 0
-7376 7356 0
-1281 7377 7376 0
1281 -7377 0
1281 -7376 0
7378 -7359 -7353 0
-7378 7359 0
-7378 7353 0
-1290 7379 7378 0
1290 -7379 0
1290 -7378 0
7380 -7359 -7359 0
-7380 7359 0
-7380 7359 0
-1293 7381 7380 0
1293 -7381 0
1293 -7380 0
7382 -6511 -6511 0
-7382 6511 0
-7382 6511 0
-5489 6497 7382 0
5489 -6497 0
5489 -7382 0
7383 -6511 -6506 0
-7383 6511 0
-7383 6506 0
-5485 6492 7383 0
5485 -6492 0
5485 -7383 0
7384 -6511 -6508 0
-7384 6511 0
-7384 6508 0
-5503 6491 7384 0
5503 -6491 0
5503 -7384 0
7385 -6518 -6508 0
-7385 6518 0
-7385 6508 0
-1885 6513 7385 0
1885 -6513 0
1885 -7385 0
7386 -6511 -6572 0
-7386 6511 0
-7386 6572 0
-5492 6525 7386 0
5492 -6525 0
5492 -7386 0
7387 -6511 -6562 0
-7387 6511 0
-7387 6562 0
-5497 6532 7387 0
5497 -6532 0
5497 -7387 0
7388 -6518 -6562 0
-7388 6518 0
-7388 6562 0
-1882 6537 7388 0
1882 -6537 0
1882 -7388 0
7389 -6506 -6518 0
-7389 6506 0
-7389 6518 0
-1875 6515 7389 0
1875 -6515 0
1875 -7389 0
7390 -6506 -6506 0
-7390 6506 0
-7390 6506 0
-1877 6496 7390 0
1877 -6496 0
1877 -7390 0
7391 -6506 -6572 0
-7391 6506 0
-7391 6572 0
-1880 6520 7391 0
1880 -6520 0
1880 -7391 0
7392 -6506 -6562 0
-7392 6506 0
-7392 6562 0
-1883 6527 7392 0
1883 -6527 0
1883 -7392 0
7393 -6508 -6562 0
-7393 6508 0
-7393 6562 0
-1886 6529 7393 0
1886 -6529 0
1886 -7393 0
7394 -6572 -6518 0
-7394 6572 0
-7394 6518 0
-1879 6567 7394 0
1879 -6567 0
1879 -7394 0
7395 -6572 -6508 0
-7395 6572 0
-7395 6508 0
-1888 6523 7395 0
1888 -6523 0
1888 -7395 0
7396 -6572 -6572 0
-7396 6572 0
-7396 6572 0
-1891 6577 7396 0
1891 -6577 0
1891 -7396 0
7397 -7398 -7398 0
-7397 7398 0
-7397 7398 0
-6205 7399 7397 0
6205 -7399 0
6205 -7397 0
7400 -7398 -7401 0
-7400 7398 0
-7400 7401 0
-6201 7402 7400 0
6201 -7402 0
6201 -7400 0
7403 -7398 -7404 0
-7403 7398 0
-7403 7404 0
-6219 7405 7403 0
6219 -7405 0
6219 -7403 0
7406 -7407 -7404 0
-7406 7407 0
-7406 7404 0
-4265 7408 7406 0
4265 -7408 0
4265 -7406 0
7409 -7398 -7410 0
-7409 7398 0
-7409 7410 0
-6208 7411 7409 0
6208 -7411 0
6208 -7409 0
7412 -7398 -7413 0
-7412 7398 0
-7412 7413 0
-6213 7414 7412 0
6213 -7414 0
6213 -7412 0
7415 -7407 -7413 0
-7415 7407 0
-7415 7413 0
-4262 7416 7415 0
4262 -7416 0
4262 -7415 0
7417 -7401 -7407 0
-7417 7401 0
-7417 7407 0
-4255 7418 7417 0
4255 -7418 0
4255 -7417 0
7419 -7401 -7401 0
-7419 7401 0
-7419 7401 0
-4257 7420 7419 0
4257 -7420 0
4257 -7419 0
7421 -7401 -7410 0
-7421 7401 0
-7421 7410 0
-4260 7422 7421 0
4260 -7422 0
4260 -7421 0
7423 -7401 -7413 0
-7423 7401 0
-7423 7413 0
-4263 7424 7423 0
4263 -7424 0
4263 -7423 0
7425 -7404 -7413 0
-7425 7404 0
-7425 7413 0
-4266 7426 7425 0
4266 -7426 0
4266 -7425 0
7427 -7410 -7407 0
-7427 7410 0
-7427 7407 0
-4259 7428 7427 0
4259 -7428 0
4259 -7427 0
7429 -7410 -7404 0
-7429 7410 0
-7429 7404 0
-4268 7430 7429 0
4268 -7430 0
4268 -7429 0
7431 -7410 -7410 0
-7431 7410 0
-7431 7410 0
-4271 7432 7431 0
4271 -7432 0
4271 -7431 0
7433 -7405 -7402 0
-7433 7405 0
-7433 7402 0
7434 -7402 -7402 0
-7434 7402 0
-7434 7402 0
7435 -7402 -7405 0
-7435 7402 0
-7435 7405 0
7436 -7405 -7405 -7420 0
-7436 7405 0
-7436 7405 0
-7436 7420 0
-1361 7399 7433 7434 7435 7436 0
1361 -7399 0
1361 -7433 0
1361 -7434 0
1361 -7435 0
1361 -7436 0
7437 -7405 -7438 0
-7437 7405 0
-7437 7438 0
7439 -7402 -7438 0
-7439 7402 0
-7439 7438 0
7440 -7402 -7441 0
-7440 7402 0
-7440 7441 0
7442 -7405 -7441 -7420 0
-7442 7405 0
-7442 7441 0
-7442 7420 0
-1355 7443 7437 7439 7440 7442 0
1355 -7443 0
1355 -7437 0
1355 -7439 0
1355 -7440 0
1355 -7442 0
7444 -7405 -7401 0
-7444 7405 0
-7444 7401 0
7445 -7402 -7404 0
-7445 7402 0
-7445 7404 0
7446 -7402 -7401 0
-7446 7402 0
-7446 7401 0
7447 -7405 -7404 -7420 0
-7447 7405 0
-7447 7404 0
-7447 7420 0
-1354 7398 7444 7445 7446 7447 0
1354 -7398 0
1354 -7444 0
1354 -7445 0
1354 -7446 0
1354 -7447 0
7448 -7408 -7401 0
-7448 7408 0
-7448 7401 0
7449 -7418 -7401 0
-7449 7418 0
-7449 7401 0
7450 -7418 -7404 0
-7450 7418 0
-7450 7404 0
7451 -7408 -7404 -7420 0
-7451 7408 0
-7451 7404 0
-7451 7420 0
-1377 7407 7448 7449 7450 7451 0
1377 -7407 0
1377 -7448 0
1377 -7449 0
1377 -7450 0
1377 -7451 0
7452 -7405 -7422 0
-7452 7405 0
-7452 7422 0
7453 -7402 -7422 0
-7453 7402 0
-7453 7422 0
7454 -7402 -7430 0
-7454 7402 0
-7454 7430 0
7455 -7405 -7430 -7420 0
-7455 7405 0
-7455 7430 0
-7455 7420 0
-1368 7411 7452 7453 7454 7455 0
1368 -7411 0
1368 -7452 0
1368 -7453 0
1368 -7454 0
1368 -7455 0
7456 -7405 -7424 0
-7456 7405 0
-7456 7424 0
7457 -7402 -7426 0
-7457 7402 0
-7457 7426 0
7458 -7402 -7424 0
-7458 7402 0
-7458 7424 0
7459 -7405 -7426 -7420 0
-7459 7405 0
-7459 7426 0
-7459 7420 0
-1375 7414 7456 7457 7458 7459 0
1375 -7414 0
1375 -7456 0
1375 -7457 0
1375 -7458 0
1375 -7459 0
7460 -7408 -7424 0
-7460 7408 0
-7460 7424 0
7461 -7418 -7424 0
-7461 7418 0
-7461 7424 0
7462 -7418 -7426 0
-7462 7418 0
-7462 7426 0
7463 -7408 -7426 -7420 0
-7463 7408 0
-7463 7426 0
-7463 7420 0
-1382 7416 7460 7461 7462 7463 0
1382 -7416 0
1382 -7460 0
1382 -7461 0
1382 -7462 0
1382 -7463 0
7464 -7441 -7418 0
-7464 7441 0
-7464 7418 0
7465 -7438 -7408 0
-7465 7438 0
-7465 7408 0
7466 -7438 -7418 0
-7466 7438 0
-7466 7418 0
7467 -7441 -7408 -7420 0
-7467 7441 0
-7467 7408 0
-7467 7420 0
-1379 7468 7464 7465 7466 7467 0
1379 -7468 0
1379 -7464 0
1379 -7465 0
1379 -7466 0
1379 -7467 0
7469 -7441 -7438 0
-7469 7441 0
-7469 7438 0
7470 -7438 -7438 0
-7470 7438 0
-7470 7438 0
7471 -7438 -7441 0
-7471 7438 0
-7471 7441 0
7472 -7441 -7441 -7420 0
-7472 7441 0
-7472 7441 0
-7472 7420 0
-1359 7473 7469 7470 7471 7472 0
1359 -7473 0
1359 -7469 0
1359 -7470 0
1359 -7471 0
1359 -7472 0
7474 -7441 -7422 0
-7474 7441 0
-7474 7422 0
7475 -7438 -7422 0
-7475 7438 0
-7475 7422 0
7476 -7438 -7430 0
-7476 7438 0
-7476 7430 0
7477 -7441 -7430 -7420 0
-7477 7441 0
-7477 7430 0
-7477 7420 0
-1363 7478 7474 7475 7476 7477 0
1363 -7478 0
1363 -7474 0
1363 -7475 0
1363 -7476 0
1363 -7477 0
7479 -7441 -7424 0
-7479 7441 0
-7479 7424 0
7480 -7438 -7426 0
-7480 7438 0
-7480 7426 0
7481 -7438 -7424 0
-7481 7438 0
-7481 7424 0
7482 -7441 -7426 -7420 0
-7482 7441 0
-7482 7426 0
-7482 7420 0
-1370 7483 7479 7480 7481 7482 0
1370 -7483 0
1370 -7479 0
1370 -7480 0
1370 -7481 0
1370 -7482 0
7484 -7404 -7424 0
-7484 7404 0
-7484 7424 0
7485 -7401 -7424 0
-7485 7401 0
-7485 7424 0
7486 -7401 -7426 0
-7486 7401 0
-7486 7426 0
7487 -7404 -7426 -7420 0
-7487 7404 0
-7487 7426 0
-7487 7420 0
-1372 7413 7484 7485 7486 7487 0
1372 -7413 0
1372 -7484 0
1372 -7485 0
1372 -7486 0
1372 -7487 0
7488 -7430 -7418 0
-7488 7430 0
-7488 7418 0
7489 -7422 -7408 0
-7489 7422 0
-7489 7408 0
7490 -7422 -7418 0
-7490 7422 0
-7490 7418 0
7491 -7430 -7408 -7420 0
-7491 7430 0
-7491 7408 0
-7491 7420 0
-1387 7428 7488 7489 7490 7491 0
1387 -7428 0
1387 -7488 0
1387 -7489 0
1387 -7490 0
1387 -7491 0
7492 -7430 -7401 0
-7492 7430 0
-7492 7401 0
7493 -7422 -7404 0
-7493 7422 0
-7493 7404 0
7494 -7422 -7401 0
-7494 7422 0
-7494 7401 0
7495 -7430 -7404 -7420 0
-7495 7430 0
-7495 7404 0
-7495 7420 0
-1366 7410 7492 7493 7494 7495 0
1366 -7410 0
1366 -7492 0
1366 -7493 0
1366 -7494 0
1366 -7495 0
7496 -7430 -7422 0
-7496 7430 0
-7496 7422 0
7497 -7422 -7422 0
-7497 7422 0
-7497 7422 0
7498 -7422 -7430 0
-7498 7422 0
-7498 7430 0
7499 -7430 -7430 -7420 0
-7499 7430 0
-7499 7430 0
-7499 7420 0
-1393 7432 7496 7497 7498 7499 0
1393 -7432 0
1393 -7496 0
1393 -7497 0
1393 -7498 0
1393 -7499 0
7500 -7184 -7184 0
-7500 7184 0
-7500 7184 0
-4135 7170 7500 0
4135 -7170 0
4135 -7500 0
7501 -7184 -7179 0
-7501 7184 0
-7501 7179 0
-4130 7165 7501 0
4130 -7165 0
4130 -7501 0
7502 -7184 -7181 0
-7502 7184 0
-7502 7181 0
-4129 7164 7502 0
4129 -7164 0
4129 -7502 0
7503 -7191 -7181 0
-7503 7191 0
-7503 7181 0
-3819 7186 7503 0
3819 -7186 0
3819 -7503 0
7504 -7184 -7245 0
-7504 7184 0
-7504 7245 0
-4140 7198 7504 0
4140 -7198 0
4140 -7504 0
7505 -7184 -7235 0
-7505 7184 0
-7505 7235 0
-4145 7205 7505 0
4145 -7205 0
4145 -7505 0
7506 -7191 -7235 0
-7506 7191 0
-7506 7235 0
-3816 7210 7506 0
3816 -7210 0
3816 -7506 0
7507 -7179 -7191 0
-7507 7179 0
-7507 7191 0
-3809 7188 7507 0
3809 -7188 0
3809 -7507 0
7508 -7179 -7179 0
-7508 7179 0
-7508 7179 0
-3811 7169 7508 0
3811 -7169 0
3811 -7508 0
7509 -7179 -7245 0
-7509 7179 0
-7509 7245 0
-3814 7193 7509 0
3814 -7193 0
3814 -7509 0
7510 -7179 -7235 0
-7510 7179 0
-7510 7235 0
-3817 7200 7510 0
3817 -7200 0
3817 -7510 0
7511 -7181 -7235 0
-7511 7181 0
-7511 7235 0
-3820 7202 7511 0
3820 -7202 0
3820 -7511 0
7512 -7245 -7191 0
-7512 7245 0
-7512 7191 0
-3813 7240 7512 0
3813 -7240 0
3813 -7512 0
7513 -7245 -7181 0
-7513 7245 0
-7513 7181 0
-3822 7196 7513 0
3822 -7196 0
3822 -7513 0
7514 -7245 -7245 0
-7514 7245 0
-7514 7245 0
-3825 7250 7514 0
3825 -7250 0
3825 -7514 0
7515 -6511 -6504 0
-7515 6511 0
-7515 6504 0
7516 -6504 -6504 0
-7516 6504 0
-7516 6504 0
7517 -6504 -6511 0
-7517 6504 0
-7517 6511 0
7518 -6511 -6511 -6547 0
-7518 6511 0
-7518 6511 0
-7518 6547 0
-4437 6497 7515 7516 7517 7518 0
4437 -6497 0
4437 -7515 0
4437 -7516 0
4437 -7517 0
4437 -7518 0
7519 -6511 -6499 0
-7519 6511 0
-7519 6499 0
7520 -6504 -6499 0
-7520 6504 0
-7520 6499 0
7521 -6504 -6506 0
-7521 6504 0
-7521 6506 0
7522 -6511 -6506 -6547 0
-7522 6511 0
-7522 6506 0
-7522 6547 0
-4433 6492 7519 7520 7521 7522 0
4433 -6492 0
4433 -7519 0
4433 -7520 0
4433 -7521 0
4433 -7522 0
7523 -6511 -6502 0
-7523 6511 0
-7523 6502 0
7524 -6504 -6508 0
-7524 6504 0
-7524 6508 0
7525 -6504 -6502 0
-7525 6504 0
-7525 6502 0
7526 -6511 -6508 -6547 0
-7526 6511 0
-7526 6508 0
-7526 6547 0
-4457 6491 7523 7524 7525 7526 0
4457 -6491 0
4457 -7523 0
4457 -7524 0
4457 -7525 0
4457 -7526 0
7527 -6518 -6502 0
-7527 6518 0
-7527 6502 0
7528 -6542 -6502 0
-7528 6542 0
-7528 6502 0
7529 -6542 -6508 0
-7529 6542 0
-7529 6508 0
7530 -6518 -6508 -6547 0
-7530 6518 0
-7530 6508 0
-7530 6547 0
-4455 6513 7527 7528 7529 7530 0
4455 -6513 0
4455 -7527 0
4455 -7528 0
4455 -7529 0
4455 -7530 0
7531 -6511 -6552 0
-7531 6511 0
-7531 6552 0
7532 -6504 -6552 0
-7532 6504 0
-7532 6552 0
7533 -6504 -6572 0
-7533 6504 0
-7533 6572 0
7534 -6511 -6572 -6547 0
-7534 6511 0
-7534 6572 0
-7534 6547 0
-4441 6525 7531 7532 7533 7534 0
4441 -6525 0
4441 -7531 0
4441 -7532 0
4441 -7533 0
4441 -7534 0
7535 -6511 -6557 0
-7535 6511 0
-7535 6557 0
7536 -6504 -6562 0
-7536 6504 0
-7536 6562 0
7537 -6504 -6557 0
-7537 6504 0
-7537 6557 0
7538 -6511 -6562 -6547 0
-7538 6511 0
-7538 6562 0
-7538 6547 0
-4448 6532 7535 7536 7537 7538 0
4448 -6532 0
4448 -7535 0
4448 -7536 0
4448 -7537 0
4448 -7538 0
7539 -6518 -6557 0
-7539 6518 0
-7539 6557 0
7540 -6542 -6557 0
-7540 6542 0
-7540 6557 0
7541 -6542 -6562 0
-7541 6542 0
-7541 6562 0
7542 -6518 -6562 -6547 0
-7542 6518 0
-7542 6562 0
-7542 6547 0
-4450 6537 7539 7540 7541 7542 0
4450 -6537 0
4450 -7539 0
4450 -7540 0
4450 -7541 0
4450 -7542 0
7543 -6506 -6542 0
-7543 6506 0
-7543 6542 0
7544 -6499 -6518 0
-7544 6499 0
-7544 6518 0
7545 -6499 -6542 0
-7545 6499 0
-7545 6542 0
7546 -6506 -6518 -6547 0
-7546 6506 0
-7546 6518 0
-7546 6547 0
-4432 6515 7543 7544 7545 7546 0
4432 -6515 0
4432 -7543 0
4432 -7544 0
4432 -7545 0
4432 -7546 0
7547 -6506 -6499 0
-7547 6506 0
-7547 6499 0
6544 -6499 -6499 0
-6544 6499 0
-6544 6499 0
7548 -6499 -6506 0
-7548 6499 0
-7548 6506 0
7549 -6506 -6506 -6547 0
-7549 6506 0
-7549 6506 0
-7549 6547 0
-4439 6496 7547 6544 7548 7549 0
4439 -6496 0
4439 -7547 0
4439 -6544 0
4439 -7548 0
4439 -7549 0
7550 -6506 -6552 0
-7550 6506 0
-7550 6552 0
7551 -6499 -6552 0
-7551 6499 0
-7551 6552 0
7552 -6499 -6572 0
-7552 6499 0
-7552 6572 0
7553 -6506 -6572 -6547 0
-7553 6506 0
-7553 6572 0
-7553 6547 0
-4446 6520 7550 7551 7552 7553 0
4446 -6520 0
4446 -7550 0
4446 -7551 0
4446 -7552 0
4446 -7553 0
7554 -6506 -6557 0
-7554 6506 0
-7554 6557 0
7555 -6499 -6562 0
-7555 6499 0
-7555 6562 0
7556 -6499 -6557 0
-7556 6499 0
-7556 6557 0
7557 -6506 -6562 -6547 0
-7557 6506 0
-7557 6562 0
-7557 6547 0
-4453 6527 7554 7555 7556 7557 0
4453 -6527 0
4453 -7554 0
4453 -7555 0
4453 -7556 0
4453 -7557 0
7558 -6508 -6557 0
-7558 6508 0
-7558 6557 0
7559 -6502 -6557 0
-7559 6502 0
-7559 6557 0
7560 -6502 -6562 0
-7560 6502 0
-7560 6562 0
7561 -6508 -6562 -6547 0
-7561 6508 0
-7561 6562 0
-7561 6547 0
-4460 6529 7558 7559 7560 7561 0
4460 -6529 0
4460 -7558 0
4460 -7559 0
4460 -7560 0
4460 -7561 0
7562 -6572 -6542 0
-7562 6572 0
-7562 6542 0
7563 -6552 -6518 0
-7563 6552 0
-7563 6518 0
7564 -6552 -6542 0
-7564 6552 0
-7564 6542 0
7565 -6572 -6518 -6547 0
-7565 6572 0
-7565 6518 0
-7565 6547 0
-4444 6567 7562 7563 7564 7565 0
4444 -6567 0
4444 -7562 0
4444 -7563 0
4444 -7564 0
4444 -7565 0
7566 -6572 -6502 0
-7566 6572 0
-7566 6502 0
7567 -6552 -6508 0
-7567 6552 0
-7567 6508 0
7568 -6552 -6502 0
-7568 6552 0
-7568 6502 0
7569 -6572 -6508 -6547 0
-7569 6572 0
-7569 6508 0
-7569 6547 0
-4465 6523 7566 7567 7568 7569 0
4465 -6523 0
4465 -7566 0
4465 -7567 0
4465 -7568 0
4465 -7569 0
7570 -6572 -6552 0
-7570 6572 0
-7570 6552 0
7284 -6552 -6552 0
-7284 6552 0
-7284 6552 0
7571 -6552 -6572 0
-7571 6552 0
-7571 6572 0
7572 -6572 -6572 -6547 0
-7572 6572 0
-7572 6572 0
-7572 6547 0
-4471 6577 7570 7284 7571 7572 0
4471 -6577 0
4471 -7570 0
4471 -7284 0
4471 -7571 0
4471 -7572 0
7573 -7574 -7574 0
-7573 7574 0
-7573 7574 0
-2164 7575 7573 0
2164 -7575 0
2164 -7573 0
7576 -7574 -7577 0
-7576 7574 0
-7576 7577 0
-2160 7578 7576 0
2160 -7578 0
2160 -7576 0
7579 -7574 -7580 0
-7579 7574 0
-7579 7580 0
-2184 7581 7579 0
2184 -7581 0
2184 -7579 0
7582 -7583 -7580 0
-7582 7583 0
-7582 7580 0
-2182 7584 7582 0
2182 -7584 0
2182 -7582 0
7585 -7574 -7586 0
-7585 7574 0
-7585 7586 0
-2168 7587 7585 0
2168 -7587 0
2168 -7585 0
7588 -7574 -7589 0
-7588 7574 0
-7588 7589 0
-2175 7590 7588 0
2175 -7590 0
2175 -7588 0
7591 -7583 -7589 0
-7591 7583 0
-7591 7589 0
-2177 7592 7591 0
2177 -7592 0
2177 -7591 0
7593 -7577 -7583 0
-7593 7577 0
-7593 7583 0
-2159 7594 7593 0
2159 -7594 0
2159 -7593 0
7595 -7577 -7577 0
-7595 7577 0
-7595 7577 0
-2166 7596 7595 0
2166 -7596 0
2166 -7595 0
7597 -7577 -7586 0
-7597 7577 0
-7597 7586 0
-2173 7598 7597 0
2173 -7598 0
2173 -7597 0
7599 -7577 -7589 0
-7599 7577 0
-7599 7589 0
-2180 7600 7599 0
2180 -7600 0
2180 -7599 0
7601 -7580 -7589 0
-7601 7580 0
-7601 7589 0
-2187 7602 7601 0
2187 -7602 0
2187 -7601 0
7603 -7586 -7583 0
-7603 7586 0
-7603 7583 0
-2171 7604 7603 0
2171 -7604 0
2171 -7603 0
7605 -7586 -7580 0
-7605 7586 0
-7605 7580 0
-2192 7606 7605 0
2192 -7606 0
2192 -7605 0
7607 -7586 -7586 0
-7607 7586 0
-7607 7586 0
-2198 7608 7607 0
2198 -7608 0
2198 -7607 0
7609 -7045 -7038 0
-7609 7045 0
-7609 7038 0
7610 -7038 -7038 0
-7610 7038 0
-7610 7038 0
7611 -7038 -7045 0
-7611 7038 0
-7611 7045 0
7612 -7045 -7045 -7081 0
-7612 7045 0
-7612 7045 0
-7612 7081 0
-1318 7031 7609 7610 7611 7612 0
1318 -7031 0
1318 -7609 0
1318 -7610 0
1318 -7611 0
1318 -7612 0
7613 -7045 -7033 0
-7613 7045 0
-7613 7033 0
7614 -7038 -7033 0
-7614 7038 0
-7614 7033 0
7615 -7038 -7040 0
-7615 7038 0
-7615 7040 0
7616 -7045 -7040 -7081 0
-7616 7045 0
-7616 7040 0
-7616 7081 0
-1314 7026 7613 7614 7615 7616 0
1314 -7026 0
1314 -7613 0
1314 -7614 0
1314 -7615 0
1314 -7616 0
7617 -7045 -7036 0
-7617 7045 0
-7617 7036 0
7618 -7038 -7042 0
-7618 7038 0
-7618 7042 0
7619 -7038 -7036 0
-7619 7038 0
-7619 7036 0
7620 -7045 -7042 -7081 0
-7620 7045 0
-7620 7042 0
-7620 7081 0
-1338 7025 7617 7618 7619 7620 0
1338 -7025 0
1338 -7617 0
1338 -7618 0
1338 -7619 0
1338 -7620 0
7621 -7052 -7036 0
-7621 7052 0
-7621 7036 0
7622 -7076 -7036 0
-7622 7076 0
-7622 7036 0
7623 -7076 -7042 0
-7623 7076 0
-7623 7042 0
7624 -7052 -7042 -7081 0
-7624 7052 0
-7624 7042 0
-7624 7081 0
-1336 7047 7621 7622 7623 7624 0
1336 -7047 0
1336 -7621 0
1336 -7622 0
1336 -7623 0
1336 -7624 0
7625 -7045 -7086 0
-7625 7045 0
-7625 7086 0
7626 -7038 -7086 0
-7626 7038 0
-7626 7086 0
7627 -7038 -7106 0
-7627 7038 0
-7627 7106 0
7628 -7045 -7106 -7081 0
-7628 7045 0
-7628 7106 0
-7628 7081 0
-1322 7059 7625 7626 7627 7628 0
1322 -7059 0
1322 -7625 0
1322 -7626 0
1322 -7627 0
1322 -7628 0
7629 -7045 -7091 0
-7629 7045 0
-7629 7091 0
7630 -7038 -7096 0
-7630 7038 0
-7630 7096 0
7631 -7038 -7091 0
-7631 7038 0
-7631 7091 0
7632 -7045 -7096 -7081 0
-7632 7045 0
-7632 7096 0
-7632 7081 0
-1329 7066 7629 7630 7631 7632 0
1329 -7066 0
1329 -7629 0
1329 -7630 0
1329 -7631 0
1329 -7632 0
7633 -7052 -7091 0
-7633 7052 0
-7633 7091 0
7634 -7076 -7091 0
-7634 7076 0
-7634 7091 0
7635 -7076 -7096 0
-7635 7076 0
-7635 7096 0
7636 -7052 -7096 -7081 0
-7636 7052 0
-7636 7096 0
-7636 7081 0
-1331 7071 7633 7634 7635 7636 0
1331 -7071 0
1331 -7633 0
1331 -7634 0
1331 -7635 0
1331 -7636 0
7637 -7040 -7076 0
-7637 7040 0
-7637 7076 0
7638 -7033 -7052 0
-7638 7033 0
-7638 7052 0
7639 -7033 -7076 0
-7639 7033 0
-7639 7076 0
7640 -7040 -7052 -7081 0
-7640 7040 0
-7640 7052 0
-7640 7081 0
-1313 7049 7637 7638 7639 7640 0
1313 -7049 0
1313 -7637 0
1313 -7638 0
1313 -7639 0
1313 -7640 0
7641 -7040 -7033 0
-7641 7040 0
-7641 7033 0
7078 -7033 -7033 0
-7078 7033 0
-7078 7033 0
7642 -7033 -7040 0
-7642 7033 0
-7642 7040 0
7643 -7040 -7040 -7081 0
-7643 7040 0
-7643 7040 0
-7643 7081 0
-1320 7030 7641 7078 7642 7643 0
1320 -7030 0
1320 -7641 0
1320 -7078 0
1320 -7642 0
1320 -7643 0
7644 -7040 -7086 0
-7644 7040 0
-7644 7086 0
7645 -7033 -7086 0
-7645 7033 0
-7645 7086 0
7646 -7033 -7106 0
-7646 7033 0
-7646 7106 0
7647 -7040 -7106 -7081 0
-7647 7040 0
-7647 7106 0
-7647 7081 0
-1327 7054 7644 7645 7646 7647 0
1327 -7054 0
1327 -7644 0
1327 -7645 0
1327 -7646 0
1327 -7647 0
7648 -7040 -7091 0
-7648 7040 0
-7648 7091 0
7649 -7033 -7096 0
-7649 7033 0
-7649 7096 0
7650 -7033 -7091 0
-7650 7033 0
-7650 7091 0
7651 -7040 -7096 -7081 0
-7651 7040 0
-7651 7096 0
-7651 7081 0
-1334 7061 7648 7649 7650 7651 0
1334 -7061 0
1334 -7648 0
1334 -7649 0
1334 -7650 0
1334 -7651 0
7652 -7042 -7091 0
-7652 7042 0
-7652 7091 0
7653 -7036 -7091 0
-7653 7036 0
-7653 7091 0
7654 -7036 -7096 0
-7654 7036 0
-7654 7096 0
7655 -7042 -7096 -7081 0
-7655 7042 0
-7655 7096 0
-7655 7081 0
-1341 7063 7652 7653 7654 7655 0
1341 -7063 0
1341 -7652 0
1341 -7653 0
1341 -7654 0
1341 -7655 0
7656 -7106 -7076 0
-7656 7106 0
-7656 7076 0
7657 -7086 -7052 0
-7657 7086 0
-7657 7052 0
7658 -7086 -7076 0
-7658 7086 0
-7658 7076 0
7659 -7106 -7052 -7081 0
-7659 7106 0
-7659 7052 0
-7659 7081 0
-1325 7101 7656 7657 7658 7659 0
1325 -7101 0
1325 -7656 0
1325 -7657 0
1325 -7658 0
1325 -7659 0
7660 -7106 -7036 0
-7660 7106 0
-7660 7036 0
7661 -7086 -7042 0
-7661 7086 0
-7661 7042 0
7662 -7086 -7036 0
-7662 7086 0
-7662 7036 0
7663 -7106 -7042 -7081 0
-7663 7106 0
-7663 7042 0
-7663 7081 0
-1346 7057 7660 7661 7662 7663 0
1346 -7057 0
1346 -7660 0
1346 -7661 0
1346 -7662 0
1346 -7663 0
7664 -7106 -7086 0
-7664 7106 0
-7664 7086 0
7665 -7086 -7086 0
-7665 7086 0
-7665 7086 0
7666 -7086 -7106 0
-7666 7086 0
-7666 7106 0
7667 -7106 -7106 -7081 0
-7667 7106 0
-7667 7106 0
-7667 7081 0
-1352 7111 7664 7665 7666 7667 0
1352 -7111 0
1352 -7664 0
1352 -7665 0
1352 -7666 0
1352 -7667 0
7668 -7669 -7670 0
-7668 7669 0
-7668 7670 0
7671 -7670 -7670 0
-7671 7670 0
-7671 7670 0
7672 -7670 -7669 0
-7672 7670 0
-7672 7669 0
7673 -7669 -7669 -7674 0
-7673 7669 0
-7673 7669 0
-7673 7674 0
-4164 7675 7668 7671 7672 7673 0
4164 -7675 0
4164 -7668 0
4164 -7671 0
4164 -7672 0
4164 -7673 0
7676 -7669 -7677 0
-7676 7669 0
-7676 7677 0
7678 -7670 -7677 0
-7678 7670 0
-7678 7677 0
7679 -7670 -7680 0
-7679 7670 0
-7679 7680 0
7681 -7669 -7680 -7674 0
-7681 7669 0
-7681 7680 0
-7681 7674 0
-4160 7682 7676 7678 7679 7681 0
4160 -7682 0
4160 -7676 0
4160 -7678 0
4160 -7679 0
4160 -7681 0
7683 -7669 -7684 0
-7683 7669 0
-7683 7684 0
7685 -7670 -7686 0
-7685 7670 0
-7685 7686 0
7687 -7670 -7684 0
-7687 7670 0
-7687 7684 0
7688 -7669 -7686 -7674 0
-7688 7669 0
-7688 7686 0
-7688 7674 0
-4178 7689 7683 7685 7687 7688 0
4178 -7689 0
4178 -7683 0
4178 -7685 0
4178 -7687 0
4178 -7688 0
7690 -7691 -7684 0
-7690 7691 0
-7690 7684 0
7692 -7693 -7684 0
-7692 7693 0
-7692 7684 0
7694 -7693 -7686 0
-7694 7693 0
-7694 7686 0
7695 -7691 -7686 -7674 0
-7695 7691 0
-7695 7686 0
-7695 7674 0
-1731 7696 7690 7692 7694 7695 0
1731 -7696 0
1731 -7690 0
1731 -7692 0
1731 -7694 0
1731 -7695 0
7697 -7669 -7698 0
-7697 7669 0
-7697 7698 0
7699 -7670 -7698 0
-7699 7670 0
-7699 7698 0
7700 -7670 -7701 0
-7700 7670 0
-7700 7701 0
7702 -7669 -7701 -7674 0
-7702 7669 0
-7702 7701 0
-7702 7674 0
-4167 7703 7697 7699 7700 7702 0
4167 -7703 0
4167 -7697 0
4167 -7699 0
4167 -7700 0
4167 -7702 0
7704 -7669 -7705 0
-7704 7669 0
-7704 7705 0
7706 -7670 -7707 0
-7706 7670 0
-7706 7707 0
7708 -7670 -7705 0
-7708 7670 0
-7708 7705 0
7709 -7669 -7707 -7674 0
-7709 7669 0
-7709 7707 0
-7709 7674 0
-4172 7710 7704 7706 7708 7709 0
4172 -7710 0
4172 -7704 0
4172 -7706 0
4172 -7708 0
4172 -7709 0
7711 -7691 -7705 0
-7711 7691 0
-7711 7705 0
7712 -7693 -7705 0
-7712 7693 0
-7712 7705 0
7713 -7693 -7707 0
-7713 7693 0
-7713 7707 0
7714 -7691 -7707 -7674 0
-7714 7691 0
-7714 7707 0
-7714 7674 0
-1728 7715 7711 7712 7713 7714 0
1728 -7715 0
1728 -7711 0
1728 -7712 0
1728 -7713 0
1728 -7714 0
7716 -7680 -7693 0
-7716 7680 0
-7716 7693 0
7717 -7677 -7691 0
-7717 7677 0
-7717 7691 0
7718 -7677 -7693 0
-7718 7677 0
-7718 7693 0
7719 -7680 -7691 -7674 0
-7719 7680 0
-7719 7691 0
-7719 7674 0
-1721 7720 7716 7717 7718 7719 0
1721 -7720 0
1721 -7716 0
1721 -7717 0
1721 -7718 0
1721 -7719 0
7721 -7680 -7677 0
-7721 7680 0
-7721 7677 0
7722 -7677 -7677 0
-7722 7677 0
-7722 7677 0
7723 -7677 -7680 0
-7723 7677 0
-7723 7680 0
7724 -7680 -7680 -7674 0
-7724 7680 0
-7724 7680 0
-7724 7674 0
-1723 7725 7721 7722 7723 7724 0
1723 -7725 0
1723 -7721 0
1723 -7722 0
1723 -7723 0
1723 -7724 0
7726 -7680 -7698 0
-7726 7680 0
-7726 7698 0
7727 -7677 -7698 0
-7727 7677 0
-7727 7698 0
7728 -7677 -7701 0
-7728 7677 0
-7728 7701 0
7729 -7680 -7701 -7674 0
-7729 7680 0
-7729 7701 0
-7729 7674 0
-1726 7730 7726 7727 7728 7729 0
1726 -7730 0
1726 -7726 0
1726 -7727 0
1726 -7728 0
1726 -7729 0
7731 -7680 -7705 0
-7731 7680 0
-7731 7705 0
7732 -7677 -7707 0
-7732 7677 0
-7732 7707 0
7733 -7677 -7705 0
-7733 7677 0
-7733 7705 0
7734 -7680 -7707 -7674 0
-7734 7680 0
-7734 7707 0
-7734 7674 0
-1729 7735 7731 7732 7733 7734 0
1729 -7735 0
1729 -7731 0
1729 -7732 0
1729 -7733 0
1729 -7734 0
7736 -7686 -7705 0
-7736 7686 0
-7736 7705 0
7737 -7684 -7705 0
-7737 7684 0
-7737 7705 0
7738 -7684 -7707 0
-7738 7684 0
-7738 7707 0
7739 -7686 -7707 -7674 0
-7739 7686 0
-7739 7707 0
-7739 7674 0
-1732 7740 7736 7737 7738 7739 0
1732 -7740 0
1732 -7736 0
1732 -7737 0
1732 -7738 0
1732 -7739 0
7741 -7701 -7693 0
-7741 7701 0
-7741 7693 0
7742 -7698 -7691 0
-7742 7698 0
-7742 7691 0
7743 -7698 -7693 0
-7743 7698 0
-7743 7693 0
7744 -7701 -7691 -7674 0
-7744 7701 0
-7744 7691 0
-7744 7674 0
-1725 7745 7741 7742 7743 7744 0
1725 -7745 0
1725 -7741 0
1725 -7742 0
1725 -7743 0
1725 -7744 0
7746 -7701 -7684 0
-7746 7701 0
-7746 7684 0
7747 -7698 -7686 0
-7747 7698 0
-7747 7686 0
7748 -7698 -7684 0
-7748 7698 0
-7748 7684 0
7749 -7701 -7686 -7674 0
-7749 7701 0
-7749 7686 0
-7749 7674 0
-1734 7750 7746 7747 7748 7749 0
1734 -7750 0
1734 -7746 0
1734 -7747 0
1734 -7748 0
1734 -7749 0
7751 -7701 -7698 0
-7751 7701 0
-7751 7698 0
7752 -7698 -7698 0
-7752 7698 0
-7752 7698 0
7753 -7698 -7701 0
-7753 7698 0
-7753 7701 0
7754 -7701 -7701 -7674 0
-7754 7701 0
-7754 7701 0
-7754 7674 0
-1737 7755 7751 7752 7753 7754 0
1737 -7755 0
1737 -7751 0
1737 -7752 0
1737 -7753 0
1737 -7754 0
7756 -7757 -7758 0
-7756 7757 0
-7756 7758 0
7759 -7758 -7758 0
-7759 7758 0
-7759 7758 0
7760 -7758 -7757 0
-7760 7758 0
-7760 7757 0
7761 -7757 -7757 -7762 0
-7761 7757 0
-7761 7757 0
-7761 7762 0
-2398 7763 7756 7759 7760 7761 0
2398 -7763 0
2398 -7756 0
2398 -7759 0
2398 -7760 0
2398 -7761 0
7764 -7757 -7765 0
-7764 7757 0
-7764 7765 0
7766 -7758 -7765 0
-7766 7758 0
-7766 7765 0
7767 -7758 -7768 0
-7767 7758 0
-7767 7768 0
7769 -7757 -7768 -7762 0
-7769 7757 0
-7769 7768 0
-7769 7762 0
-2393 7770 7764 7766 7767 7769 0
2393 -7770 0
2393 -7764 0
2393 -7766 0
2393 -7767 0
2393 -7769 0
7771 -7757 -7772 0
-7771 7757 0
-7771 7772 0
7773 -7758 -7774 0
-7773 7758 0
-7773 7774 0
7775 -7758 -7772 0
-7775 7758 0
-7775 7772 0
7776 -7757 -7774 -7762 0
-7776 7757 0
-7776 7774 0
-7776 7762 0
-2392 7777 7771 7773 7775 7776 0
2392 -7777 0
2392 -7771 0
2392 -7773 0
2392 -7775 0
2392 -7776 0
7778 -7779 -7772 0
-7778 7779 0
-7778 7772 0
7780 -7781 -7772 0
-7780 7781 0
-7780 7772 0
7782 -7781 -7774 0
-7782 7781 0
-7782 7774 0
7783 -7779 -7774 -7762 0
-7783 7779 0
-7783 7774 0
-7783 7762 0
-1464 7784 7778 7780 7782 7783 0
1464 -7784 0
1464 -7778 0
1464 -7780 0
1464 -7782 0
1464 -7783 0
7785 -7757 -7786 0
-7785 7757 0
-7785 7786 0
7787 -7758 -7786 0
-7787 7758 0
-7787 7786 0
7788 -7758 -7789 0
-7788 7758 0
-7788 7789 0
7790 -7757 -7789 -7762 0
-7790 7757 0
-7790 7789 0
-7790 7762 0
-2403 7791 7785 7787 7788 7790 0
2403 -7791 0
2403 -7785 0
2403 -7787 0
2403 -7788 0
2403 -7790 0
7792 -7757 -7793 0
-7792 7757 0
-7792 7793 0
7794 -7758 -7795 0
-7794 7758 0
-7794 7795 0
7796 -7758 -7793 0
-7796 7758 0
-7796 7793 0
7797 -7757 -7795 -7762 0
-7797 7757 0
-7797 7795 0
-7797 7762 0
-2408 7798 7792 7794 7796 7797 0
2408 -7798 0
2408 -7792 0
2408 -7794 0
2408 -7796 0
2408 -7797 0
7799 -7779 -7793 0
-7799 7779 0
-7799 7793 0
7800 -7781 -7793 0
-7800 7781 0
-7800 7793 0
7801 -7781 -7795 0
-7801 7781 0
-7801 7795 0
7802 -7779 -7795 -7762 0
-7802 7779 0
-7802 7795 0
-7802 7762 0
-1461 7803 7799 7800 7801 7802 0
1461 -7803 0
1461 -7799 0
1461 -7800 0
1461 -7801 0
1461 -7802 0
7804 -7768 -7781 0
-7804 7768 0
-7804 7781 0
7805 -7765 -7779 0
-7805 7765 0
-7805 7779 0
7806 -7765 -7781 0
-7806 7765 0
-7806 7781 0
7807 -7768 -7779 -7762 0
-7807 7768 0
-7807 7779 0
-7807 7762 0
-1454 7808 7804 7805 7806 7807 0
1454 -7808 0
1454 -7804 0
1454 -7805 0
1454 -7806 0
1454 -7807 0
7809 -7768 -7765 0
-7809 7768 0
-7809 7765 0
7810 -7765 -7765 0
-7810 7765 0
-7810 7765 0
7811 -7765 -7768 0
-7811 7765 0
-7811 7768 0
7812 -7768 -7768 -7762 0
-7812 7768 0
-7812 7768 0
-7812 7762 0
-1456 7813 7809 7810 7811 7812 0
1456 -7813 0
1456 -7809 0
1456 -7810 0
1456 -7811 0
1456 -7812 0
7814 -7768 -7786 0
-7814 7768 0
-7814 7786 0
7815 -7765 -7786 0
-7815 7765 0
-7815 7786 0
7816 -7765 -7789 0
-7816 7765 0
-7816 7789 0
7817 -7768 -7789 -7762 0
-7817 7768 0
-7817 7789 0
-7817 7762 0
-1459 7818 7814 7815 7816 7817 0
1459 -7818 0
1459 -7814 0
1459 -7815 0
1459 -7816 0
1459 -7817 0
7819 -7768 -7793 0
-7819 7768 0
-7819 7793 0
7820 -7765 -7795 0
-7820 7765 0
-7820 7795 0
7821 -7765 -7793 0
-7821 7765 0
-7821 7793 0
7822 -7768 -7795 -7762 0
-7822 7768 0
-7822 7795 0
-7822 7762 0
-1462 7823 7819 7820 7821 7822 0
1462 -7823 0
1462 -7819 0
1462 -7820 0
1462 -7821 0
1462 -7822 0
7824 -7774 -7793 0
-7824 7774 0
-7824 7793 0
7825 -7772 -7793 0
-7825 7772 0
-7825 7793 0
7826 -7772 -7795 0
-7826 7772 0
-7826 7795 0
7827 -7774 -7795 -7762 0
-7827 7774 0
-7827 7795 0
-7827 7762 0
-1465 7828 7824 7825 7826 7827 0
1465 -7828 0
1465 -7824 0
1465 -7825 0
1465 -7826 0
1465 -7827 0
7829 -7789 -7781 0
-7829 7789 0
-7829 7781 0
7830 -7786 -7779 0
-7830 7786 0
-7830 7779 0
7831 -7786 -7781 0
-7831 7786 0
-7831 7781 0
7832 -7789 -7779 -7762 0
-7832 7789 0
-7832 7779 0
-7832 7762 0
-1458 7833 7829 7830 7831 7832 0
1458 -7833 0
1458 -7829 0
1458 -7830 0
1458 -7831 0
1458 -7832 0
7834 -7789 -7772 0
-7834 7789 0
-7834 7772 0
7835 -7786 -7774 0
-7835 7786 0
-7835 7774 0
7836 -7786 -7772 0
-7836 7786 0
-7836 7772 0
7837 -7789 -7774 -7762 0
-7837 7789 0
-7837 7774 0
-7837 7762 0
-1467 7838 7834 7835 7836 7837 0
1467 -7838 0
1467 -7834 0
1467 -7835 0
1467 -7836 0
1467 -7837 0
7839 -7789 -7786 0
-7839 7789 0
-7839 7786 0
7840 -7786 -7786 0
-7840 7786 0
-7840 7786 0
7841 -7786 -7789 0
-7841 7786 0
-7841 7789 0
7842 -7789 -7789 -7762 0
-7842 7789 0
-7842 7789 0
-7842 7762 0
-1470 7843 7839 7840 7841 7842 0
1470 -7843 0
1470 -7839 0
1470 -7840 0
1470 -7841 0
1470 -7842 0
7844 -7845 -7846 0
-7844 7845 0
-7844 7846 0
7847 -7846 -7846 0
-7847 7846 0
-7847 7846 0
7848 -7846 -7845 0
-7848 7846 0
-7848 7845 0
7849 -7845 -7845 -7850 0
-7849 7845 0
-7849 7845 0
-7849 7850 0
-1400 7851 7844 7847 7848 7849 0
1400 -7851 0
1400 -7844 0
1400 -7847 0
1400 -7848 0
1400 -7849 0
7852 -7845 -7853 0
-7852 7845 0
-7852 7853 0
7854 -7846 -7853 0
-7854 7846 0
-7854 7853 0
7855 -7846 -7856 0
-7855 7846 0
-7855 7856 0
7857 -7845 -7856 -7850 0
-7857 7845 0
-7857 7856 0
-7857 7850 0
-1396 7858 7852 7854 7855 7857 0
1396 -7858 0
1396 -7852 0
1396 -7854 0
1396 -7855 0
1396 -7857 0
7859 -7845 -7860 0
-7859 7845 0
-7859 7860 0
7861 -7846 -7862 0
-7861 7846 0
-7861 7862 0
7863 -7846 -7860 0
-7863 7846 0
-7863 7860 0
7864 -7845 -7862 -7850 0
-7864 7845 0
-7864 7862 0
-7864 7850 0
-1420 7865 7859 7861 7863 7864 0
1420 -7865 0
1420 -7859 0
1420 -7861 0
1420 -7863 0
1420 -7864 0
7866 -7867 -7860 0
-7866 7867 0
-7866 7860 0
7868 -7869 -7860 0
-7868 7869 0
-7868 7860 0
7870 -7869 -7862 0
-7870 7869 0
-7870 7862 0
7871 -7867 -7862 -7850 0
-7871 7867 0
-7871 7862 0
-7871 7850 0
-1418 7872 7866 7868 7870 7871 0
1418 -7872 0
1418 -7866 0
1418 -7868 0
1418 -7870 0
1418 -7871 0
7873 -7845 -7874 0
-7873 7845 0
-7873 7874 0
7875 -7846 -7874 0
-7875 7846 0
-7875 7874 0
7876 -7846 -7877 0
-7876 7846 0
-7876 7877 0
7878 -7845 -7877 -7850 0
-7878 7845 0
-7878 7877 0
-7878 7850 0
-1404 7879 7873 7875 7876 7878 0
1404 -7879 0
1404 -7873 0
1404 -7875 0
1404 -7876 0
1404 -7878 0
7880 -7845 -7881 0
-7880 7845 0
-7880 7881 0
7882 -7846 -7883 0
-7882 7846 0
-7882 7883 0
7884 -7846 -7881 0
-7884 7846 0
-7884 7881 0
7885 -7845 -7883 -7850 0
-7885 7845 0
-7885 7883 0
-7885 7850 0
-1411 7886 7880 7882 7884 7885 0
1411 -7886 0
1411 -7880 0
1411 -7882 0
1411 -7884 0
1411 -7885 0
7887 -7867 -7881 0
-7887 7867 0
-7887 7881 0
7888 -7869 -7881 0
-7888 7869 0
-7888 7881 0
7889 -7869 -7883 0
-7889 7869 0
-7889 7883 0
7890 -7867 -7883 -7850 0
-7890 7867 0
-7890 7883 0
-7890 7850 0
-1413 7891 7887 7888 7889 7890 0
1413 -7891 0
1413 -7887 0
1413 -7888 0
1413 -7889 0
1413 -7890 0
7892 -7856 -7869 0
-7892 7856 0
-7892 7869 0
7893 -7853 -7867 0
-7893 7853 0
-7893 7867 0
7894 -7853 -7869 0
-7894 7853 0
-7894 7869 0
7895 -7856 -7867 -7850 0
-7895 7856 0
-7895 7867 0
-7895 7850 0
-1395 7896 7892 7893 7894 7895 0
1395 -7896 0
1395 -7892 0
1395 -7893 0
1395 -7894 0
1395 -7895 0
7897 -7856 -7853 0
-7897 7856 0
-7897 7853 0
7898 -7853 -7853 0
-7898 7853 0
-7898 7853 0
7899 -7853 -7856 0
-7899 7853 0
-7899 7856 0
7900 -7856 -7856 -7850 0
-7900 7856 0
-7900 7856 0
-7900 7850 0
-1402 7901 7897 7898 7899 7900 0
1402 -7901 0
1402 -7897 0
1402 -7898 0
1402 -7899 0
1402 -7900 0
7902 -7856 -7874 0
-7902 7856 0
-7902 7874 0
7903 -7853 -7874 0
-7903 7853 0
-7903 7874 0
7904 -7853 -7877 0
-7904 7853 0
-7904 7877 0
7905 -7856 -7877 -7850 0
-7905 7856 0
-7905 7877 0
-7905 7850 0
-1409 7906 7902 7903 7904 7905 0
1409 -7906 0
1409 -7902 0
1409 -7903 0
1409 -7904 0
1409 -7905 0
7907 -7856 -7881 0
-7907 7856 0
-7907 7881 0
7908 -7853 -7883 0
-7908 7853 0
-7908 7883 0
7909 -7853 -7881 0
-7909 7853 0
-7909 7881 0
7910 -7856 -7883 -7850 0
-7910 7856 0
-7910 7883 0
-7910 7850 0
-1416 7911 7907 7908 7909 7910 0
1416 -7911 0
1416 -7907 0
1416 -7908 0
1416 -7909 0
1416 -7910 0
7912 -7862 -7881 0
-7912 7862 0
-7912 7881 0
7913 -7860 -7881 0
-7913 7860 0
-7913 7881 0
7914 -7860 -7883 0
-7914 7860 0
-7914 7883 0
7915 -7862 -7883 -7850 0
-7915 7862 0
-7915 7883 0
-7915 7850 0
-1423 7916 7912 7913 7914 7915 0
1423 -7916 0
1423 -7912 0
1423 -7913 0
1423 -7914 0
1423 -7915 0
7917 -7877 -7869 0
-7917 7877 0
-7917 7869 0
7918 -7874 -7867 0
-7918 7874 0
-7918 7867 0
7919 -7874 -7869 0
-7919 7874 0
-7919 7869 0
7920 -7877 -7867 -7850 0
-7920 7877 0
-7920 7867 0
-7920 7850 0
-1407 7921 7917 7918 7919 7920 0
1407 -7921 0
1407 -7917 0
1407 -7918 0
1407 -7919 0
1407 -7920 0
7922 -7877 -7860 0
-7922 7877 0
-7922 7860 0
7923 -7874 -7862 0
-7923 7874 0
-7923 7862 0
7924 -7874 -7860 0
-7924 7874 0
-7924 7860 0
7925 -7877 -7862 -7850 0
-7925 7877 0
-7925 7862 0
-7925 7850 0
-1428 7926 7922 7923 7924 7925 0
1428 -7926 0
1428 -7922 0
1428 -7923 0
1428 -7924 0
1428 -7925 0
7927 -7877 -7874 0
-7927 7877 0
-7927 7874 0
7928 -7874 -7874 0
-7928 7874 0
-7928 7874 0
7929 -7874 -7877 0
-7929 7874 0
-7929 7877 0
7930 -7877 -7877 -7850 0
-7930 7877 0
-7930 7877 0
-7930 7850 0
-1434 7931 7927 7928 7929 7930 0
1434 -7931 0
1434 -7927 0
1434 -7928 0
1434 -7929 0
1434 -7930 0
7932 -6921 -6914 0
-7932 6921 0
-7932 6914 0
7933 -6914 -6914 0
-7933 6914 0
-7933 6914 0
7934 -6914 -6921 0
-7934 6914 0
-7934 6921 0
7935 -6921 -6921 -6957 0
-7935 6921 0
-7935 6921 0
-7935 6957 0
-3019 6907 7932 7933 7934 7935 0
3019 -6907 0
3019 -7932 0
3019 -7933 0
3019 -7934 0
3019 -7935 0
7936 -6921 -6909 0
-7936 6921 0
-7936 6909 0
7937 -6914 -6909 0
-7937 6914 0
-7937 6909 0
7938 -6914 -6916 0
-7938 6914 0
-7938 6916 0
7939 -6921 -6916 -6957 0
-7939 6921 0
-7939 6916 0
-7939 6957 0
-3015 6902 7936 7937 7938 7939 0
3015 -6902 0
3015 -7936 0
3015 -7937 0
3015 -7938 0
3015 -7939 0
7940 -6921 -6912 0
-7940 6921 0
-7940 6912 0
7941 -6914 -6918 0
-7941 6914 0
-7941 6918 0
7942 -6914 -6912 0
-7942 6914 0
-7942 6912 0
7943 -6921 -6918 -6957 0
-7943 6921 0
-7943 6918 0
-7943 6957 0
-3039 6901 7940 7941 7942 7943 0
3039 -6901 0
3039 -7940 0
3039 -7941 0
3039 -7942 0
3039 -7943 0
7944 -6928 -6912 0
-7944 6928 0
-7944 6912 0
7945 -6952 -6912 0
-7945 6952 0
-7945 6912 0
7946 -6952 -6918 0
-7946 6952 0
-7946 6918 0
7947 -6928 -6918 -6957 0
-7947 6928 0
-7947 6918 0
-7947 6957 0
-3037 6923 7944 7945 7946 7947 0
3037 -6923 0
3037 -7944 0
3037 -7945 0
3037 -7946 0
3037 -7947 0
7948 -6921 -6962 0
-7948 6921 0
-7948 6962 0
7949 -6914 -6962 0
-7949 6914 0
-7949 6962 0
7950 -6914 -6982 0
-7950 6914 0
-7950 6982 0
7951 -6921 -6982 -6957 0
-7951 6921 0
-7951 6982 0
-7951 6957 0
-3023 6935 7948 7949 7950 7951 0
3023 -6935 0
3023 -7948 0
3023 -7949 0
3023 -7950 0
3023 -7951 0
7952 -6921 -6967 0
-7952 6921 0
-7952 6967 0
7953 -6914 -6972 0
-7953 6914 0
-7953 6972 0
7954 -6914 -6967 0
-7954 6914 0
-7954 6967 0
7955 -6921 -6972 -6957 0
-7955 6921 0
-7955 6972 0
-7955 6957 0
-3030 6942 7952 7953 7954 7955 0
3030 -6942 0
3030 -7952 0
3030 -7953 0
3030 -7954 0
3030 -7955 0
7956 -6928 -6967 0
-7956 6928 0
-7956 6967 0
7957 -6952 -6967 0
-7957 6952 0
-7957 6967 0
7958 -6952 -6972 0
-7958 6952 0
-7958 6972 0
7959 -6928 -6972 -6957 0
-7959 6928 0
-7959 6972 0
-7959 6957 0
-3032 6947 7956 7957 7958 7959 0
3032 -6947 0
3032 -7956 0
3032 -7957 0
3032 -7958 0
3032 -7959 0
7960 -6916 -6952 0
-7960 6916 0
-7960 6952 0
7961 -6909 -6928 0
-7961 6909 0
-7961 6928 0
7962 -6909 -6952 0
-7962 6909 0
-7962 6952 0
7963 -6916 -6928 -6957 0
-7963 6916 0
-7963 6928 0
-7963 6957 0
-3014 6925 7960 7961 7962 7963 0
3014 -6925 0
3014 -7960 0
3014 -7961 0
3014 -7962 0
3014 -7963 0
7964 -6916 -6909 0
-7964 6916 0
-7964 6909 0
6954 -6909 -6909 0
-6954 6909 0
-6954 6909 0
7965 -6909 -6916 0
-7965 6909 0
-7965 6916 0
7966 -6916 -6916 -6957 0
-7966 6916 0
-7966 6916 0
-7966 6957 0
-3021 6906 7964 6954 7965 7966 0
3021 -6906 0
3021 -7964 0
3021 -6954 0
3021 -7965 0
3021 -7966 0
7967 -6916 -6962 0
-7967 6916 0
-7967 6962 0
7968 -6909 -6962 0
-7968 6909 0
-7968 6962 0
7969 -6909 -6982 0
-7969 6909 0
-7969 6982 0
7970 -6916 -6982 -6957 0
-7970 6916 0
-7970 6982 0
-7970 6957 0
-3028 6930 7967 7968 7969 7970 0
3028 -6930 0
3028 -7967 0
3028 -7968 0
3028 -7969 0
3028 -7970 0
7971 -6916 -6967 0
-7971 6916 0
-7971 6967 0
7972 -6909 -6972 0
-7972 6909 0
-7972 6972 0
7973 -6909 -6967 0
-7973 6909 0
-7973 6967 0
7974 -6916 -6972 -6957 0
-7974 6916 0
-7974 6972 0
-7974 6957 0
-3035 6937 7971 7972 7973 7974 0
3035 -6937 0
3035 -7971 0
3035 -7972 0
3035 -7973 0
3035 -7974 0
7975 -6918 -6967 0
-7975 6918 0
-7975 6967 0
7976 -6912 -6967 0
-7976 6912 0
-7976 6967 0
7977 -6912 -6972 0
-7977 6912 0
-7977 6972 0
7978 -6918 -6972 -6957 0
-7978 6918 0
-7978 6972 0
-7978 6957 0
-3042 6939 7975 7976 7977 7978 0
3042 -6939 0
3042 -7975 0
3042 -7976 0
3042 -7977 0
3042 -7978 0
7979 -6982 -6952 0
-7979 6982 0
-7979 6952 0
7980 -6962 -6928 0
-7980 6962 0
-7980 6928 0
7981 -6962 -6952 0
-7981 6962 0
-7981 6952 0
7982 -6982 -6928 -6957 0
-7982 6982 0
-7982 6928 0
-7982 6957 0
-3026 6977 7979 7980 7981 7982 0
3026 -6977 0
3026 -7979 0
3026 -7980 0
3026 -7981 0
3026 -7982 0
7983 -6982 -6912 0
-7983 6982 0
-7983 6912 0
7984 -6962 -6918 0
-7984 6962 0
-7984 6918 0
7985 -6962 -6912 0
-7985 6962 0
-7985 6912 0
7986 -6982 -6918 -6957 0
-7986 6982 0
-7986 6918 0
-7986 6957 0
-3047 6933 7983 7984 7985 7986 0
3047 -6933 0
3047 -7983 0
3047 -7984 0
3047 -7985 0
3047 -7986 0
7987 -6982 -6962 0
-7987 6982 0
-7987 6962 0
7988 -6962 -6962 0
-7988 6962 0
-7988 6962 0
7989 -6962 -6982 0
-7989 6962 0
-7989 6982 0
7990 -6982 -6982 -6957 0
-7990 6982 0
-7990 6982 0
-7990 6957 0
-3053 6987 7987 7988 7989 7990 0
3053 -6987 0
3053 -7987 0
3053 -7988 0
3053 -7989 0
3053 -7990 0
7991 -7845 -7845 0
-7991 7845 0
-7991 7845 0
-5529 7851 7991 0
5529 -7851 0
5529 -7991 0
7992 -7845 -7856 0
-7992 7845 0
-7992 7856 0
-5525 7858 7992 0
5525 -7858 0
5525 -7992 0
7993 -7845 -7862 0
-7993 7845 0
-7993 7862 0
-5549 7865 7993 0
5549 -7865 0
5549 -7993 0
7994 -7867 -7862 0
-7994 7867 0
-7994 7862 0
-5547 7872 7994 0
5547 -7872 0
5547 -7994 0
7995 -7845 -7877 0
-7995 7845 0
-7995 7877 0
-5533 7879 7995 0
5533 -7879 0
5533 -7995 0
7996 -7845 -7883 0
-7996 7845 0
-7996 7883 0
-5540 7886 7996 0
5540 -7886 0
5540 -7996 0
7997 -7867 -7883 0
-7997 7867 0
-7997 7883 0
-5542 7891 7997 0
5542 -7891 0
5542 -7997 0
7998 -7856 -7867 0
-7998 7856 0
-7998 7867 0
-5524 7896 7998 0
5524 -7896 0
5524 -7998 0
7999 -7856 -7856 0
-7999 7856 0
-7999 7856 0
-5531 7901 7999 0
5531 -7901 0
5531 -7999 0
8000 -7856 -7877 0
-8000 7856 0
-8000 7877 0
-5538 7906 8000 0
5538 -7906 0
5538 -8000 0
8001 -7856 -7883 0
-8001 7856 0
-8001 7883 0
-5545 7911 8001 0
5545 -7911 0
5545 -8001 0
8002 -7862 -7883 0
-8002 7862 0
-8002 7883 0
-5552 7916 8002 0
5552 -7916 0
5552 -8002 0
8003 -7877 -7867 0
-8003 7877 0
-8003 7867 0
-5536 7921 8003 0
5536 -7921 0
5536 -8003 0
8004 -7877 -7862 0
-8004 7877 0
-8004 7862 0
-5557 7926 8004 0
5557 -7926 0
5557 -8004 0
8005 -7877 -7877 0
-8005 7877 0
-8005 7877 0
-5563 7931 8005 0
5563 -7931 0
5563 -8005 0
8006 -8007 -8008 0
-8006 8007 0
-8006 8008 0
8009 -8008 -8008 0
-8009 8008 0
-8009 8008 0
8010 -8008 -8007 0
-8010 8008 0
-8010 8007 0
8011 -8007 -8007 -8012 0
-8011 8007 0
-8011 8007 0
-8011 8012 0
-6356 8013 8006 8009 8010 8011 0
6356 -8013 0
6356 -8006 0
6356 -8009 0
6356 -8010 0
6356 -8011 0
8014 -8007 -8015 0
-8014 8007 0
-8014 8015 0
8016 -8008 -8015 0
-8016 8008 0
-8016 8015 0
8017 -8008 -8018 0
-8017 8008 0
-8017 8018 0
8019 -8007 -8018 -8012 0
-8019 8007 0
-8019 8018 0
-8019 8012 0
-6352 8020 8014 8016 8017 8019 0
6352 -8020 0
6352 -8014 0
6352 -8016 0
6352 -8017 0
6352 -8019 0
8021 -8007 -8022 0
-8021 8007 0
-8021 8022 0
8023 -8008 -8024 0
-8023 8008 0
-8023 8024 0
8025 -8008 -8022 0
-8025 8008 0
-8025 8022 0
8026 -8007 -8024 -8012 0
-8026 8007 0
-8026 8024 0
-8026 8012 0
-6370 8027 8021 8023 8025 8026 0
6370 -8027 0
6370 -8021 0
6370 -8023 0
6370 -8025 0
6370 -8026 0
8028 -8029 -8022 0
-8028 8029 0
-8028 8022 0
8030 -8031 -8022 0
-8030 8031 0
-8030 8022 0
8032 -8031 -8024 0
-8032 8031 0
-8032 8024 0
8033 -8029 -8024 -8012 0
-8033 8029 0
-8033 8024 0
-8033 8012 0
-4121 8034 8028 8030 8032 8033 0
4121 -8034 0
4121 -8028 0
4121 -8030 0
4121 -8032 0
4121 -8033 0
8035 -8007 -8036 0
-8035 8007 0
-8035 8036 0
8037 -8008 -8036 0
-8037 8008 0
-8037 8036 0
8038 -8008 -8039 0
-8038 8008 0
-8038 8039 0
8040 -8007 -8039 -8012 0
-8040 8007 0
-8040 8039 0
-8040 8012 0
-6359 8041 8035 8037 8038 8040 0
6359 -8041 0
6359 -8035 0
6359 -8037 0
6359 -8038 0
6359 -8040 0
8042 -8007 -8043 0
-8042 8007 0
-8042 8043 0
8044 -8008 -8045 0
-8044 8008 0
-8044 8045 0
8046 -8008 -8043 0
-8046 8008 0
-8046 8043 0
8047 -8007 -8045 -8012 0
-8047 8007 0
-8047 8045 0
-8047 8012 0
-6364 8048 8042 8044 8046 8047 0
6364 -8048 0
6364 -8042 0
6364 -8044 0
6364 -8046 0
6364 -8047 0
8049 -8029 -8043 0
-8049 8029 0
-8049 8043 0
8050 -8031 -8043 0
-8050 8031 0
-8050 8043 0
8051 -8031 -8045 0
-8051 8031 0
-8051 8045 0
8052 -8029 -8045 -8012 0
-8052 8029 0
-8052 8045 0
-8052 8012 0
-4118 8053 8049 8050 8051 8052 0
4118 -8053 0
4118 -8049 0
4118 -8050 0
4118 -8051 0
4118 -8052 0
8054 -8018 -8031 0
-8054 8018 0
-8054 8031 0
8055 -8015 -8029 0
-8055 8015 0
-8055 8029 0
8056 -8015 -8031 0
-8056 8015 0
-8056 8031 0
8057 -8018 -8029 -8012 0
-8057 8018 0
-8057 8029 0
-8057 8012 0
-4111 8058 8054 8055 8056 8057 0
4111 -8058 0
4111 -8054 0
4111 -8055 0
4111 -8056 0
4111 -8057 0
8059 -8018 -8015 0
-8059 8018 0
-8059 8015 0
8060 -8015 -8015 0
-8060 8015 0
-8060 8015 0
8061 -8015 -8018 0
-8061 8015 0
-8061 8018 0
8062 -8018 -8018 -8012 0
-8062 8018 0
-8062 8018 0
-8062 8012 0
-4113 8063 8059 8060 8061 8062 0
4113 -8063 0
4113 -8059 0
4113 -8060 0
4113 -8061 0
4113 -8062 0
8064 -8018 -8036 0
-8064 8018 0
-8064 8036 0
8065 -8015 -8036 0
-8065 8015 0
-8065 8036 0
8066 -8015 -8039 0
-8066 8015 0
-8066 8039 0
8067 -8018 -8039 -8012 0
-8067 8018 0
-8067 8039 0
-8067 8012 0
-4116 8068 8064 8065 8066 8067 0
4116 -8068 0
4116 -8064 0
4116 -8065 0
4116 -8066 0
4116 -8067 0
8069 -8018 -8043 0
-8069 8018 0
-8069 8043 0
8070 -8015 -8045 0
-8070 8015 0
-8070 8045 0
8071 -8015 -8043 0
-8071 8015 0
-8071 8043 0
8072 -8018 -8045 -8012 0
-8072 8018 0
-8072 8045 0
-8072 8012 0
-4119 8073 8069 8070 8071 8072 0
4119 -8073 0
4119 -8069 0
4119 -8070 0
4119 -8071 0
4119 -8072 0
8074 -8024 -8043 0
-8074 8024 0
-8074 8043 0
8075 -8022 -8043 0
-8075 8022 0
-8075 8043 0
8076 -8022 -8045 0
-8076 8022 0
-8076 8045 0
8077 -8024 -8045 -8012 0
-8077 8024 0
-8077 8045 0
-8077 8012 0
-4122 8078 8074 8075 8076 8077 0
4122 -8078 0
4122 -8074 0
4122 -8075 0
4122 -8076 0
4122 -8077 0
8079 -8039 -8031 0
-8079 8039 0
-8079 8031 0
8080 -8036 -8029 0
-8080 8036 0
-8080 8029 0
8081 -8036 -8031 0
-8081 8036 0
-8081 8031 0
8082 -8039 -8029 -8012 0
-8082 8039 0
-8082 8029 0
-8082 8012 0
-4115 8083 8079 8080 8081 8082 0
4115 -8083 0
4115 -8079 0
4115 -8080 0
4115 -8081 0
4115 -8082 0
8084 -8039 -8022 0
-8084 8039 0
-8084 8022 0
8085 -8036 -8024 0
-8085 8036 0
-8085 8024 0
8086 -8036 -8022 0
-8086 8036 0
-8086 8022 0
8087 -8039 -8024 -8012 0
-8087 8039 0
-8087 8024 0
-8087 8012 0
-4124 8088 8084 8085 8086 8087 0
4124 -8088 0
4124 -8084 0
4124 -8085 0
4124 -8086 0
4124 -8087 0
8089 -8039 -8036 0
-8089 8039 0
-8089 8036 0
8090 -8036 -8036 0
-8090 8036 0
-8090 8036 0
8091 -8036 -8039 0
-8091 8036 0
-8091 8039 0
8092 -8039 -8039 -8012 0
-8092 8039 0
-8092 8039 0
-8092 8012 0
-4127 8093 8089 8090 8091 8092 0
4127 -8093 0
4127 -8089 0
4127 -8090 0
4127 -8091 0
4127 -8092 0
8094 -7398 -7443 0
-8094 7398 0
-8094 7443 0
8095 -7443 -7443 0
-8095 7443 0
-8095 7443 0
8096 -7443 -7398 0
-8096 7443 0
-8096 7398 0
8097 -7398 -7398 -7473 0
-8097 7398 0
-8097 7398 0
-8097 7473 0
-4286 7399 8094 8095 8096 8097 0
4286 -7399 0
4286 -8094 0
4286 -8095 0
4286 -8096 0
4286 -8097 0
8098 -7398 -7438 0
-8098 7398 0
-8098 7438 0
8099 -7443 -7438 0
-8099 7443 0
-8099 7438 0
8100 -7443 -7401 0
-8100 7443 0
-8100 7401 0
8101 -7398 -7401 -7473 0
-8101 7398 0
-8101 7401 0
-8101 7473 0
-4282 7402 8098 8099 8100 8101 0
4282 -7402 0
4282 -8098 0
4282 -8099 0
4282 -8100 0
4282 -8101 0
8102 -7398 -7441 0
-8102 7398 0
-8102 7441 0
8103 -7443 -7404 0
-8103 7443 0
-8103 7404 0
8104 -7443 -7441 0
-8104 7443 0
-8104 7441 0
8105 -7398 -7404 -7473 0
-8105 7398 0
-8105 7404 0
-8105 7473 0
-4306 7405 8102 8103 8104 8105 0
4306 -7405 0
4306 -8102 0
4306 -8103 0
4306 -8104 0
4306 -8105 0
8106 -7407 -7441 0
-8106 7407 0
-8106 7441 0
8107 -7468 -7441 0
-8107 7468 0
-8107 7441 0
8108 -7468 -7404 0
-8108 7468 0
-8108 7404 0
8109 -7407 -7404 -7473 0
-8109 7407 0
-8109 7404 0
-8109 7473 0
-4304 7408 8106 8107 8108 8109 0
4304 -7408 0
4304 -8106 0
4304 -8107 0
4304 -8108 0
4304 -8109 0
8110 -7398 -7478 0
-8110 7398 0
-8110 7478 0
8111 -7443 -7478 0
-8111 7443 0
-8111 7478 0
8112 -7443 -7410 0
-8112 7443 0
-8112 7410 0
8113 -7398 -7410 -7473 0
-8113 7398 0
-8113 7410 0
-8113 7473 0
-4290 7411 8110 8111 8112 8113 0
4290 -7411 0
4290 -8110 0
4290 -8111 0
4290 -8112 0
4290 -8113 0
8114 -7398 -7483 0
-8114 7398 0
-8114 7483 0
8115 -7443 -7413 0
-8115 7443 0
-8115 7413 0
8116 -7443 -7483 0
-8116 7443 0
-8116 7483 0
8117 -7398 -7413 -7473 0
-8117 7398 0
-8117 7413 0
-8117 7473 0
-4297 7414 8114 8115 8116 8117 0
4297 -7414 0
4297 -8114 0
4297 -8115 0
4297 -8116 0
4297 -8117 0
8118 -7407 -7483 0
-8118 7407 0
-8118 7483 0
8119 -7468 -7483 0
-8119 7468 0
-8119 7483 0
8120 -7468 -7413 0
-8120 7468 0
-8120 7413 0
8121 -7407 -7413 -7473 0
-8121 7407 0
-8121 7413 0
-8121 7473 0
-4299 7416 8118 8119 8120 8121 0
4299 -7416 0
4299 -8118 0
4299 -8119 0
4299 -8120 0
4299 -8121 0
8122 -7401 -7468 0
-8122 7401 0
-8122 7468 0
8123 -7438 -7407 0
-8123 7438 0
-8123 7407 0
8124 -7438 -7468 0
-8124 7438 0
-8124 7468 0
8125 -7401 -7407 -7473 0
-8125 7401 0
-8125 7407 0
-8125 7473 0
-4281 7418 8122 8123 8124 8125 0
4281 -7418 0
4281 -8122 0
4281 -8123 0
4281 -8124 0
4281 -8125 0
8126 -7401 -7438 0
-8126 7401 0
-8126 7438 0
7470 -7438 -7438 0
-7470 7438 0
-7470 7438 0
8127 -7438 -7401 0
-8127 7438 0
-8127 7401 0
8128 -7401 -7401 -7473 0
-8128 7401 0
-8128 7401 0
-8128 7473 0
-4288 7420 8126 7470 8127 8128 0
4288 -7420 0
4288 -8126 0
4288 -7470 0
4288 -8127 0
4288 -8128 0
8129 -7401 -7478 0
-8129 7401 0
-8129 7478 0
8130 -7438 -7478 0
-8130 7438 0
-8130 7478 0
8131 -7438 -7410 0
-8131 7438 0
-8131 7410 0
8132 -7401 -7410 -7473 0
-8132 7401 0
-8132 7410 0
-8132 7473 0
-4295 7422 8129 8130 8131 8132 0
4295 -7422 0
4295 -8129 0
4295 -8130 0
4295 -8131 0
4295 -8132 0
8133 -7401 -7483 0
-8133 7401 0
-8133 7483 0
8134 -7438 -7413 0
-8134 7438 0
-8134 7413 0
8135 -7438 -7483 0
-8135 7438 0
-8135 7483 0
8136 -7401 -7413 -7473 0
-8136 7401 0
-8136 7413 0
-8136 7473 0
-4302 7424 8133 8134 8135 8136 0
4302 -7424 0
4302 -8133 0
4302 -8134 0
4302 -8135 0
4302 -8136 0
8137 -7404 -7483 0
-8137 7404 0
-8137 7483 0
8138 -7441 -7483 0
-8138 7441 0
-8138 7483 0
8139 -7441 -7413 0
-8139 7441 0
-8139 7413 0
8140 -7404 -7413 -7473 0
-8140 7404 0
-8140 7413 0
-8140 7473 0
-4309 7426 8137 8138 8139 8140 0
4309 -7426 0
4309 -8137 0
4309 -8138 0
4309 -8139 0
4309 -8140 0
8141 -7410 -7468 0
-8141 7410 0
-8141 7468 0
8142 -7478 -7407 0
-8142 7478 0
-8142 7407 0
8143 -7478 -7468 0
-8143 7478 0
-8143 7468 0
8144 -7410 -7407 -7473 0
-8144 7410 0
-8144 7407 0
-8144 7473 0
-4293 7428 8141 8142 8143 8144 0
4293 -7428 0
4293 -8141 0
4293 -8142 0
4293 -8143 0
4293 -8144 0
8145 -7410 -7441 0
-8145 7410 0
-8145 7441 0
8146 -7478 -7404 0
-8146 7478 0
-8146 7404 0
8147 -7478 -7441 0
-8147 7478 0
-8147 7441 0
8148 -7410 -7404 -7473 0
-8148 7410 0
-8148 7404 0
-8148 7473 0
-4314 7430 8145 8146 8147 8148 0
4314 -7430 0
4314 -8145 0
4314 -8146 0
4314 -8147 0
4314 -8148 0
8149 -7410 -7478 0
-8149 7410 0
-8149 7478 0
8150 -7478 -7478 0
-8150 7478 0
-8150 7478 0
8151 -7478 -7410 0
-8151 7478 0
-8151 7410 0
8152 -7410 -7410 -7473 0
-8152 7410 0
-8152 7410 0
-8152 7473 0
-4320 7432 8149 8150 8151 8152 0
4320 -7432 0
4320 -8149 0
4320 -8150 0
4320 -8151 0
4320 -8152 0
8153 -6771 -6771 0
-8153 6771 0
-8153 6771 0
-1759 6756 8153 0
1759 -6756 0
1759 -8153 0
8154 -6771 -6781 0
-8154 6771 0
-8154 6781 0
-1762 6759 8154 0
1762 -6759 0
1762 -8154 0
8155 -6771 -6783 0
-8155 6771 0
-8155 6783 0
-1765 6762 8155 0
1765 -6762 0
1765 -8155 0
8156 -6773 -6783 0
-8156 6773 0
-8156 6783 0
-1768 6765 8156 0
1768 -6765 0
1768 -8156 0
8157 -6771 -8158 0
-8157 6771 0
-8157 8158 0
-2815 8159 8157 0
2815 -8159 0
2815 -8157 0
8160 -6771 -6770 0
-8160 6771 0
-8160 6770 0
-1757 6755 8160 0
1757 -6755 0
1757 -8160 0
8161 -6773 -6770 0
-8161 6773 0
-8161 6770 0
-1767 6764 8161 0
1767 -6764 0
1767 -8161 0
8162 -6781 -6773 0
-8162 6781 0
-8162 6773 0
-1770 6775 8162 0
1770 -6775 0
1770 -8162 0
8163 -6781 -6781 0
-8163 6781 0
-8163 6781 0
-1773 6777 8163 0
1773 -6777 0
1773 -8163 0
8164 -6781 -8158 0
-8164 6781 0
-8164 8158 0
-2820 8165 8164 0
2820 -8165 0
2820 -8164 0
8166 -6781 -6770 0
-8166 6781 0
-8166 6770 0
-1761 6758 8166 0
1761 -6758 0
1761 -8166 0
8167 -6783 -6770 0
-8167 6783 0
-8167 6770 0
-1764 6761 8167 0
1764 -6761 0
1764 -8167 0
8168 -8158 -6773 0
-8168 8158 0
-8168 6773 0
-2818 8169 8168 0
2818 -8169 0
2818 -8168 0
8170 -8158 -6783 0
-8170 8158 0
-8170 6783 0
-2833 8171 8170 0
2833 -8171 0
2833 -8170 0
8172 -8158 -8158 0
-8172 8158 0
-8172 8158 0
-2839 8173 8172 0
2839 -8173 0
2839 -8172 0
8174 -7347 -8175 0
-8174 7347 0
-8174 8175 0
8176 -8175 -8175 0
-8176 8175 0
-8176 8175 0
8177 -8175 -7347 0
-8177 8175 0
-8177 7347 0
8178 -7347 -7347 -8179 0
-8178 7347 0
-8178 7347 0
-8178 8179 0
-5626 7348 8174 8176 8177 8178 0
5626 -7348 0
5626 -8174 0
5626 -8176 0
5626 -8177 0
5626 -8178 0
8180 -7347 -8181 0
-8180 7347 0
-8180 8181 0
8182 -8175 -8181 0
-8182 8175 0
-8182 8181 0
8183 -8175 -7350 0
-8183 8175 0
-8183 7350 0
8184 -7347 -7350 -8179 0
-8184 7347 0
-8184 7350 0
-8184 8179 0
-5622 7351 8180 8182 8183 8184 0
5622 -7351 0
5622 -8180 0
5622 -8182 0
5622 -8183 0
5622 -8184 0
8185 -7347 -8186 0
-8185 7347 0
-8185 8186 0
8187 -8175 -7353 0
-8187 8175 0
-8187 7353 0
8188 -8175 -8186 0
-8188 8175 0
-8188 8186 0
8189 -7347 -7353 -8179 0
-8189 7347 0
-8189 7353 0
-8189 8179 0
-5640 7354 8185 8187 8188 8189 0
5640 -7354 0
5640 -8185 0
5640 -8187 0
5640 -8188 0
5640 -8189 0
8190 -7356 -8186 0
-8190 7356 0
-8190 8186 0
8191 -8192 -8186 0
-8191 8192 0
-8191 8186 0
8193 -8192 -7353 0
-8193 8192 0
-8193 7353 0
8194 -7356 -7353 -8179 0
-8194 7356 0
-8194 7353 0
-8194 8179 0
-1960 7357 8190 8191 8193 8194 0
1960 -7357 0
1960 -8190 0
1960 -8191 0
1960 -8193 0
1960 -8194 0
8195 -7347 -8196 0
-8195 7347 0
-8195 8196 0
8197 -8175 -8196 0
-8197 8175 0
-8197 8196 0
8198 -8175 -7359 0
-8198 8175 0
-8198 7359 0
8199 -7347 -7359 -8179 0
-8199 7347 0
-8199 7359 0
-8199 8179 0
-5629 7360 8195 8197 8198 8199 0
5629 -7360 0
5629 -8195 0
5629 -8197 0
5629 -8198 0
5629 -8199 0
8200 -7347 -8201 0
-8200 7347 0
-8200 8201 0
8202 -8175 -7362 0
-8202 8175 0
-8202 7362 0
8203 -8175 -8201 0
-8203 8175 0
-8203 8201 0
8204 -7347 -7362 -8179 0
-8204 7347 0
-8204 7362 0
-8204 8179 0
-5634 7363 8200 8202 8203 8204 0
5634 -7363 0
5634 -8200 0
5634 -8202 0
5634 -8203 0
5634 -8204 0
8205 -7356 -8201 0
-8205 7356 0
-8205 8201 0
8206 -8192 -8201 0
-8206 8192 0
-8206 8201 0
8207 -8192 -7362 0
-8207 8192 0
-8207 7362 0
8208 -7356 -7362 -8179 0
-8208 7356 0
-8208 7362 0
-8208 8179 0
-1957 7365 8205 8206 8207 8208 0
1957 -7365 0
1957 -8205 0
1957 -8206 0
1957 -8207 0
1957 -8208 0
8209 -7350 -8192 0
-8209 7350 0
-8209 8192 0
8210 -8181 -7356 0
-8210 8181 0
-8210 7356 0
8211 -8181 -8192 0
-8211 8181 0
-8211 8192 0
8212 -7350 -7356 -8179 0
-8212 7350 0
-8212 7356 0
-8212 8179 0
-1950 7367 8209 8210 8211 8212 0
1950 -7367 0
1950 -8209 0
1950 -8210 0
1950 -8211 0
1950 -8212 0
8213 -7350 -8181 0
-8213 7350 0
-8213 8181 0
8214 -8181 -8181 0
-8214 8181 0
-8214 8181 0
8215 -8181 -7350 0
-8215 8181 0
-8215 7350 0
8216 -7350 -7350 -8179 0
-8216 7350 0
-8216 7350 0
-8216 8179 0
-1952 7369 8213 8214 8215 8216 0
1952 -7369 0
1952 -8213 0
1952 -8214 0
1952 -8215 0
1952 -8216 0
8217 -7350 -8196 0
-8217 7350 0
-8217 8196 0
8218 -8181 -8196 0
-8218 8181 0
-8218 8196 0
8219 -8181 -7359 0
-8219 8181 0
-8219 7359 0
8220 -7350 -7359 -8179 0
-8220 7350 0
-8220 7359 0
-8220 8179 0
-1955 7371 8217 8218 8219 8220 0
1955 -7371 0
1955 -8217 0
1955 -8218 0
1955 -8219 0
1955 -8220 0
8221 -7350 -8201 0
-8221 7350 0
-8221 8201 0
8222 -8181 -7362 0
-8222 8181 0
-8222 7362 0
8223 -8181 -8201 0
-8223 8181 0
-8223 8201 0
8224 -7350 -7362 -8179 0
-8224 7350 0
-8224 7362 0
-8224 8179 0
-1958 7373 8221 8222 8223 8224 0
1958 -7373 0
1958 -8221 0
1958 -8222 0
1958 -8223 0
1958 -8224 0
8225 -7353 -8201 0
-8225 7353 0
-8225 8201 0
8226 -8186 -8201 0
-8226 8186 0
-8226 8201 0
8227 -8186 -7362 0
-8227 8186 0
-8227 7362 0
8228 -7353 -7362 -8179 0
-8228 7353 0
-8228 7362 0
-8228 8179 0
-1961 7375 8225 8226 8227 8228 0
1961 -7375 0
1961 -8225 0
1961 -8226 0
1961 -8227 0
1961 -8228 0
8229 -7359 -8192 0
-8229 7359 0
-8229 8192 0
8230 -8196 -7356 0
-8230 8196 0
-8230 7356 0
8231 -8196 -8192 0
-8231 8196 0
-8231 8192 0
8232 -7359 -7356 -8179 0
-8232 7359 0
-8232 7356 0
-8232 8179 0
-1954 7377 8229 8230 8231 8232 0
1954 -7377 0
1954 -8229 0
1954 -8230 0
1954 -8231 0
1954 -8232 0
8233 -7359 -8186 0
-8233 7359 0
-8233 8186 0
8234 -8196 -7353 0
-8234 8196 0
-8234 7353 0
8235 -8196 -8186 0
-8235 8196 0
-8235 8186 0
8236 -7359 -7353 -8179 0
-8236 7359 0
-8236 7353 0
-8236 8179 0
-1963 7379 8233 8234 8235 8236 0
1963 -7379 0
1963 -8233 0
1963 -8234 0
1963 -8235 0
1963 -8236 0
8237 -7359 -8196 0
-8237 7359 0
-8237 8196 0
8238 -8196 -8196 0
-8238 8196 0
-8238 8196 0
8239 -8196 -7359 0
-8239 8196 0
-8239 7359 0
8240 -7359 -7359 -8179 0
-8240 7359 0
-8240 7359 0
-8240 8179 0
-1966 7381 8237 8238 8239 8240 0
1966 -7381 0
1966 -8237 0
1966 -8238 0
1966 -8239 0
1966 -8240 0
8241 -8242 -8243 0
-8241 8242 0
-8241 8243 0
8244 -8243 -8243 0
-8244 8243 0
-8244 8243 0
8245 -8243 -8242 0
-8245 8243 0
-8245 8242 0
8246 -8242 -8242 -8247 0
-8246 8242 0
-8246 8242 0
-8246 8247 0
-2659 8248 8241 8244 8245 8246 0
2659 -8248 0
2659 -8241 0
2659 -8244 0
2659 -8245 0
2659 -8246 0
8249 -8242 -8250 0
-8249 8242 0
-8249 8250 0
8251 -8243 -8250 0
-8251 8243 0
-8251 8250 0
8252 -8243 -8253 0
-8252 8243 0
-8252 8253 0
8254 -8242 -8253 -8247 0
-8254 8242 0
-8254 8253 0
-8254 8247 0
-2653 8255 8249 8251 8252 8254 0
2653 -8255 0
2653 -8249 0
2653 -8251 0
2653 -8252 0
2653 -8254 0
8256 -8242 -8257 0
-8256 8242 0
-8256 8257 0
8258 -8243 -8259 0
-8258 8243 0
-8258 8259 0
8260 -8243 -8257 0
-8260 8243 0
-8260 8257 0
8261 -8242 -8259 -8247 0
-8261 8242 0
-8261 8259 0
-8261 8247 0
-2652 8262 8256 8258 8260 8261 0
2652 -8262 0
2652 -8256 0
2652 -8258 0
2652 -8260 0
2652 -8261 0
8263 -8264 -8257 0
-8263 8264 0
-8263 8257 0
8265 -8266 -8257 0
-8265 8266 0
-8265 8257 0
8267 -8266 -8259 0
-8267 8266 0
-8267 8259 0
8268 -8264 -8259 -8247 0
-8268 8264 0
-8268 8259 0
-8268 8247 0
-2675 8269 8263 8265 8267 8268 0
2675 -8269 0
2675 -8263 0
2675 -8265 0
2675 -8267 0
2675 -8268 0
8270 -8242 -8271 0
-8270 8242 0
-8270 8271 0
8272 -8243 -8271 0
-8272 8243 0
-8272 8271 0
8273 -8243 -8274 0
-8273 8243 0
-8273 8274 0
8275 -8242 -8274 -8247 0
-8275 8242 0
-8275 8274 0
-8275 8247 0
-2666 8276 8270 8272 8273 8275 0
2666 -8276 0
2666 -8270 0
2666 -8272 0
2666 -8273 0
2666 -8275 0
8277 -8242 -8278 0
-8277 8242 0
-8277 8278 0
8279 -8243 -8280 0
-8279 8243 0
-8279 8280 0
8281 -8243 -8278 0
-8281 8243 0
-8281 8278 0
8282 -8242 -8280 -8247 0
-8282 8242 0
-8282 8280 0
-8282 8247 0
-2673 8283 8277 8279 8281 8282 0
2673 -8283 0
2673 -8277 0
2673 -8279 0
2673 -8281 0
2673 -8282 0
8284 -8264 -8278 0
-8284 8264 0
-8284 8278 0
8285 -8266 -8278 0
-8285 8266 0
-8285 8278 0
8286 -8266 -8280 0
-8286 8266 0
-8286 8280 0
8287 -8264 -8280 -8247 0
-8287 8264 0
-8287 8280 0
-8287 8247 0
-2680 8288 8284 8285 8286 8287 0
2680 -8288 0
2680 -8284 0
2680 -8285 0
2680 -8286 0
2680 -8287 0
8289 -8253 -8266 0
-8289 8253 0
-8289 8266 0
8290 -8250 -8264 0
-8290 8250 0
-8290 8264 0
8291 -8250 -8266 0
-8291 8250 0
-8291 8266 0
8292 -8253 -8264 -8247 0
-8292 8253 0
-8292 8264 0
-8292 8247 0
-2677 8293 8289 8290 8291 8292 0
2677 -8293 0
2677 -8289 0
2677 -8290 0
2677 -8291 0
2677 -8292 0
8294 -8253 -8250 0
-8294 8253 0
-8294 8250 0
8295 -8250 -8250 0
-8295 8250 0
-8295 8250 0
8296 -8250 -8253 0
-8296 8250 0
-8296 8253 0
8297 -8253 -8253 -8247 0
-8297 8253 0
-8297 8253 0
-8297 8247 0
-2657 8298 8294 8295 8296 8297 0
2657 -8298 0
2657 -8294 0
2657 -8295 0
2657 -8296 0
2657 -8297 0
8299 -8253 -8271 0
-8299 8253 0
-8299 8271 0
8300 -8250 -8271 0
-8300 8250 0
-8300 8271 0
8301 -8250 -8274 0
-8301 8250 0
-8301 8274 0
8302 -8253 -8274 -8247 0
-8302 8253 0
-8302 8274 0
-8302 8247 0
-2661 8303 8299 8300 8301 8302 0
2661 -8303 0
2661 -8299 0
2661 -8300 0
2661 -8301 0
2661 -8302 0
8304 -8253 -8278 0
-8304 8253 0
-8304 8278 0
8305 -8250 -8280 0
-8305 8250 0
-8305 8280 0
8306 -8250 -8278 0
-8306 8250 0
-8306 8278 0
8307 -8253 -8280 -8247 0
-8307 8253 0
-8307 8280 0
-8307 8247 0
-2668 8308 8304 8305 8306 8307 0
2668 -8308 0
2668 -8304 0
2668 -8305 0
2668 -8306 0
2668 -8307 0
8309 -8259 -8278 0
-8309 8259 0
-8309 8278 0
8310 -8257 -8278 0
-8310 8257 0
-8310 8278 0
8311 -8257 -8280 0
-8311 8257 0
-8311 8280 0
8312 -8259 -8280 -8247 0
-8312 8259 0
-8312 8280 0
-8312 8247 0
-2670 8313 8309 8310 8311 8312 0
2670 -8313 0
2670 -8309 0
2670 -8310 0
2670 -8311 0
2670 -8312 0
8314 -8274 -8266 0
-8314 8274 0
-8314 8266 0
8315 -8271 -8264 0
-8315 8271 0
-8315 8264 0
8316 -8271 -8266 0
-8316 8271 0
-8316 8266 0
8317 -8274 -8264 -8247 0
-8317 8274 0
-8317 8264 0
-8317 8247 0
-2685 8318 8314 8315 8316 8317 0
2685 -8318 0
2685 -8314 0
2685 -8315 0
2685 -8316 0
2685 -8317 0
8319 -8274 -8257 0
-8319 8274 0
-8319 8257 0
8320 -8271 -8259 0
-8320 8271 0
-8320 8259 0
8321 -8271 -8257 0
-8321 8271 0
-8321 8257 0
8322 -8274 -8259 -8247 0
-8322 8274 0
-8322 8259 0
-8322 8247 0
-2664 8323 8319 8320 8321 8322 0
2664 -8323 0
2664 -8319 0
2664 -8320 0
2664 -8321 0
2664 -8322 0
8324 -8274 -8271 0
-8324 8274 0
-8324 8271 0
8325 -8271 -8271 0
-8325 8271 0
-8325 8271 0
8326 -8271 -8274 0
-8326 8271 0
-8326 8274 0
8327 -8274 -8274 -8247 0
-8327 8274 0
-8327 8274 0
-8327 8247 0
-2691 8328 8324 8325 8326 8327 0
2691 -8328 0
2691 -8324 0
2691 -8325 0
2691 -8326 0
2691 -8327 0
8329 -7045 -7045 0
-8329 7045 0
-8329 7045 0
-5272 7031 8329 0
5272 -7031 0
5272 -8329 0
8330 -7045 -7040 0
-8330 7045 0
-8330 7040 0
-5268 7026 8330 0
5268 -7026 0
5268 -8330 0
8331 -7045 -7042 0
-8331 7045 0
-8331 7042 0
-5286 7025 8331 0
5286 -7025 0
5286 -8331 0
8332 -7052 -7042 0
-8332 7052 0
-8332 7042 0
-4095 7047 8332 0
4095 -7047 0
4095 -8332 0
8333 -7045 -7106 0
-8333 7045 0
-8333 7106 0
-5275 7059 8333 0
5275 -7059 0
5275 -8333 0
8334 -7045 -7096 0
-8334 7045 0
-8334 7096 0
-5280 7066 8334 0
5280 -7066 0
5280 -8334 0
8335 -7052 -7096 0
-8335 7052 0
-8335 7096 0
-4092 7071 8335 0
4092 -7071 0
4092 -8335 0
8336 -7040 -7052 0
-8336 7040 0
-8336 7052 0
-4085 7049 8336 0
4085 -7049 0
4085 -8336 0
8337 -7040 -7040 0
-8337 7040 0
-8337 7040 0
-4087 7030 8337 0
4087 -7030 0
4087 -8337 0
8338 -7040 -7106 0
-8338 7040 0
-8338 7106 0
-4090 7054 8338 0
4090 -7054 0
4090 -8338 0
8339 -7040 -7096 0
-8339 7040 0
-8339 7096 0
-4093 7061 8339 0
4093 -7061 0
4093 -8339 0
8340 -7042 -7096 0
-8340 7042 0
-8340 7096 0
-4096 7063 8340 0
4096 -7063 0
4096 -8340 0
8341 -7106 -7052 0
-8341 7106 0
-8341 7052 0
-4089 7101 8341 0
4089 -7101 0
4089 -8341 0
8342 -7106 -7042 0
-8342 7106 0
-8342 7042 0
-4098 7057 8342 0
4098 -7057 0
4098 -8342 0
8343 -7106 -7106 0
-8343 7106 0
-8343 7106 0
-4101 7111 8343 0
4101 -7111 0
4101 -8343 0
8344 -6471 -6471 0
-8344 6471 0
-8344 6471 0
-3358 6456 8344 0
3358 -6456 0
3358 -8344 0
8345 -6471 -6481 0
-8345 6471 0
-8345 6481 0
-4576 6459 8345 0
4576 -6459 0
4576 -8345 0
8346 -6471 -6483 0
-8346 6471 0
-8346 6483 0
-3356 6462 8346 0
3356 -6462 0
3356 -8346 0
8347 -6473 -6483 0
-8347 6473 0
-8347 6483 0
-2771 6465 8347 0
2771 -6465 0
2771 -8347 0
8348 -6471 -8349 0
-8348 6471 0
-8348 8349 0
-3360 8350 8348 0
3360 -8350 0
3360 -8348 0
8351 -6471 -6470 0
-8351 6471 0
-8351 6470 0
-3362 6455 8351 0
3362 -6455 0
3362 -8351 0
8352 -6473 -6470 0
-8352 6473 0
-8352 6470 0
-2768 6464 8352 0
2768 -6464 0
2768 -8352 0
8353 -6481 -6473 0
-8353 6481 0
-8353 6473 0
-2761 6475 8353 0
2761 -6475 0
2761 -8353 0
8354 -6481 -6481 0
-8354 6481 0
-8354 6481 0
-2763 6477 8354 0
2763 -6477 0
2763 -8354 0
8355 -6481 -8349 0
-8355 6481 0
-8355 8349 0
-2766 8356 8355 0
2766 -8356 0
2766 -8355 0
8357 -6481 -6470 0
-8357 6481 0
-8357 6470 0
-2769 6458 8357 0
2769 -6458 0
2769 -8357 0
8358 -6483 -6470 0
-8358 6483 0
-8358 6470 0
-2772 6461 8358 0
2772 -6461 0
2772 -8358 0
8359 -8349 -6473 0
-8359 8349 0
-8359 6473 0
-2765 8360 8359 0
2765 -8360 0
2765 -8359 0
8361 -8349 -6483 0
-8361 8349 0
-8361 6483 0
-2774 8362 8361 0
2774 -8362 0
2774 -8361 0
8363 -8349 -8349 0
-8363 8349 0
-8363 8349 0
-2777 8364 8363 0
2777 -8364 0
2777 -8363 0
8365 -6532 -6532 0
-8365 6532 0
-8365 6532 0
-1859 6497 8365 0
1859 -6497 0
1859 -8365 0
8366 -6532 -6557 0
-8366 6532 0
-8366 6557 0
-1862 6504 8366 0
1862 -6504 0
1862 -8366 0
8367 -6532 -6562 0
-8367 6532 0
-8367 6562 0
-1865 6511 8367 0
1865 -6511 0
1865 -8367 0
8368 -6537 -6562 0
-8368 6537 0
-8368 6562 0
-1868 6518 8368 0
1868 -6518 0
1868 -8368 0
8369 -6532 -6527 0
-8369 6532 0
-8369 6527 0
-2789 6492 8369 0
2789 -6492 0
2789 -8369 0
8370 -6532 -6529 0
-8370 6532 0
-8370 6529 0
-1857 6491 8370 0
1857 -6491 0
1857 -8370 0
8371 -6537 -6529 0
-8371 6537 0
-8371 6529 0
-1867 6513 8371 0
1867 -6513 0
1867 -8371 0
8372 -6557 -6537 0
-8372 6557 0
-8372 6537 0
-1870 6542 8372 0
1870 -6542 0
1870 -8372 0
8373 -6557 -6557 0
-8373 6557 0
-8373 6557 0
-1873 6547 8373 0
1873 -6547 0
1873 -8373 0
8374 -6557 -6527 0
-8374 6557 0
-8374 6527 0
-2784 6499 8374 0
2784 -6499 0
2784 -8374 0
8375 -6557 -6529 0
-8375 6557 0
-8375 6529 0
-1861 6502 8375 0
1861 -6502 0
1861 -8375 0
8376 -6562 -6529 0
-8376 6562 0
-8376 6529 0
-1864 6508 8376 0
1864 -6508 0
1864 -8376 0
8377 -6527 -6537 0
-8377 6527 0
-8377 6537 0
-2802 6515 8377 0
2802 -6515 0
2802 -8377 0
8378 -6527 -6562 0
-8378 6527 0
-8378 6562 0
-2787 6506 8378 0
2787 -6506 0
2787 -8378 0
8379 -6527 -6527 0
-8379 6527 0
-8379 6527 0
-2808 6496 8379 0
2808 -6496 0
2808 -8379 0
8380 -8262 -8262 0
-8380 8262 0
-8380 8262 0
-4641 8248 8380 0
4641 -8248 0
4641 -8380 0
8381 -8262 -8257 0
-8381 8262 0
-8381 8257 0
-4637 8243 8381 0
4637 -8243 0
4637 -8381 0
8382 -8262 -8259 0
-8382 8262 0
-8382 8259 0
-4661 8242 8382 0
4661 -8242 0
4661 -8382 0
8383 -8269 -8259 0
-8383 8269 0
-8383 8259 0
-4659 8264 8383 0
4659 -8264 0
4659 -8383 0
8384 -8262 -8323 0
-8384 8262 0
-8384 8323 0
-4645 8276 8384 0
4645 -8276 0
4645 -8384 0
8385 -8262 -8313 0
-8385 8262 0
-8385 8313 0
-4652 8283 8385 0
4652 -8283 0
4652 -8385 0
8386 -8269 -8313 0
-8386 8269 0
-8386 8313 0
-4654 8288 8386 0
4654 -8288 0
4654 -8386 0
8387 -8257 -8269 0
-8387 8257 0
-8387 8269 0
-4636 8266 8387 0
4636 -8266 0
4636 -8387 0
8388 -8257 -8257 0
-8388 8257 0
-8388 8257 0
-4643 8247 8388 0
4643 -8247 0
4643 -8388 0
8389 -8257 -8323 0
-8389 8257 0
-8389 8323 0
-4650 8271 8389 0
4650 -8271 0
4650 -8389 0
8390 -8257 -8313 0
-8390 8257 0
-8390 8313 0
-4657 8278 8390 0
4657 -8278 0
4657 -8390 0
8391 -8259 -8313 0
-8391 8259 0
-8391 8313 0
-4664 8280 8391 0
4664 -8280 0
4664 -8391 0
8392 -8323 -8269 0
-8392 8323 0
-8392 8269 0
-4648 8318 8392 0
4648 -8318 0
4648 -8392 0
8393 -8323 -8259 0
-8393 8323 0
-8393 8259 0
-4669 8274 8393 0
4669 -8274 0
4669 -8393 0
8394 -8323 -8323 0
-8394 8323 0
-8394 8323 0
-4675 8328 8394 0
4675 -8328 0
4675 -8394 0
8395 -8396 -8397 0
-8395 8396 0
-8395 8397 0
8398 -8397 -8397 0
-8398 8397 0
-8398 8397 0
8399 -8397 -8396 0
-8399 8397 0
-8399 8396 0
8400 -8396 -8396 -8401 0
-8400 8396 0
-8400 8396 0
-8400 8401 0
-1741 8402 8395 8398 8399 8400 0
1741 -8402 0
1741 -8395 0
1741 -8398 0
1741 -8399 0
1741 -8400 0
8403 -8396 -8404 0
-8403 8396 0
-8403 8404 0
8405 -8397 -8404 0
-8405 8397 0
-8405 8404 0
8406 -8397 -8407 0
-8406 8397 0
-8406 8407 0
8408 -8396 -8407 -8401 0
-8408 8396 0
-8408 8407 0
-8408 8401 0
-2200 8409 8403 8405 8406 8408 0
2200 -8409 0
2200 -8403 0
2200 -8405 0
2200 -8406 0
2200 -8408 0
8410 -8396 -8411 0
-8410 8396 0
-8410 8411 0
8412 -8397 -8413 0
-8412 8397 0
-8412 8413 0
8414 -8397 -8411 0
-8414 8397 0
-8414 8411 0
8415 -8396 -8413 -8401 0
-8415 8396 0
-8415 8413 0
-8415 8401 0
-1739 8416 8410 8412 8414 8415 0
1739 -8416 0
1739 -8410 0
1739 -8412 0
1739 -8414 0
1739 -8415 0
8417 -8418 -8411 0
-8417 8418 0
-8417 8411 0
8419 -8420 -8411 0
-8419 8420 0
-8419 8411 0
8421 -8420 -8413 0
-8421 8420 0
-8421 8413 0
8422 -8418 -8413 -8401 0
-8422 8418 0
-8422 8413 0
-8422 8401 0
-1749 8423 8417 8419 8421 8422 0
1749 -8423 0
1749 -8417 0
1749 -8419 0
1749 -8421 0
1749 -8422 0
8424 -8396 -8425 0
-8424 8396 0
-8424 8425 0
8426 -8397 -8425 0
-8426 8397 0
-8426 8425 0
8427 -8397 -8428 0
-8427 8397 0
-8427 8428 0
8429 -8396 -8428 -8401 0
-8429 8396 0
-8429 8428 0
-8429 8401 0
-1744 8430 8424 8426 8427 8429 0
1744 -8430 0
1744 -8424 0
1744 -8426 0
1744 -8427 0
1744 -8429 0
8431 -8396 -8432 0
-8431 8396 0
-8431 8432 0
8433 -8397 -8434 0
-8433 8397 0
-8433 8434 0
8435 -8397 -8432 0
-8435 8397 0
-8435 8432 0
8436 -8396 -8434 -8401 0
-8436 8396 0
-8436 8434 0
-8436 8401 0
-1747 8437 8431 8433 8435 8436 0
1747 -8437 0
1747 -8431 0
1747 -8433 0
1747 -8435 0
1747 -8436 0
8438 -8418 -8432 0
-8438 8418 0
-8438 8432 0
8439 -8420 -8432 0
-8439 8420 0
-8439 8432 0
8440 -8420 -8434 0
-8440 8420 0
-8440 8434 0
8441 -8418 -8434 -8401 0
-8441 8418 0
-8441 8434 0
-8441 8401 0
-1750 8442 8438 8439 8440 8441 0
1750 -8442 0
1750 -8438 0
1750 -8439 0
1750 -8440 0
1750 -8441 0
8443 -8407 -8420 0
-8443 8407 0
-8443 8420 0
8444 -8404 -8418 0
-8444 8404 0
-8444 8418 0
8445 -8404 -8420 0
-8445 8404 0
-8445 8420 0
8446 -8407 -8418 -8401 0
-8446 8407 0
-8446 8418 0
-8446 8401 0
-2218 8447 8443 8444 8445 8446 0
2218 -8447 0
2218 -8443 0
2218 -8444 0
2218 -8445 0
2218 -8446 0
8448 -8407 -8404 0
-8448 8407 0
-8448 8404 0
8449 -8404 -8404 0
-8449 8404 0
-8449 8404 0
8450 -8404 -8407 0
-8450 8404 0
-8450 8407 0
8451 -8407 -8407 -8401 0
-8451 8407 0
-8451 8407 0
-8451 8401 0
-2204 8452 8448 8449 8450 8451 0
2204 -8452 0
2204 -8448 0
2204 -8449 0
2204 -8450 0
2204 -8451 0
8453 -8407 -8425 0
-8453 8407 0
-8453 8425 0
8454 -8404 -8425 0
-8454 8404 0
-8454 8425 0
8455 -8404 -8428 0
-8455 8404 0
-8455 8428 0
8456 -8407 -8428 -8401 0
-8456 8407 0
-8456 8428 0
-8456 8401 0
-2207 8457 8453 8454 8455 8456 0
2207 -8457 0
2207 -8453 0
2207 -8454 0
2207 -8455 0
2207 -8456 0
8458 -8407 -8432 0
-8458 8407 0
-8458 8432 0
8459 -8404 -8434 0
-8459 8404 0
-8459 8434 0
8460 -8404 -8432 0
-8460 8404 0
-8460 8432 0
8461 -8407 -8434 -8401 0
-8461 8407 0
-8461 8434 0
-8461 8401 0
-2212 8462 8458 8459 8460 8461 0
2212 -8462 0
2212 -8458 0
2212 -8459 0
2212 -8460 0
2212 -8461 0
8463 -8413 -8432 0
-8463 8413 0
-8463 8432 0
8464 -8411 -8432 0
-8464 8411 0
-8464 8432 0
8465 -8411 -8434 0
-8465 8411 0
-8465 8434 0
8466 -8413 -8434 -8401 0
-8466 8413 0
-8466 8434 0
-8466 8401 0
-1746 8467 8463 8464 8465 8466 0
1746 -8467 0
1746 -8463 0
1746 -8464 0
1746 -8465 0
1746 -8466 0
8468 -8428 -8420 0
-8468 8428 0
-8468 8420 0
8469 -8425 -8418 0
-8469 8425 0
-8469 8418 0
8470 -8425 -8420 0
-8470 8425 0
-8470 8420 0
8471 -8428 -8418 -8401 0
-8471 8428 0
-8471 8418 0
-8471 8401 0
-1752 8472 8468 8469 8470 8471 0
1752 -8472 0
1752 -8468 0
1752 -8469 0
1752 -8470 0
1752 -8471 0
8473 -8428 -8411 0
-8473 8428 0
-8473 8411 0
8474 -8425 -8413 0
-8474 8425 0
-8474 8413 0
8475 -8425 -8411 0
-8475 8425 0
-8475 8411 0
8476 -8428 -8413 -8401 0
-8476 8428 0
-8476 8413 0
-8476 8401 0
-1743 8477 8473 8474 8475 8476 0
1743 -8477 0
1743 -8473 0
1743 -8474 0
1743 -8475 0
1743 -8476 0
8478 -8428 -8425 0
-8478 8428 0
-8478 8425 0
8479 -8425 -8425 0
-8479 8425 0
-8479 8425 0
8480 -8425 -8428 0
-8480 8425 0
-8480 8428 0
8481 -8428 -8428 -8401 0
-8481 8428 0
-8481 8428 0
-8481 8401 0
-1755 8482 8478 8479 8480 8481 0
1755 -8482 0
1755 -8478 0
1755 -8479 0
1755 -8480 0
1755 -8481 0
8483 -6462 -6459 0
-8483 6462 0
-8483 6459 0
8484 -6459 -6459 0
-8484 6459 0
-8484 6459 0
8485 -6459 -6462 0
-8485 6459 0
-8485 6462 0
8486 -6462 -6462 -6477 0
-8486 6462 0
-8486 6462 0
-8486 6477 0
-2887 6456 8483 8484 8485 8486 0
2887 -6456 0
2887 -8483 0
2887 -8484 0
2887 -8485 0
2887 -8486 0
8487 -6462 -6479 0
-8487 6462 0
-8487 6479 0
8488 -6459 -6479 0
-8488 6459 0
-8488 6479 0
8489 -6459 -6487 0
-8489 6459 0
-8489 6487 0
8490 -6462 -6487 -6477 0
-8490 6462 0
-8490 6487 0
-8490 6477 0
-2883 6468 8487 8488 8489 8490 0
2883 -6468 0
2883 -8487 0
2883 -8488 0
2883 -8489 0
2883 -8490 0
8491 -6462 -6481 0
-8491 6462 0
-8491 6481 0
8492 -6459 -6483 0
-8492 6459 0
-8492 6483 0
8493 -6459 -6481 0
-8493 6459 0
-8493 6481 0
8494 -6462 -6483 -6477 0
-8494 6462 0
-8494 6483 0
-8494 6477 0
-2907 6471 8491 8492 8493 8494 0
2907 -6471 0
2907 -8491 0
2907 -8492 0
2907 -8493 0
2907 -8494 0
8495 -6465 -6481 0
-8495 6465 0
-8495 6481 0
8496 -6475 -6481 0
-8496 6475 0
-8496 6481 0
8497 -6475 -6483 0
-8497 6475 0
-8497 6483 0
8498 -6465 -6483 -6477 0
-8498 6465 0
-8498 6483 0
-8498 6477 0
-2905 6473 8495 8496 8497 8498 0
2905 -6473 0
2905 -8495 0
2905 -8496 0
2905 -8497 0
2905 -8498 0
8499 -6462 -8356 0
-8499 6462 0
-8499 8356 0
8500 -6459 -8356 0
-8500 6459 0
-8500 8356 0
8501 -6459 -8362 0
-8501 6459 0
-8501 8362 0
8502 -6462 -8362 -6477 0
-8502 6462 0
-8502 8362 0
-8502 6477 0
-2891 8350 8499 8500 8501 8502 0
2891 -8350 0
2891 -8499 0
2891 -8500 0
2891 -8501 0
2891 -8502 0
8503 -6462 -6458 0
-8503 6462 0
-8503 6458 0
8504 -6459 -6461 0
-8504 6459 0
-8504 6461 0
8505 -6459 -6458 0
-8505 6459 0
-8505 6458 0
8506 -6462 -6461 -6477 0
-8506 6462 0
-8506 6461 0
-8506 6477 0
-2898 6455 8503 8504 8505 8506 0
2898 -6455 0
2898 -8503 0
2898 -8504 0
2898 -8505 0
2898 -8506 0
8507 -6465 -6458 0
-8507 6465 0
-8507 6458 0
8508 -6475 -6458 0
-8508 6475 0
-8508 6458 0
8509 -6475 -6461 0
-8509 6475 0
-8509 6461 0
8510 -6465 -6461 -6477 0
-8510 6465 0
-8510 6461 0
-8510 6477 0
-2900 6464 8507 8508 8509 8510 0
2900 -6464 0
2900 -8507 0
2900 -8508 0
2900 -8509 0
2900 -8510 0
8511 -6487 -6475 0
-8511 6487 0
-8511 6475 0
8512 -6479 -6465 0
-8512 6479 0
-8512 6465 0
8513 -6479 -6475 0
-8513 6479 0
-8513 6475 0
8514 -6487 -6465 -6477 0
-8514 6487 0
-8514 6465 0
-8514 6477 0
-2882 6485 8511 8512 8513 8514 0
2882 -6485 0
2882 -8511 0
2882 -8512 0
2882 -8513 0
2882 -8514 0
8515 -6487 -6479 0
-8515 6487 0
-8515 6479 0
8516 -6479 -6479 0
-8516 6479 0
-8516 6479 0
8517 -6479 -6487 0
-8517 6479 0
-8517 6487 0
8518 -6487 -6487 -6477 0
-8518 6487 0
-8518 6487 0
-8518 6477 0
-2889 6489 8515 8516 8517 8518 0
2889 -6489 0
2889 -8515 0
2889 -8516 0
2889 -8517 0
2889 -8518 0
8519 -6487 -8356 0
-8519 6487 0
-8519 8356 0
8520 -6479 -8356 0
-8520 6479 0
-8520 8356 0
8521 -6479 -8362 0
-8521 6479 0
-8521 8362 0
8522 -6487 -8362 -6477 0
-8522 6487 0
-8522 8362 0
-8522 6477 0
-2896 8523 8519 8520 8521 8522 0
2896 -8523 0
2896 -8519 0
2896 -8520 0
2896 -8521 0
2896 -8522 0
8524 -6487 -6458 0
-8524 6487 0
-8524 6458 0
8525 -6479 -6461 0
-8525 6479 0
-8525 6461 0
8526 -6479 -6458 0
-8526 6479 0
-8526 6458 0
8527 -6487 -6461 -6477 0
-8527 6487 0
-8527 6461 0
-8527 6477 0
-2903 6467 8524 8525 8526 8527 0
2903 -6467 0
2903 -8524 0
2903 -8525 0
2903 -8526 0
2903 -8527 0
8528 -6483 -6458 0
-8528 6483 0
-8528 6458 0
8529 -6481 -6458 0
-8529 6481 0
-8529 6458 0
8530 -6481 -6461 0
-8530 6481 0
-8530 6461 0
8531 -6483 -6461 -6477 0
-8531 6483 0
-8531 6461 0
-8531 6477 0
-2910 6470 8528 8529 8530 8531 0
2910 -6470 0
2910 -8528 0
2910 -8529 0
2910 -8530 0
2910 -8531 0
8532 -8362 -6475 0
-8532 8362 0
-8532 6475 0
8533 -8356 -6465 0
-8533 8356 0
-8533 6465 0
8534 -8356 -6475 0
-8534 8356 0
-8534 6475 0
8535 -8362 -6465 -6477 0
-8535 8362 0
-8535 6465 0
-8535 6477 0
-2894 8360 8532 8533 8534 8535 0
2894 -8360 0
2894 -8532 0
2894 -8533 0
2894 -8534 0
2894 -8535 0
8536 -8362 -6481 0
-8536 8362 0
-8536 6481 0
8537 -8356 -6483 0
-8537 8356 0
-8537 6483 0
8538 -8356 -6481 0
-8538 8356 0
-8538 6481 0
8539 -8362 -6483 -6477 0
-8539 8362 0
-8539 6483 0
-8539 6477 0
-2915 8349 8536 8537 8538 8539 0
2915 -8349 0
2915 -8536 0
2915 -8537 0
2915 -8538 0
2915 -8539 0
8540 -8362 -8356 0
-8540 8362 0
-8540 8356 0
8541 -8356 -8356 0
-8541 8356 0
-8541 8356 0
8542 -8356 -8362 0
-8542 8356 0
-8542 8362 0
8543 -8362 -8362 -6477 0
-8543 8362 0
-8543 8362 0
-8543 6477 0
-2921 8364 8540 8541 8542 8543 0
2921 -8364 0
2921 -8540 0
2921 -8541 0
2921 -8542 0
2921 -8543 0
8544 -7669 -7669 0
-8544 7669 0
-8544 7669 0
-6252 7675 8544 0
6252 -7675 0
6252 -8544 0
8545 -7669 -7680 0
-8545 7669 0
-8545 7680 0
-6248 7682 8545 0
6248 -7682 0
6248 -8545 0
8546 -7669 -7686 0
-8546 7669 0
-8546 7686 0
-6266 7689 8546 0
6266 -7689 0
6266 -8546 0
8547 -7691 -7686 0
-8547 7691 0
-8547 7686 0
-4864 7696 8547 0
4864 -7696 0
4864 -8547 0
8548 -7669 -7701 0
-8548 7669 0
-8548 7701 0
-6255 7703 8548 0
6255 -7703 0
6255 -8548 0
8549 -7669 -7707 0
-8549 7669 0
-8549 7707 0
-6260 7710 8549 0
6260 -7710 0
6260 -8549 0
8550 -7691 -7707 0
-8550 7691 0
-8550 7707 0
-4861 7715 8550 0
4861 -7715 0
4861 -8550 0
8551 -7680 -7691 0
-8551 7680 0
-8551 7691 0
-4854 7720 8551 0
4854 -7720 0
4854 -8551 0
8552 -7680 -7680 0
-8552 7680 0
-8552 7680 0
-4856 7725 8552 0
4856 -7725 0
4856 -8552 0
8553 -7680 -7701 0
-8553 7680 0
-8553 7701 0
-4859 7730 8553 0
4859 -7730 0
4859 -8553 0
8554 -7680 -7707 0
-8554 7680 0
-8554 7707 0
-4862 7735 8554 0
4862 -7735 0
4862 -8554 0
8555 -7686 -7707 0
-8555 7686 0
-8555 7707 0
-4865 7740 8555 0
4865 -7740 0
4865 -8555 0
8556 -7701 -7691 0
-8556 7701 0
-8556 7691 0
-4858 7745 8556 0
4858 -7745 0
4858 -8556 0
8557 -7701 -7686 0
-8557 7701 0
-8557 7686 0
-4867 7750 8557 0
4867 -7750 0
4867 -8557 0
8558 -7701 -7701 0
-8558 7701 0
-8558 7701 0
-4870 7755 8558 0
4870 -7755 0
4870 -8558 0
8559 -6455 -8350 0
-8559 6455 0
-8559 8350 0
8560 -8350 -8350 0
-8560 8350 0
-8560 8350 0
8561 -8350 -6455 0
-8561 8350 0
-8561 6455 0
8562 -6455 -6455 -8364 0
-8562 6455 0
-8562 6455 0
-8562 8364 0
-1821 6456 8559 8560 8561 8562 0
1821 -6456 0
1821 -8559 0
1821 -8560 0
1821 -8561 0
1821 -8562 0
8563 -6455 -8356 0
-8563 6455 0
-8563 8356 0
8564 -8350 -8356 0
-8564 8350 0
-8564 8356 0
8565 -8350 -6458 0
-8565 8350 0
-8565 6458 0
8566 -6455 -6458 -8364 0
-8566 6455 0
-8566 6458 0
-8566 8364 0
-1817 6459 8563 8564 8565 8566 0
1817 -6459 0
1817 -8563 0
1817 -8564 0
1817 -8565 0
1817 -8566 0
8567 -6455 -8362 0
-8567 6455 0
-8567 8362 0
8568 -8350 -6461 0
-8568 8350 0
-8568 6461 0
8569 -8350 -8362 0
-8569 8350 0
-8569 8362 0
8570 -6455 -6461 -8364 0
-8570 6455 0
-8570 6461 0
-8570 8364 0
-1841 6462 8567 8568 8569 8570 0
1841 -6462 0
1841 -8567 0
1841 -8568 0
1841 -8569 0
1841 -8570 0
8571 -6464 -8362 0
-8571 6464 0
-8571 8362 0
8572 -8360 -8362 0
-8572 8360 0
-8572 8362 0
8573 -8360 -6461 0
-8573 8360 0
-8573 6461 0
8574 -6464 -6461 -8364 0
-8574 6464 0
-8574 6461 0
-8574 8364 0
-1839 6465 8571 8572 8573 8574 0
1839 -6465 0
1839 -8571 0
1839 -8572 0
1839 -8573 0
1839 -8574 0
8575 -6455 -8523 0
-8575 6455 0
-8575 8523 0
8576 -8350 -8523 0
-8576 8350 0
-8576 8523 0
8577 -8350 -6467 0
-8577 8350 0
-8577 6467 0
8578 -6455 -6467 -8364 0
-8578 6455 0
-8578 6467 0
-8578 8364 0
-1825 6468 8575 8576 8577 8578 0
1825 -6468 0
1825 -8575 0
1825 -8576 0
1825 -8577 0
1825 -8578 0
8579 -6455 -8349 0
-8579 6455 0
-8579 8349 0
8580 -8350 -6470 0
-8580 8350 0
-8580 6470 0
8581 -8350 -8349 0
-8581 8350 0
-8581 8349 0
8582 -6455 -6470 -8364 0
-8582 6455 0
-8582 6470 0
-8582 8364 0
-1832 6471 8579 8580 8581 8582 0
1832 -6471 0
1832 -8579 0
1832 -8580 0
1832 -8581 0
1832 -8582 0
8583 -6464 -8349 0
-8583 6464 0
-8583 8349 0
8584 -8360 -8349 0
-8584 8360 0
-8584 8349 0
8585 -8360 -6470 0
-8585 8360 0
-8585 6470 0
8586 -6464 -6470 -8364 0
-8586 6464 0
-8586 6470 0
-8586 8364 0
-1834 6473 8583 8584 8585 8586 0
1834 -6473 0
1834 -8583 0
1834 -8584 0
1834 -8585 0
1834 -8586 0
8587 -6458 -8360 0
-8587 6458 0
-8587 8360 0
8588 -8356 -6464 0
-8588 8356 0
-8588 6464 0
8589 -8356 -8360 0
-8589 8356 0
-8589 8360 0
8590 -6458 -6464 -8364 0
-8590 6458 0
-8590 6464 0
-8590 8364 0
-1816 6475 8587 8588 8589 8590 0
1816 -6475 0
1816 -8587 0
1816 -8588 0
1816 -8589 0
1816 -8590 0
8591 -6458 -8356 0
-8591 6458 0
-8591 8356 0
8541 -8356 -8356 0
-8541 8356 0
-8541 8356 0
8592 -8356 -6458 0
-8592 8356 0
-8592 6458 0
8593 -6458 -6458 -8364 0
-8593 6458 0
-8593 6458 0
-8593 8364 0
-1823 6477 8591 8541 8592 8593 0
1823 -6477 0
1823 -8591 0
1823 -8541 0
1823 -8592 0
1823 -8593 0
8594 -6458 -8523 0
-8594 6458 0
-8594 8523 0
8595 -8356 -8523 0
-8595 8356 0
-8595 8523 0
8596 -8356 -6467 0
-8596 8356 0
-8596 6467 0
8597 -6458 -6467 -8364 0
-8597 6458 0
-8597 6467 0
-8597 8364 0
-1830 6479 8594 8595 8596 8597 0
1830 -6479 0
1830 -8594 0
1830 -8595 0
1830 -8596 0
1830 -8597 0
8598 -6458 -8349 0
-8598 6458 0
-8598 8349 0
8599 -8356 -6470 0
-8599 8356 0
-8599 6470 0
8600 -8356 -8349 0
-8600 8356 0
-8600 8349 0
8601 -6458 -6470 -8364 0
-8601 6458 0
-8601 6470 0
-8601 8364 0
-1837 6481 8598 8599 8600 8601 0
1837 -6481 0
1837 -8598 0
1837 -8599 0
1837 -8600 0
1837 -8601 0
8602 -6461 -8349 0
-8602 6461 0
-8602 8349 0
8603 -8362 -8349 0
-8603 8362 0
-8603 8349 0
8604 -8362 -6470 0
-8604 8362 0
-8604 6470 0
8605 -6461 -6470 -8364 0
-8605 6461 0
-8605 6470 0
-8605 8364 0
-1844 6483 8602 8603 8604 8605 0
1844 -6483 0
1844 -8602 0
1844 -8603 0
1844 -8604 0
1844 -8605 0
8606 -6467 -8360 0
-8606 6467 0
-8606 8360 0
8607 -8523 -6464 0
-8607 8523 0
-8607 6464 0
8608 -8523 -8360 0
-8608 8523 0
-8608 8360 0
8609 -6467 -6464 -8364 0
-8609 6467 0
-8609 6464 0
-8609 8364 0
-1828 6485 8606 8607 8608 8609 0
1828 -6485 0
1828 -8606 0
1828 -8607 0
1828 -8608 0
1828 -8609 0
8610 -6467 -8362 0
-8610 6467 0
-8610 8362 0
8611 -8523 -6461 0
-8611 8523 0
-8611 6461 0
8612 -8523 -8362 0
-8612 8523 0
-8612 8362 0
8613 -6467 -6461 -8364 0
-8613 6467 0
-8613 6461 0
-8613 8364 0
-1849 6487 8610 8611 8612 8613 0
1849 -6487 0
1849 -8610 0
1849 -8611 0
1849 -8612 0
1849 -8613 0
8614 -6467 -8523 0
-8614 6467 0
-8614 8523 0
8615 -8523 -8523 0
-8615 8523 0
-8615 8523 0
8616 -8523 -6467 0
-8616 8523 0
-8616 6467 0
8617 -6467 -6467 -8364 0
-8617 6467 0
-8617 6467 0
-8617 8364 0
-1855 6489 8614 8615 8616 8617 0
1855 -6489 0
1855 -8614 0
1855 -8615 0
1855 -8616 0
1855 -8617 0
8618 -7405 -7405 0
-8618 7405 0
-8618 7405 0
-1633 7399 8618 0
1633 -7399 0
1633 -8618 0
8619 -7405 -7441 0
-8619 7405 0
-8619 7441 0
-1627 7443 8619 0
1627 -7443 0
1627 -8619 0
8620 -7405 -7404 0
-8620 7405 0
-8620 7404 0
-1626 7398 8620 0
1626 -7398 0
1626 -8620 0
8621 -7408 -7404 0
-8621 7408 0
-8621 7404 0
-1649 7407 8621 0
1649 -7407 0
1649 -8621 0
8622 -7405 -7430 0
-8622 7405 0
-8622 7430 0
-1640 7411 8622 0
1640 -7411 0
1640 -8622 0
8623 -7405 -7426 0
-8623 7405 0
-8623 7426 0
-1647 7414 8623 0
1647 -7414 0
1647 -8623 0
8624 -7408 -7426 0
-8624 7408 0
-8624 7426 0
-1654 7416 8624 0
1654 -7416 0
1654 -8624 0
8625 -7441 -7408 0
-8625 7441 0
-8625 7408 0
-1651 7468 8625 0
1651 -7468 0
1651 -8625 0
8626 -7441 -7441 0
-8626 7441 0
-8626 7441 0
-1631 7473 8626 0
1631 -7473 0
1631 -8626 0
8627 -7441 -7430 0
-8627 7441 0
-8627 7430 0
-1635 7478 8627 0
1635 -7478 0
1635 -8627 0
8628 -7441 -7426 0
-8628 7441 0
-8628 7426 0
-1642 7483 8628 0
1642 -7483 0
1642 -8628 0
8629 -7404 -7426 0
-8629 7404 0
-8629 7426 0
-1644 7413 8629 0
1644 -7413 0
1644 -8629 0
8630 -7430 -7408 0
-8630 7430 0
-8630 7408 0
-1659 7428 8630 0
1659 -7428 0
1659 -8630 0
8631 -7430 -7404 0
-8631 7430 0
-8631 7404 0
-1638 7410 8631 0
1638 -7410 0
1638 -8631 0
8632 -7430 -7430 0
-8632 7430 0
-8632 7430 0
-1665 7432 8632 0
1665 -7432 0
1665 -8632 0
8633 -8396 -8396 0
-8633 8396 0
-8633 8396 0
-3370 8402 8633 0
3370 -8402 0
3370 -8633 0
8634 -8396 -8407 0
-8634 8396 0
-8634 8407 0
-4225 8409 8634 0
4225 -8409 0
4225 -8634 0
8635 -8396 -8413 0
-8635 8396 0
-8635 8413 0
-3368 8416 8635 0
3368 -8416 0
3368 -8635 0
8636 -8418 -8413 0
-8636 8418 0
-8636 8413 0
-3378 8423 8636 0
3378 -8423 0
3378 -8636 0
8637 -8396 -8428 0
-8637 8396 0
-8637 8428 0
-3373 8430 8637 0
3373 -8430 0
3373 -8637 0
8638 -8396 -8434 0
-8638 8396 0
-8638 8434 0
-3376 8437 8638 0
3376 -8437 0
3376 -8638 0
8639 -8418 -8434 0
-8639 8418 0
-8639 8434 0
-3379 8442 8639 0
3379 -8442 0
3379 -8639 0
8640 -8407 -8418 0
-8640 8407 0
-8640 8418 0
-4224 8447 8640 0
4224 -8447 0
4224 -8640 0
8641 -8407 -8407 0
-8641 8407 0
-8641 8407 0
-4230 8452 8641 0
4230 -8452 0
4230 -8641 0
8642 -8407 -8428 0
-8642 8407 0
-8642 8428 0
-4235 8457 8642 0
4235 -8457 0
4235 -8642 0
8643 -8407 -8434 0
-8643 8407 0
-8643 8434 0
-4240 8462 8643 0
4240 -8462 0
4240 -8643 0
8644 -8413 -8434 0
-8644 8413 0
-8644 8434 0
-3375 8467 8644 0
3375 -8467 0
3375 -8644 0
8645 -8428 -8418 0
-8645 8428 0
-8645 8418 0
-3381 8472 8645 0
3381 -8472 0
3381 -8645 0
8646 -8428 -8413 0
-8646 8428 0
-8646 8413 0
-3372 8477 8646 0
3372 -8477 0
3372 -8646 0
8647 -8428 -8428 0
-8647 8428 0
-8647 8428 0
-3384 8482 8647 0
3384 -8482 0
3384 -8647 0
8648 -7311 -8649 0
-8648 7311 0
-8648 8649 0
8650 -8649 -8649 0
-8650 8649 0
-8650 8649 0
8651 -8649 -7311 0
-8651 8649 0
-8651 7311 0
8652 -7311 -7311 -8653 0
-8652 7311 0
-8652 7311 0
-8652 8653 0
-4956 7312 8648 8650 8651 8652 0
4956 -7312 0
4956 -8648 0
4956 -8650 0
4956 -8651 0
4956 -8652 0
8654 -7311 -8655 0
-8654 7311 0
-8654 8655 0
8656 -8649 -8655 0
-8656 8649 0
-8656 8655 0
8657 -8649 -7314 0
-8657 8649 0
-8657 7314 0
8658 -7311 -7314 -8653 0
-8658 7311 0
-8658 7314 0
-8658 8653 0
-4952 7315 8654 8656 8657 8658 0
4952 -7315 0
4952 -8654 0
4952 -8656 0
4952 -8657 0
4952 -8658 0
8659 -7311 -8660 0
-8659 7311 0
-8659 8660 0
8661 -8649 -7317 0
-8661 8649 0
-8661 7317 0
8662 -8649 -8660 0
-8662 8649 0
-8662 8660 0
8663 -7311 -7317 -8653 0
-8663 7311 0
-8663 7317 0
-8663 8653 0
-4970 7318 8659 8661 8662 8663 0
4970 -7318 0
4970 -8659 0
4970 -8661 0
4970 -8662 0
4970 -8663 0
8664 -7320 -8660 0
-8664 7320 0
-8664 8660 0
8665 -8666 -8660 0
-8665 8666 0
-8665 8660 0
8667 -8666 -7317 0
-8667 8666 0
-8667 7317 0
8668 -7320 -7317 -8653 0
-8668 7320 0
-8668 7317 0
-8668 8653 0
-2298 7321 8664 8665 8667 8668 0
2298 -7321 0
2298 -8664 0
2298 -8665 0
2298 -8667 0
2298 -8668 0
8669 -7311 -8670 0
-8669 7311 0
-8669 8670 0
8671 -8649 -8670 0
-8671 8649 0
-8671 8670 0
8672 -8649 -7323 0
-8672 8649 0
-8672 7323 0
8673 -7311 -7323 -8653 0
-8673 7311 0
-8673 7323 0
-8673 8653 0
-4959 7324 8669 8671 8672 8673 0
4959 -7324 0
4959 -8669 0
4959 -8671 0
4959 -8672 0
4959 -8673 0
8674 -7311 -8675 0
-8674 7311 0
-8674 8675 0
8676 -8649 -7326 0
-8676 8649 0
-8676 7326 0
8677 -8649 -8675 0
-8677 8649 0
-8677 8675 0
8678 -7311 -7326 -8653 0
-8678 7311 0
-8678 7326 0
-8678 8653 0
-4964 7327 8674 8676 8677 8678 0
4964 -7327 0
4964 -8674 0
4964 -8676 0
4964 -8677 0
4964 -8678 0
8679 -7320 -8675 0
-8679 7320 0
-8679 8675 0
8680 -8666 -8675 0
-8680 8666 0
-8680 8675 0
8681 -8666 -7326 0
-8681 8666 0
-8681 7326 0
8682 -7320 -7326 -8653 0
-8682 7320 0
-8682 7326 0
-8682 8653 0
-2295 7329 8679 8680 8681 8682 0
2295 -7329 0
2295 -8679 0
2295 -8680 0
2295 -8681 0
2295 -8682 0
8683 -7314 -8666 0
-8683 7314 0
-8683 8666 0
8684 -8655 -7320 0
-8684 8655 0
-8684 7320 0
8685 -8655 -8666 0
-8685 8655 0
-8685 8666 0
8686 -7314 -7320 -8653 0
-8686 7314 0
-8686 7320 0
-8686 8653 0
-2288 7331 8683 8684 8685 8686 0
2288 -7331 0
2288 -8683 0
2288 -8684 0
2288 -8685 0
2288 -8686 0
8687 -7314 -8655 0
-8687 7314 0
-8687 8655 0
8688 -8655 -8655 0
-8688 8655 0
-8688 8655 0
8689 -8655 -7314 0
-8689 8655 0
-8689 7314 0
8690 -7314 -7314 -8653 0
-8690 7314 0
-8690 7314 0
-8690 8653 0
-2290 7333 8687 8688 8689 8690 0
2290 -7333 0
2290 -8687 0
2290 -8688 0
2290 -8689 0
2290 -8690 0
8691 -7314 -8670 0
-8691 7314 0
-8691 8670 0
8692 -8655 -8670 0
-8692 8655 0
-8692 8670 0
8693 -8655 -7323 0
-8693 8655 0
-8693 7323 0
8694 -7314 -7323 -8653 0
-8694 7314 0
-8694 7323 0
-8694 8653 0
-2293 7335 8691 8692 8693 8694 0
2293 -7335 0
2293 -8691 0
2293 -8692 0
2293 -8693 0
2293 -8694 0
8695 -7314 -8675 0
-8695 7314 0
-8695 8675 0
8696 -8655 -7326 0
-8696 8655 0
-8696 7326 0
8697 -8655 -8675 0
-8697 8655 0
-8697 8675 0
8698 -7314 -7326 -8653 0
-8698 7314 0
-8698 7326 0
-8698 8653 0
-2296 7337 8695 8696 8697 8698 0
2296 -7337 0
2296 -8695 0
2296 -8696 0
2296 -8697 0
2296 -8698 0
8699 -7317 -8675 0
-8699 7317 0
-8699 8675 0
8700 -8660 -8675 0
-8700 8660 0
-8700 8675 0
8701 -8660 -7326 0
-8701 8660 0
-8701 7326 0
8702 -7317 -7326 -8653 0
-8702 7317 0
-8702 7326 0
-8702 8653 0
-2299 7339 8699 8700 8701 8702 0
2299 -7339 0
2299 -8699 0
2299 -8700 0
2299 -8701 0
2299 -8702 0
8703 -7323 -8666 0
-8703 7323 0
-8703 8666 0
8704 -8670 -7320 0
-8704 8670 0
-8704 7320 0
8705 -8670 -8666 0
-8705 8670 0
-8705 8666 0
8706 -7323 -7320 -8653 0
-8706 7323 0
-8706 7320 0
-8706 8653 0
-2292 7341 8703 8704 8705 8706 0
2292 -7341 0
2292 -8703 0
2292 -8704 0
2292 -8705 0
2292 -8706 0
8707 -7323 -8660 0
-8707 7323 0
-8707 8660 0
8708 -8670 -7317 0
-8708 8670 0
-8708 7317 0
8709 -8670 -8660 0
-8709 8670 0
-8709 8660 0
8710 -7323 -7317 -8653 0
-8710 7323 0
-8710 7317 0
-8710 8653 0
-2301 7343 8707 8708 8709 8710 0
2301 -7343 0
2301 -8707 0
2301 -8708 0
2301 -8709 0
2301 -8710 0
8711 -7323 -8670 0
-8711 7323 0
-8711 8670 0
8712 -8670 -8670 0
-8712 8670 0
-8712 8670 0
8713 -8670 -7323 0
-8713 8670 0
-8713 7323 0
8714 -7323 -7323 -8653 0
-8714 7323 0
-8714 7323 0
-8714 8653 0
-2304 7345 8711 8712 8713 8714 0
2304 -7345 0
2304 -8711 0
2304 -8712 0
2304 -8713 0
2304 -8714 0
8715 -6620 -6620 0
-8715 6620 0
-8715 6620 0
-1705 6585 8715 0
1705 -6585 0
1705 -8715 0
8716 -6620 -6645 0
-8716 6620 0
-8716 6645 0
-2347 6592 8716 0
2347 -6592 0
2347 -8716 0
8717 -6620 -6650 0
-8717 6620 0
-8717 6650 0
-1703 6599 8717 0
1703 -6599 0
1703 -8717 0
8718 -6625 -6650 0
-8718 6625 0
-8718 6650 0
-1713 6606 8718 0
1713 -6606 0
1713 -8718 0
8719 -6620 -6615 0
-8719 6620 0
-8719 6615 0
-1708 6580 8719 0
1708 -6580 0
1708 -8719 0
8720 -6620 -6617 0
-8720 6620 0
-8720 6617 0
-1711 6579 8720 0
1711 -6579 0
1711 -8720 0
8721 -6625 -6617 0
-8721 6625 0
-8721 6617 0
-1714 6601 8721 0
1714 -6601 0
1714 -8721 0
8722 -6645 -6625 0
-8722 6645 0
-8722 6625 0
-2360 6630 8722 0
2360 -6630 0
2360 -8722 0
8723 -6645 -6645 0
-8723 6645 0
-8723 6645 0
-2366 6635 8723 0
2366 -6635 0
2366 -8723 0
8724 -6645 -6615 0
-8724 6645 0
-8724 6615 0
-2342 6587 8724 0
2342 -6587 0
2342 -8724 0
8725 -6645 -6617 0
-8725 6645 0
-8725 6617 0
-2345 6590 8725 0
2345 -6590 0
2345 -8725 0
8726 -6650 -6617 0
-8726 6650 0
-8726 6617 0
-1710 6596 8726 0
1710 -6596 0
1710 -8726 0
8727 -6615 -6625 0
-8727 6615 0
-8727 6625 0
-1716 6603 8727 0
1716 -6603 0
1716 -8727 0
8728 -6615 -6650 0
-8728 6615 0
-8728 6650 0
-1707 6594 8728 0
1707 -6594 0
1707 -8728 0
8729 -6615 -6615 0
-8729 6615 0
-8729 6615 0
-1719 6584 8729 0
1719 -6584 0
1719 -8729 0
8730 -8731 -8731 0
-8730 8731 0
-8730 8731 0
-2625 8732 8730 0
2625 -8732 0
2625 -8730 0
8733 -8731 -8734 0
-8733 8731 0
-8733 8734 0
-2621 8735 8733 0
2621 -8735 0
2621 -8733 0
8736 -8731 -8737 0
-8736 8731 0
-8736 8737 0
-2639 8738 8736 0
2639 -8738 0
2639 -8736 0
8739 -8740 -8737 0
-8739 8740 0
-8739 8737 0
-1269 8741 8739 0
1269 -8741 0
1269 -8739 0
8742 -8731 -8743 0
-8742 8731 0
-8742 8743 0
-2628 8744 8742 0
2628 -8744 0
2628 -8742 0
8745 -8731 -8746 0
-8745 8731 0
-8745 8746 0
-2633 8747 8745 0
2633 -8747 0
2633 -8745 0
8748 -8740 -8746 0
-8748 8740 0
-8748 8746 0
-1266 8749 8748 0
1266 -8749 0
1266 -8748 0
8750 -8734 -8740 0
-8750 8734 0
-8750 8740 0
-1259 8751 8750 0
1259 -8751 0
1259 -8750 0
8752 -8734 -8734 0
-8752 8734 0
-8752 8734 0
-1261 8753 8752 0
1261 -8753 0
1261 -8752 0
8754 -8734 -8743 0
-8754 8734 0
-8754 8743 0
-1264 8755 8754 0
1264 -8755 0
1264 -8754 0
8756 -8734 -8746 0
-8756 8734 0
-8756 8746 0
-1267 8757 8756 0
1267 -8757 0
1267 -8756 0
8758 -8737 -8746 0
-8758 8737 0
-8758 8746 0
-1270 8759 8758 0
1270 -8759 0
1270 -8758 0
8760 -8743 -8740 0
-8760 8743 0
-8760 8740 0
-1263 8761 8760 0
1263 -8761 0
1263 -8760 0
8762 -8743 -8737 0
-8762 8743 0
-8762 8737 0
-1272 8763 8762 0
1272 -8763 0
1272 -8762 0
8764 -8743 -8743 0
-8764 8743 0
-8764 8743 0
-1275 8765 8764 0
1275 -8765 0
1275 -8764 0
8766 -6989 -8767 0
-8766 6989 0
-8766 8767 0
8768 -8767 -8767 0
-8768 8767 0
-8768 8767 0
8769 -8767 -6989 0
-8769 8767 0
-8769 6989 0
8770 -6989 -6989 -8771 0
-8770 6989 0
-8770 6989 0
-8770 8771 0
-3246 6990 8766 8768 8769 8770 0
3246 -6990 0
3246 -8766 0
3246 -8768 0
3246 -8769 0
3246 -8770 0
8772 -6989 -8773 0
-8772 6989 0
-8772 8773 0
8774 -8767 -8773 0
-8774 8767 0
-8774 8773 0
8775 -8767 -6992 0
-8775 8767 0
-8775 6992 0
8776 -6989 -6992 -8771 0
-8776 6989 0
-8776 6992 0
-8776 8771 0
-3242 6993 8772 8774 8775 8776 0
3242 -6993 0
3242 -8772 0
3242 -8774 0
3242 -8775 0
3242 -8776 0
8777 -6989 -8778 0
-8777 6989 0
-8777 8778 0
8779 -8767 -6995 0
-8779 8767 0
-8779 6995 0
8780 -8767 -8778 0
-8780 8767 0
-8780 8778 0
8781 -6989 -6995 -8771 0
-8781 6989 0
-8781 6995 0
-8781 8771 0
-3266 6996 8777 8779 8780 8781 0
3266 -6996 0
3266 -8777 0
3266 -8779 0
3266 -8780 0
3266 -8781 0
8782 -6998 -8778 0
-8782 6998 0
-8782 8778 0
8783 -8784 -8778 0
-8783 8784 0
-8783 8778 0
8785 -8784 -6995 0
-8785 8784 0
-8785 6995 0
8786 -6998 -6995 -8771 0
-8786 6998 0
-8786 6995 0
-8786 8771 0
-3264 6999 8782 8783 8785 8786 0
3264 -6999 0
3264 -8782 0
3264 -8783 0
3264 -8785 0
3264 -8786 0
8787 -6989 -8788 0
-8787 6989 0
-8787 8788 0
8789 -8767 -8788 0
-8789 8767 0
-8789 8788 0
8790 -8767 -7001 0
-8790 8767 0
-8790 7001 0
8791 -6989 -7001 -8771 0
-8791 6989 0
-8791 7001 0
-8791 8771 0
-3250 7002 8787 8789 8790 8791 0
3250 -7002 0
3250 -8787 0
3250 -8789 0
3250 -8790 0
3250 -8791 0
8792 -6989 -8793 0
-8792 6989 0
-8792 8793 0
8794 -8767 -7004 0
-8794 8767 0
-8794 7004 0
8795 -8767 -8793 0
-8795 8767 0
-8795 8793 0
8796 -6989 -7004 -8771 0
-8796 6989 0
-8796 7004 0
-8796 8771 0
-3257 7005 8792 8794 8795 8796 0
3257 -7005 0
3257 -8792 0
3257 -8794 0
3257 -8795 0
3257 -8796 0
8797 -6998 -8793 0
-8797 6998 0
-8797 8793 0
8798 -8784 -8793 0
-8798 8784 0
-8798 8793 0
8799 -8784 -7004 0
-8799 8784 0
-8799 7004 0
8800 -6998 -7004 -8771 0
-8800 6998 0
-8800 7004 0
-8800 8771 0
-3259 7007 8797 8798 8799 8800 0
3259 -7007 0
3259 -8797 0
3259 -8798 0
3259 -8799 0
3259 -8800 0
8801 -6992 -8784 0
-8801 6992 0
-8801 8784 0
8802 -8773 -6998 0
-8802 8773 0
-8802 6998 0
8803 -8773 -8784 0
-8803 8773 0
-8803 8784 0
8804 -6992 -6998 -8771 0
-8804 6992 0
-8804 6998 0
-8804 8771 0
-3241 7009 8801 8802 8803 8804 0
3241 -7009 0
3241 -8801 0
3241 -8802 0
3241 -8803 0
3241 -8804 0
8805 -6992 -8773 0
-8805 6992 0
-8805 8773 0
8806 -8773 -8773 0
-8806 8773 0
-8806 8773 0
8807 -8773 -6992 0
-8807 8773 0
-8807 6992 0
8808 -6992 -6992 -8771 0
-8808 6992 0
-8808 6992 0
-8808 8771 0
-3248 7011 8805 8806 8807 8808 0
3248 -7011 0
3248 -8805 0
3248 -8806 0
3248 -8807 0
3248 -8808 0
8809 -6992 -8788 0
-8809 6992 0
-8809 8788 0
8810 -8773 -8788 0
-8810 8773 0
-8810 8788 0
8811 -8773 -7001 0
-8811 8773 0
-8811 7001 0
8812 -6992 -7001 -8771 0
-8812 6992 0
-8812 7001 0
-8812 8771 0
-3255 7013 8809 8810 8811 8812 0
3255 -7013 0
3255 -8809 0
3255 -8810 0
3255 -8811 0
3255 -8812 0
8813 -6992 -8793 0
-8813 6992 0
-8813 8793 0
8814 -8773 -7004 0
-8814 8773 0
-8814 7004 0
8815 -8773 -8793 0
-8815 8773 0
-8815 8793 0
8816 -6992 -7004 -8771 0
-8816 6992 0
-8816 7004 0
-8816 8771 0
-3262 7015 8813 8814 8815 8816 0
3262 -7015 0
3262 -8813 0
3262 -8814 0
3262 -8815 0
3262 -8816 0
8817 -6995 -8793 0
-8817 6995 0
-8817 8793 0
8818 -8778 -8793 0
-8818 8778 0
-8818 8793 0
8819 -8778 -7004 0
-8819 8778 0
-8819 7004 0
8820 -6995 -7004 -8771 0
-8820 6995 0
-8820 7004 0
-8820 8771 0
-3269 7017 8817 8818 8819 8820 0
3269 -7017 0
3269 -8817 0
3269 -8818 0
3269 -8819 0
3269 -8820 0
8821 -7001 -8784 0
-8821 7001 0
-8821 8784 0
8822 -8788 -6998 0
-8822 8788 0
-8822 6998 0
8823 -8788 -8784 0
-8823 8788 0
-8823 8784 0
8824 -7001 -6998 -8771 0
-8824 7001 0
-8824 6998 0
-8824 8771 0
-3253 7019 8821 8822 8823 8824 0
3253 -7019 0
3253 -8821 0
3253 -8822 0
3253 -8823 0
3253 -8824 0
8825 -7001 -8778 0
-8825 7001 0
-8825 8778 0
8826 -8788 -6995 0
-8826 8788 0
-8826 6995 0
8827 -8788 -8778 0
-8827 8788 0
-8827 8778 0
8828 -7001 -6995 -8771 0
-8828 7001 0
-8828 6995 0
-8828 8771 0
-3274 7021 8825 8826 8827 8828 0
3274 -7021 0
3274 -8825 0
3274 -8826 0
3274 -8827 0
3274 -8828 0
8829 -7001 -8788 0
-8829 7001 0
-8829 8788 0
8830 -8788 -8788 0
-8830 8788 0
-8830 8788 0
8831 -8788 -7001 0
-8831 8788 0
-8831 7001 0
8832 -7001 -7001 -8771 0
-8832 7001 0
-8832 7001 0
-8832 8771 0
-3280 7023 8829 8830 8831 8832 0
3280 -7023 0
3280 -8829 0
3280 -8830 0
3280 -8831 0
3280 -8832 0
8833 -7574 -8834 0
-8833 7574 0
-8833 8834 0
8835 -8834 -8834 0
-8835 8834 0
-8835 8834 0
8836 -8834 -7574 0
-8836 8834 0
-8836 7574 0
8837 -7574 -7574 -8838 0
-8837 7574 0
-8837 7574 0
-8837 8838 0
-4827 7575 8833 8835 8836 8837 0
4827 -7575 0
4827 -8833 0
4827 -8835 0
4827 -8836 0
4827 -8837 0
8839 -7574 -8840 0
-8839 7574 0
-8839 8840 0
8841 -8834 -8840 0
-8841 8834 0
-8841 8840 0
8842 -8834 -7577 0
-8842 8834 0
-8842 7577 0
8843 -7574 -7577 -8838 0
-8843 7574 0
-8843 7577 0
-8843 8838 0
-4823 7578 8839 8841 8842 8843 0
4823 -7578 0
4823 -8839 0
4823 -8841 0
4823 -8842 0
4823 -8843 0
8844 -7574 -8845 0
-8844 7574 0
-8844 8845 0
8846 -8834 -7580 0
-8846 8834 0
-8846 7580 0
8847 -8834 -8845 0
-8847 8834 0
-8847 8845 0
8848 -7574 -7580 -8838 0
-8848 7574 0
-8848 7580 0
-8848 8838 0
-4841 7581 8844 8846 8847 8848 0
4841 -7581 0
4841 -8844 0
4841 -8846 0
4841 -8847 0
4841 -8848 0
8849 -7583 -8845 0
-8849 7583 0
-8849 8845 0
8850 -8851 -8845 0
-8850 8851 0
-8850 8845 0
8852 -8851 -7580 0
-8852 8851 0
-8852 7580 0
8853 -7583 -7580 -8838 0
-8853 7583 0
-8853 7580 0
-8853 8838 0
-3488 7584 8849 8850 8852 8853 0
3488 -7584 0
3488 -8849 0
3488 -8850 0
3488 -8852 0
3488 -8853 0
8854 -7574 -8855 0
-8854 7574 0
-8854 8855 0
8856 -8834 -8855 0
-8856 8834 0
-8856 8855 0
8857 -8834 -7586 0
-8857 8834 0
-8857 7586 0
8858 -7574 -7586 -8838 0
-8858 7574 0
-8858 7586 0
-8858 8838 0
-4830 7587 8854 8856 8857 8858 0
4830 -7587 0
4830 -8854 0
4830 -8856 0
4830 -8857 0
4830 -8858 0
8859 -7574 -8860 0
-8859 7574 0
-8859 8860 0
8861 -8834 -7589 0
-8861 8834 0
-8861 7589 0
8862 -8834 -8860 0
-8862 8834 0
-8862 8860 0
8863 -7574 -7589 -8838 0
-8863 7574 0
-8863 7589 0
-8863 8838 0
-4835 7590 8859 8861 8862 8863 0
4835 -7590 0
4835 -8859 0
4835 -8861 0
4835 -8862 0
4835 -8863 0
8864 -7583 -8860 0
-8864 7583 0
-8864 8860 0
8865 -8851 -8860 0
-8865 8851 0
-8865 8860 0
8866 -8851 -7589 0
-8866 8851 0
-8866 7589 0
8867 -7583 -7589 -8838 0
-8867 7583 0
-8867 7589 0
-8867 8838 0
-3485 7592 8864 8865 8866 8867 0
3485 -7592 0
3485 -8864 0
3485 -8865 0
3485 -8866 0
3485 -8867 0
8868 -7577 -8851 0
-8868 7577 0
-8868 8851 0
8869 -8840 -7583 0
-8869 8840 0
-8869 7583 0
8870 -8840 -8851 0
-8870 8840 0
-8870 8851 0
8871 -7577 -7583 -8838 0
-8871 7577 0
-8871 7583 0
-8871 8838 0
-3478 7594 8868 8869 8870 8871 0
3478 -7594 0
3478 -8868 0
3478 -8869 0
3478 -8870 0
3478 -8871 0
8872 -7577 -8840 0
-8872 7577 0
-8872 8840 0
8873 -8840 -8840 0
-8873 8840 0
-8873 8840 0
8874 -8840 -7577 0
-8874 8840 0
-8874 7577 0
8875 -7577 -7577 -8838 0
-8875 7577 0
-8875 7577 0
-8875 8838 0
-3480 7596 8872 8873 8874 8875 0
3480 -7596 0
3480 -8872 0
3480 -8873 0
3480 -8874 0
3480 -8875 0
8876 -7577 -8855 0
-8876 7577 0
-8876 8855 0
8877 -8840 -8855 0
-8877 8840 0
-8877 8855 0
8878 -8840 -7586 0
-8878 8840 0
-8878 7586 0
8879 -7577 -7586 -8838 0
-8879 7577 0
-8879 7586 0
-8879 8838 0
-3483 7598 8876 8877 8878 8879 0
3483 -7598 0
3483 -8876 0
3483 -8877 0
3483 -8878 0
3483 -8879 0
8880 -7577 -8860 0
-8880 7577 0
-8880 8860 0
8881 -8840 -7589 0
-8881 8840 0
-8881 7589 0
8882 -8840 -8860 0
-8882 8840 0
-8882 8860 0
8883 -7577 -7589 -8838 0
-8883 7577 0
-8883 7589 0
-8883 8838 0
-3486 7600 8880 8881 8882 8883 0
3486 -7600 0
3486 -8880 0
3486 -8881 0
3486 -8882 0
3486 -8883 0
8884 -7580 -8860 0
-8884 7580 0
-8884 8860 0
8885 -8845 -8860 0
-8885 8845 0
-8885 8860 0
8886 -8845 -7589 0
-8886 8845 0
-8886 7589 0
8887 -7580 -7589 -8838 0
-8887 7580 0
-8887 7589 0
-8887 8838 0
-3489 7602 8884 8885 8886 8887 0
3489 -7602 0
3489 -8884 0
3489 -8885 0
3489 -8886 0
3489 -8887 0
8888 -7586 -8851 0
-8888 7586 0
-8888 8851 0
8889 -8855 -7583 0
-8889 8855 0
-8889 7583 0
8890 -8855 -8851 0
-8890 8855 0
-8890 8851 0
8891 -7586 -7583 -8838 0
-8891 7586 0
-8891 7583 0
-8891 8838 0
-3482 7604 8888 8889 8890 8891 0
3482 -7604 0
3482 -8888 0
3482 -8889 0
3482 -8890 0
3482 -8891 0
8892 -7586 -8845 0
-8892 7586 0
-8892 8845 0
8893 -8855 -7580 0
-8893 8855 0
-8893 7580 0
8894 -8855 -8845 0
-8894 8855 0
-8894 8845 0
8895 -7586 -7580 -8838 0
-8895 7586 0
-8895 7580 0
-8895 8838 0
-3491 7606 8892 8893 8894 8895 0
3491 -7606 0
3491 -8892 0
3491 -8893 0
3491 -8894 0
3491 -8895 0
8896 -7586 -8855 0
-8896 7586 0
-8896 8855 0
8897 -8855 -8855 0
-8897 8855 0
-8897 8855 0
8898 -8855 -7586 0
-8898 8855 0
-8898 7586 0
8899 -7586 -7586 -8838 0
-8899 7586 0
-8899 7586 0
-8899 8838 0
-3494 7608 8896 8897 8898 8899 0
3494 -7608 0
3494 -8896 0
3494 -8897 0
3494 -8898 0
3494 -8899 0
8900 -6599 -6592 0
-8900 6599 0
-8900 6592 0
8901 -6592 -6592 0
-8901 6592 0
-8901 6592 0
8902 -6592 -6599 0
-8902 6592 0
-8902 6599 0
8903 -6599 -6599 -6635 0
-8903 6599 0
-8903 6599 0
-8903 6635 0
-4001 6585 8900 8901 8902 8903 0
4001 -6585 0
4001 -8900 0
4001 -8901 0
4001 -8902 0
4001 -8903 0
8904 -6599 -6587 0
-8904 6599 0
-8904 6587 0
8905 -6592 -6587 0
-8905 6592 0
-8905 6587 0
8906 -6592 -6594 0
-8906 6592 0
-8906 6594 0
8907 -6599 -6594 -6635 0
-8907 6599 0
-8907 6594 0
-8907 6635 0
-3997 6580 8904 8905 8906 8907 0
3997 -6580 0
3997 -8904 0
3997 -8905 0
3997 -8906 0
3997 -8907 0
8908 -6599 -6590 0
-8908 6599 0
-8908 6590 0
8909 -6592 -6596 0
-8909 6592 0
-8909 6596 0
8910 -6592 -6590 0
-8910 6592 0
-8910 6590 0
8911 -6599 -6596 -6635 0
-8911 6599 0
-8911 6596 0
-8911 6635 0
-4021 6579 8908 8909 8910 8911 0
4021 -6579 0
4021 -8908 0
4021 -8909 0
4021 -8910 0
4021 -8911 0
8912 -6606 -6590 0
-8912 6606 0
-8912 6590 0
8913 -6630 -6590 0
-8913 6630 0
-8913 6590 0
8914 -6630 -6596 0
-8914 6630 0
-8914 6596 0
8915 -6606 -6596 -6635 0
-8915 6606 0
-8915 6596 0
-8915 6635 0
-4019 6601 8912 8913 8914 8915 0
4019 -6601 0
4019 -8912 0
4019 -8913 0
4019 -8914 0
4019 -8915 0
8916 -6599 -6640 0
-8916 6599 0
-8916 6640 0
8917 -6592 -6640 0
-8917 6592 0
-8917 6640 0
8918 -6592 -6660 0
-8918 6592 0
-8918 6660 0
8919 -6599 -6660 -6635 0
-8919 6599 0
-8919 6660 0
-8919 6635 0
-4005 6613 8916 8917 8918 8919 0
4005 -6613 0
4005 -8916 0
4005 -8917 0
4005 -8918 0
4005 -8919 0
8920 -6599 -6645 0
-8920 6599 0
-8920 6645 0
8921 -6592 -6650 0
-8921 6592 0
-8921 6650 0
8922 -6592 -6645 0
-8922 6592 0
-8922 6645 0
8923 -6599 -6650 -6635 0
-8923 6599 0
-8923 6650 0
-8923 6635 0
-4012 6620 8920 8921 8922 8923 0
4012 -6620 0
4012 -8920 0
4012 -8921 0
4012 -8922 0
4012 -8923 0
8924 -6606 -6645 0
-8924 6606 0
-8924 6645 0
8925 -6630 -6645 0
-8925 6630 0
-8925 6645 0
8926 -6630 -6650 0
-8926 6630 0
-8926 6650 0
8927 -6606 -6650 -6635 0
-8927 6606 0
-8927 6650 0
-8927 6635 0
-4014 6625 8924 8925 8926 8927 0
4014 -6625 0
4014 -8924 0
4014 -8925 0
4014 -8926 0
4014 -8927 0
8928 -6594 -6630 0
-8928 6594 0
-8928 6630 0
8929 -6587 -6606 0
-8929 6587 0
-8929 6606 0
8930 -6587 -6630 0
-8930 6587 0
-8930 6630 0
8931 -6594 -6606 -6635 0
-8931 6594 0
-8931 6606 0
-8931 6635 0
-3996 6603 8928 8929 8930 8931 0
3996 -6603 0
3996 -8928 0
3996 -8929 0
3996 -8930 0
3996 -8931 0
8932 -6594 -6587 0
-8932 6594 0
-8932 6587 0
6632 -6587 -6587 0
-6632 6587 0
-6632 6587 0
8933 -6587 -6594 0
-8933 6587 0
-8933 6594 0
8934 -6594 -6594 -6635 0
-8934 6594 0
-8934 6594 0
-8934 6635 0
-4003 6584 8932 6632 8933 8934 0
4003 -6584 0
4003 -8932 0
4003 -6632 0
4003 -8933 0
4003 -8934 0
8935 -6594 -6640 0
-8935 6594 0
-8935 6640 0
8936 -6587 -6640 0
-8936 6587 0
-8936 6640 0
8937 -6587 -6660 0
-8937 6587 0
-8937 6660 0
8938 -6594 -6660 -6635 0
-8938 6594 0
-8938 6660 0
-8938 6635 0
-4010 6608 8935 8936 8937 8938 0
4010 -6608 0
4010 -8935 0
4010 -8936 0
4010 -8937 0
4010 -8938 0
8939 -6594 -6645 0
-8939 6594 0
-8939 6645 0
8940 -6587 -6650 0
-8940 6587 0
-8940 6650 0
8941 -6587 -6645 0
-8941 6587 0
-8941 6645 0
8942 -6594 -6650 -6635 0
-8942 6594 0
-8942 6650 0
-8942 6635 0
-4017 6615 8939 8940 8941 8942 0
4017 -6615 0
4017 -8939 0
4017 -8940 0
4017 -8941 0
4017 -8942 0
8943 -6596 -6645 0
-8943 6596 0
-8943 6645 0
8944 -6590 -6645 0
-8944 6590 0
-8944 6645 0
8945 -6590 -6650 0
-8945 6590 0
-8945 6650 0
8946 -6596 -6650 -6635 0
-8946 6596 0
-8946 6650 0
-8946 6635 0
-4024 6617 8943 8944 8945 8946 0
4024 -6617 0
4024 -8943 0
4024 -8944 0
4024 -8945 0
4024 -8946 0
8947 -6660 -6630 0
-8947 6660 0
-8947 6630 0
8948 -6640 -6606 0
-8948 6640 0
-8948 6606 0
8949 -6640 -6630 0
-8949 6640 0
-8949 6630 0
8950 -6660 -6606 -6635 0
-8950 6660 0
-8950 6606 0
-8950 6635 0
-4008 6655 8947 8948 8949 8950 0
4008 -6655 0
4008 -8947 0
4008 -8948 0
4008 -8949 0
4008 -8950 0
8951 -6660 -6590 0
-8951 6660 0
-8951 6590 0
8952 -6640 -6596 0
-8952 6640 0
-8952 6596 0
8953 -6640 -6590 0
-8953 6640 0
-8953 6590 0
8954 -6660 -6596 -6635 0
-8954 6660 0
-8954 6596 0
-8954 6635 0
-4029 6611 8951 8952 8953 8954 0
4029 -6611 0
4029 -8951 0
4029 -8952 0
4029 -8953 0
4029 -8954 0
8955 -6660 -6640 0
-8955 6660 0
-8955 6640 0
6823 -6640 -6640 0
-6823 6640 0
-6823 6640 0
8956 -6640 -6660 0
-8956 6640 0
-8956 6660 0
8957 -6660 -6660 -6635 0
-8957 6660 0
-8957 6660 0
-8957 6635 0
-4035 6665 8955 6823 8956 8957 0
4035 -6665 0
4035 -8955 0
4035 -6823 0
4035 -8956 0
4035 -8957 0
8958 -6872 -6869 0
-8958 6872 0
-8958 6869 0
8959 -6869 -6869 0
-8959 6869 0
-8959 6869 0
8960 -6869 -6872 0
-8960 6869 0
-8960 6872 0
8961 -6872 -6872 -6887 0
-8961 6872 0
-8961 6872 0
-8961 6887 0
-5778 6866 8958 8959 8960 8961 0
5778 -6866 0
5778 -8958 0
5778 -8959 0
5778 -8960 0
5778 -8961 0
8962 -6872 -8963 0
-8962 6872 0
-8962 8963 0
8964 -6869 -8963 0
-8964 6869 0
-8964 8963 0
8965 -6869 -8966 0
-8965 6869 0
-8965 8966 0
8967 -6872 -8966 -6887 0
-8967 6872 0
-8967 8966 0
-8967 6887 0
-5774 8968 8962 8964 8965 8967 0
5774 -8968 0
5774 -8962 0
5774 -8964 0
5774 -8965 0
5774 -8967 0
8969 -6872 -6868 0
-8969 6872 0
-8969 6868 0
8970 -6869 -6871 0
-8970 6869 0
-8970 6871 0
8971 -6869 -6868 0
-8971 6869 0
-8971 6868 0
8972 -6872 -6871 -6887 0
-8972 6872 0
-8972 6871 0
-8972 6887 0
-5792 6865 8969 8970 8971 8972 0
5792 -6865 0
5792 -8969 0
5792 -8970 0
5792 -8971 0
5792 -8972 0
8973 -6875 -6868 0
-8973 6875 0
-8973 6868 0
8974 -6885 -6868 0
-8974 6885 0
-8974 6868 0
8975 -6885 -6871 0
-8975 6885 0
-8975 6871 0
8976 -6875 -6871 -6887 0
-8976 6875 0
-8976 6871 0
-8976 6887 0
-2053 6874 8973 8974 8975 8976 0
2053 -6874 0
2053 -8973 0
2053 -8974 0
2053 -8975 0
2053 -8976 0
8977 -6872 -6889 0
-8977 6872 0
-8977 6889 0
8978 -6869 -6889 0
-8978 6869 0
-8978 6889 0
8979 -6869 -6897 0
-8979 6869 0
-8979 6897 0
8980 -6872 -6897 -6887 0
-8980 6872 0
-8980 6897 0
-8980 6887 0
-5781 6878 8977 8978 8979 8980 0
5781 -6878 0
5781 -8977 0
5781 -8978 0
5781 -8979 0
5781 -8980 0
8981 -6872 -6891 0
-8981 6872 0
-8981 6891 0
8982 -6869 -6893 0
-8982 6869 0
-8982 6893 0
8983 -6869 -6891 0
-8983 6869 0
-8983 6891 0
8984 -6872 -6893 -6887 0
-8984 6872 0
-8984 6893 0
-8984 6887 0
-5786 6881 8981 8982 8983 8984 0
5786 -6881 0
5786 -8981 0
5786 -8982 0
5786 -8983 0
5786 -8984 0
8985 -6875 -6891 0
-8985 6875 0
-8985 6891 0
8986 -6885 -6891 0
-8986 6885 0
-8986 6891 0
8987 -6885 -6893 0
-8987 6885 0
-8987 6893 0
8988 -6875 -6893 -6887 0
-8988 6875 0
-8988 6893 0
-8988 6887 0
-2050 6883 8985 8986 8987 8988 0
2050 -6883 0
2050 -8985 0
2050 -8986 0
2050 -8987 0
2050 -8988 0
8989 -8966 -6885 0
-8989 8966 0
-8989 6885 0
8990 -8963 -6875 0
-8990 8963 0
-8990 6875 0
8991 -8963 -6885 0
-8991 8963 0
-8991 6885 0
8992 -8966 -6875 -6887 0
-8992 8966 0
-8992 6875 0
-8992 6887 0
-2043 8993 8989 8990 8991 8992 0
2043 -8993 0
2043 -8989 0
2043 -8990 0
2043 -8991 0
2043 -8992 0
8994 -8966 -8963 0
-8994 8966 0
-8994 8963 0
8995 -8963 -8963 0
-8995 8963 0
-8995 8963 0
8996 -8963 -8966 0
-8996 8963 0
-8996 8966 0
8997 -8966 -8966 -6887 0
-8997 8966 0
-8997 8966 0
-8997 6887 0
-2045 8998 8994 8995 8996 8997 0
2045 -8998 0
2045 -8994 0
2045 -8995 0
2045 -8996 0
2045 -8997 0
8999 -8966 -6889 0
-8999 8966 0
-8999 6889 0
9000 -8963 -6889 0
-9000 8963 0
-9000 6889 0
9001 -8963 -6897 0
-9001 8963 0
-9001 6897 0
9002 -8966 -6897 -6887 0
-9002 8966 0
-9002 6897 0
-9002 6887 0
-2048 9003 8999 9000 9001 9002 0
2048 -9003 0
2048 -8999 0
2048 -9000 0
2048 -9001 0
2048 -9002 0
9004 -8966 -6891 0
-9004 8966 0
-9004 6891 0
9005 -8963 -6893 0
-9005 8963 0
-9005 6893 0
9006 -8963 -6891 0
-9006 8963 0
-9006 6891 0
9007 -8966 -6893 -6887 0
-9007 8966 0
-9007 6893 0
-9007 6887 0
-2051 9008 9004 9005 9006 9007 0
2051 -9008 0
2051 -9004 0
2051 -9005 0
2051 -9006 0
2051 -9007 0
9009 -6871 -6891 0
-9009 6871 0
-9009 6891 0
9010 -6868 -6891 0
-9010 6868 0
-9010 6891 0
9011 -6868 -6893 0
-9011 6868 0
-9011 6893 0
9012 -6871 -6893 -6887 0
-9012 6871 0
-9012 6893 0
-9012 6887 0
-2054 6880 9009 9010 9011 9012 0
2054 -6880 0
2054 -9009 0
2054 -9010 0
2054 -9011 0
2054 -9012 0
9013 -6897 -6885 0
-9013 6897 0
-9013 6885 0
9014 -6889 -6875 0
-9014 6889 0
-9014 6875 0
9015 -6889 -6885 0
-9015 6889 0
-9015 6885 0
9016 -6897 -6875 -6887 0
-9016 6897 0
-9016 6875 0
-9016 6887 0
-2047 6895 9013 9014 9015 9016 0
2047 -6895 0
2047 -9013 0
2047 -9014 0
2047 -9015 0
2047 -9016 0
9017 -6897 -6868 0
-9017 6897 0
-9017 6868 0
9018 -6889 -6871 0
-9018 6889 0
-9018 6871 0
9019 -6889 -6868 0
-9019 6889 0
-9019 6868 0
9020 -6897 -6871 -6887 0
-9020 6897 0
-9020 6871 0
-9020 6887 0
-2056 6877 9017 9018 9019 9020 0
2056 -6877 0
2056 -9017 0
2056 -9018 0
2056 -9019 0
2056 -9020 0
9021 -6897 -6889 0
-9021 6897 0
-9021 6889 0
9022 -6889 -6889 0
-9022 6889 0
-9022 6889 0
9023 -6889 -6897 0
-9023 6889 0
-9023 6897 0
9024 -6897 -6897 -6887 0
-9024 6897 0
-9024 6897 0
-9024 6887 0
-2059 6899 9021 9022 9023 9024 0
2059 -6899 0
2059 -9021 0
2059 -9022 0
2059 -9023 0
2059 -9024 0
9025 -7777 -7777 0
-9025 7777 0
-9025 7777 0
-2585 7763 9025 0
2585 -7763 0
2585 -9025 0
9026 -7777 -7772 0
-9026 7777 0
-9026 7772 0
-2581 7758 9026 0
2581 -7758 0
2581 -9026 0
9027 -7777 -7774 0
-9027 7777 0
-9027 7774 0
-2605 7757 9027 0
2605 -7757 0
2605 -9027 0
9028 -7784 -7774 0
-9028 7784 0
-9028 7774 0
-2603 7779 9028 0
2603 -7779 0
2603 -9028 0
9029 -7777 -7838 0
-9029 7777 0
-9029 7838 0
-2589 7791 9029 0
2589 -7791 0
2589 -9029 0
9030 -7777 -7828 0
-9030 7777 0
-9030 7828 0
-2596 7798 9030 0
2596 -7798 0
2596 -9030 0
9031 -7784 -7828 0
-9031 7784 0
-9031 7828 0
-2598 7803 9031 0
2598 -7803 0
2598 -9031 0
9032 -7772 -7784 0
-9032 7772 0
-9032 7784 0
-2580 7781 9032 0
2580 -7781 0
2580 -9032 0
9033 -7772 -7772 0
-9033 7772 0
-9033 7772 0
-2587 7762 9033 0
2587 -7762 0
2587 -9033 0
9034 -7772 -7838 0
-9034 7772 0
-9034 7838 0
-2594 7786 9034 0
2594 -7786 0
2594 -9034 0
9035 -7772 -7828 0
-9035 7772 0
-9035 7828 0
-2601 7793 9035 0
2601 -7793 0
2601 -9035 0
9036 -7774 -7828 0
-9036 7774 0
-9036 7828 0
-2608 7795 9036 0
2608 -7795 0
2608 -9036 0
9037 -7838 -7784 0
-9037 7838 0
-9037 7784 0
-2592 7833 9037 0
2592 -7833 0
2592 -9037 0
9038 -7838 -7774 0
-9038 7838 0
-9038 7774 0
-2613 7789 9038 0
2613 -7789 0
2613 -9038 0
9039 -7838 -7838 0
-9039 7838 0
-9039 7838 0
-2619 7843 9039 0
2619 -7843 0
2619 -9039 0
9040 -8416 -8409 0
-9040 8416 0
-9040 8409 0
9041 -8409 -8409 0
-9041 8409 0
-9041 8409 0
9042 -8409 -8416 0
-9042 8409 0
-9042 8416 0
9043 -8416 -8416 -8452 0
-9043 8416 0
-9043 8416 0
-9043 8452 0
-3960 8402 9040 9041 9042 9043 0
3960 -8402 0
3960 -9040 0
3960 -9041 0
3960 -9042 0
3960 -9043 0
9044 -8416 -8404 0
-9044 8416 0
-9044 8404 0
9045 -8409 -8404 0
-9045 8409 0
-9045 8404 0
9046 -8409 -8411 0
-9046 8409 0
-9046 8411 0
9047 -8416 -8411 -8452 0
-9047 8416 0
-9047 8411 0
-9047 8452 0
-3956 8397 9044 9045 9046 9047 0
3956 -8397 0
3956 -9044 0
3956 -9045 0
3956 -9046 0
3956 -9047 0
9048 -8416 -8407 0
-9048 8416 0
-9048 8407 0
9049 -8409 -8413 0
-9049 8409 0
-9049 8413 0
9050 -8409 -8407 0
-9050 8409 0
-9050 8407 0
9051 -8416 -8413 -8452 0
-9051 8416 0
-9051 8413 0
-9051 8452 0
-3980 8396 9048 9049 9050 9051 0
3980 -8396 0
3980 -9048 0
3980 -9049 0
3980 -9050 0
3980 -9051 0
9052 -8423 -8407 0
-9052 8423 0
-9052 8407 0
9053 -8447 -8407 0
-9053 8447 0
-9053 8407 0
9054 -8447 -8413 0
-9054 8447 0
-9054 8413 0
9055 -8423 -8413 -8452 0
-9055 8423 0
-9055 8413 0
-9055 8452 0
-3978 8418 9052 9053 9054 9055 0
3978 -8418 0
3978 -9052 0
3978 -9053 0
3978 -9054 0
3978 -9055 0
9056 -8416 -8457 0
-9056 8416 0
-9056 8457 0
9057 -8409 -8457 0
-9057 8409 0
-9057 8457 0
9058 -8409 -8477 0
-9058 8409 0
-9058 8477 0
9059 -8416 -8477 -8452 0
-9059 8416 0
-9059 8477 0
-9059 8452 0
-3964 8430 9056 9057 9058 9059 0
3964 -8430 0
3964 -9056 0
3964 -9057 0
3964 -9058 0
3964 -9059 0
9060 -8416 -8462 0
-9060 8416 0
-9060 8462 0
9061 -8409 -8467 0
-9061 8409 0
-9061 8467 0
9062 -8409 -8462 0
-9062 8409 0
-9062 8462 0
9063 -8416 -8467 -8452 0
-9063 8416 0
-9063 8467 0
-9063 8452 0
-3971 8437 9060 9061 9062 9063 0
3971 -8437 0
3971 -9060 0
3971 -9061 0
3971 -9062 0
3971 -9063 0
9064 -8423 -8462 0
-9064 8423 0
-9064 8462 0
9065 -8447 -8462 0
-9065 8447 0
-9065 8462 0
9066 -8447 -8467 0
-9066 8447 0
-9066 8467 0
9067 -8423 -8467 -8452 0
-9067 8423 0
-9067 8467 0
-9067 8452 0
-3973 8442 9064 9065 9066 9067 0
3973 -8442 0
3973 -9064 0
3973 -9065 0
3973 -9066 0
3973 -9067 0
9068 -8411 -8447 0
-9068 8411 0
-9068 8447 0
9069 -8404 -8423 0
-9069 8404 0
-9069 8423 0
9070 -8404 -8447 0
-9070 8404 0
-9070 8447 0
9071 -8411 -8423 -8452 0
-9071 8411 0
-9071 8423 0
-9071 8452 0
-3955 8420 9068 9069 9070 9071 0
3955 -8420 0
3955 -9068 0
3955 -9069 0
3955 -9070 0
3955 -9071 0
9072 -8411 -8404 0
-9072 8411 0
-9072 8404 0
8449 -8404 -8404 0
-8449 8404 0
-8449 8404 0
9073 -8404 -8411 0
-9073 8404 0
-9073 8411 0
9074 -8411 -8411 -8452 0
-9074 8411 0
-9074 8411 0
-9074 8452 0
-3962 8401 9072 8449 9073 9074 0
3962 -8401 0
3962 -9072 0
3962 -8449 0
3962 -9073 0
3962 -9074 0
9075 -8411 -8457 0
-9075 8411 0
-9075 8457 0
9076 -8404 -8457 0
-9076 8404 0
-9076 8457 0
9077 -8404 -8477 0
-9077 8404 0
-9077 8477 0
9078 -8411 -8477 -8452 0
-9078 8411 0
-9078 8477 0
-9078 8452 0
-3969 8425 9075 9076 9077 9078 0
3969 -8425 0
3969 -9075 0
3969 -9076 0
3969 -9077 0
3969 -9078 0
9079 -8411 -8462 0
-9079 8411 0
-9079 8462 0
9080 -8404 -8467 0
-9080 8404 0
-9080 8467 0
9081 -8404 -8462 0
-9081 8404 0
-9081 8462 0
9082 -8411 -8467 -8452 0
-9082 8411 0
-9082 8467 0
-9082 8452 0
-3976 8432 9079 9080 9081 9082 0
3976 -8432 0
3976 -9079 0
3976 -9080 0
3976 -9081 0
3976 -9082 0
9083 -8413 -8462 0
-9083 8413 0
-9083 8462 0
9084 -8407 -8462 0
-9084 8407 0
-9084 8462 0
9085 -8407 -8467 0
-9085 8407 0
-9085 8467 0
9086 -8413 -8467 -8452 0
-9086 8413 0
-9086 8467 0
-9086 8452 0
-3983 8434 9083 9084 9085 9086 0
3983 -8434 0
3983 -9083 0
3983 -9084 0
3983 -9085 0
3983 -9086 0
9087 -8477 -8447 0
-9087 8477 0
-9087 8447 0
9088 -8457 -8423 0
-9088 8457 0
-9088 8423 0
9089 -8457 -8447 0
-9089 8457 0
-9089 8447 0
9090 -8477 -8423 -8452 0
-9090 8477 0
-9090 8423 0
-9090 8452 0
-3967 8472 9087 9088 9089 9090 0
3967 -8472 0
3967 -9087 0
3967 -9088 0
3967 -9089 0
3967 -9090 0
9091 -8477 -8407 0
-9091 8477 0
-9091 8407 0
9092 -8457 -8413 0
-9092 8457 0
-9092 8413 0
9093 -8457 -8407 0
-9093 8457 0
-9093 8407 0
9094 -8477 -8413 -8452 0
-9094 8477 0
-9094 8413 0
-9094 8452 0
-3988 8428 9091 9092 9093 9094 0
3988 -8428 0
3988 -9091 0
3988 -9092 0
3988 -9093 0
3988 -9094 0
9095 -8477 -8457 0
-9095 8477 0
-9095 8457 0
9096 -8457 -8457 0
-9096 8457 0
-9096 8457 0
9097 -8457 -8477 0
-9097 8457 0
-9097 8477 0
9098 -8477 -8477 -8452 0
-9098 8477 0
-9098 8477 0
-9098 8452 0
-3994 8482 9095 9096 9097 9098 0
3994 -8482 0
3994 -9095 0
3994 -9096 0
3994 -9097 0
3994 -9098 0
9099 -6872 -6872 0
-9099 6872 0
-9099 6872 0
-3287 6866 9099 0
3287 -6866 0
3287 -9099 0
9100 -6872 -8966 0
-9100 6872 0
-9100 8966 0
-3283 8968 9100 0
3283 -8968 0
3283 -9100 0
9101 -6872 -6871 0
-9101 6872 0
-9101 6871 0
-3307 6865 9101 0
3307 -6865 0
3307 -9101 0
9102 -6875 -6871 0
-9102 6875 0
-9102 6871 0
-3305 6874 9102 0
3305 -6874 0
3305 -9102 0
9103 -6872 -6897 0
-9103 6872 0
-9103 6897 0
-3291 6878 9103 0
3291 -6878 0
3291 -9103 0
9104 -6872 -6893 0
-9104 6872 0
-9104 6893 0
-3298 6881 9104 0
3298 -6881 0
3298 -9104 0
9105 -6875 -6893 0
-9105 6875 0
-9105 6893 0
-3300 6883 9105 0
3300 -6883 0
3300 -9105 0
9106 -8966 -6875 0
-9106 8966 0
-9106 6875 0
-3282 8993 9106 0
3282 -8993 0
3282 -9106 0
9107 -8966 -8966 0
-9107 8966 0
-9107 8966 0
-3289 8998 9107 0
3289 -8998 0
3289 -9107 0
9108 -8966 -6897 0
-9108 8966 0
-9108 6897 0
-3296 9003 9108 0
3296 -9003 0
3296 -9108 0
9109 -8966 -6893 0
-9109 8966 0
-9109 6893 0
-3303 9008 9109 0
3303 -9008 0
3303 -9109 0
9110 -6871 -6893 0
-9110 6871 0
-9110 6893 0
-3310 6880 9110 0
3310 -6880 0
3310 -9110 0
9111 -6897 -6875 0
-9111 6897 0
-9111 6875 0
-3294 6895 9111 0
3294 -6895 0
3294 -9111 0
9112 -6897 -6871 0
-9112 6897 0
-9112 6871 0
-3315 6877 9112 0
3315 -6877 0
3315 -9112 0
9113 -6897 -6897 0
-9113 6897 0
-9113 6897 0
-3321 6899 9113 0
3321 -6899 0
3321 -9113 0
9114 -6865 -8968 0
-9114 6865 0
-9114 8968 0
9115 -8968 -8968 0
-9115 8968 0
-9115 8968 0
9116 -8968 -6865 0
-9116 8968 0
-9116 6865 0
9117 -6865 -6865 -8998 0
-9117 6865 0
-9117 6865 0
-9117 8998 0
-2115 6866 9114 9115 9116 9117 0
2115 -6866 0
2115 -9114 0
2115 -9115 0
2115 -9116 0
2115 -9117 0
9118 -6865 -8963 0
-9118 6865 0
-9118 8963 0
9119 -8968 -8963 0
-9119 8968 0
-9119 8963 0
9120 -8968 -6868 0
-9120 8968 0
-9120 6868 0
9121 -6865 -6868 -8998 0
-9121 6865 0
-9121 6868 0
-9121 8998 0
-2111 6869 9118 9119 9120 9121 0
2111 -6869 0
2111 -9118 0
2111 -9119 0
2111 -9120 0
2111 -9121 0
9122 -6865 -8966 0
-9122 6865 0
-9122 8966 0
9123 -8968 -6871 0
-9123 8968 0
-9123 6871 0
9124 -8968 -8966 0
-9124 8968 0
-9124 8966 0
9125 -6865 -6871 -8998 0
-9125 6865 0
-9125 6871 0
-9125 8998 0
-2135 6872 9122 9123 9124 9125 0
2135 -6872 0
2135 -9122 0
2135 -9123 0
2135 -9124 0
2135 -9125 0
9126 -6874 -8966 0
-9126 6874 0
-9126 8966 0
9127 -8993 -8966 0
-9127 8993 0
-9127 8966 0
9128 -8993 -6871 0
-9128 8993 0
-9128 6871 0
9129 -6874 -6871 -8998 0
-9129 6874 0
-9129 6871 0
-9129 8998 0
-2133 6875 9126 9127 9128 9129 0
2133 -6875 0
2133 -9126 0
2133 -9127 0
2133 -9128 0
2133 -9129 0
9130 -6865 -9003 0
-9130 6865 0
-9130 9003 0
9131 -8968 -9003 0
-9131 8968 0
-9131 9003 0
9132 -8968 -6877 0
-9132 8968 0
-9132 6877 0
9133 -6865 -6877 -8998 0
-9133 6865 0
-9133 6877 0
-9133 8998 0
-2119 6878 9130 9131 9132 9133 0
2119 -6878 0
2119 -9130 0
2119 -9131 0
2119 -9132 0
2119 -9133 0
9134 -6865 -9008 0
-9134 6865 0
-9134 9008 0
9135 -8968 -6880 0
-9135 8968 0
-9135 6880 0
9136 -8968 -9008 0
-9136 8968 0
-9136 9008 0
9137 -6865 -6880 -8998 0
-9137 6865 0
-9137 6880 0
-9137 8998 0
-2126 6881 9134 9135 9136 9137 0
2126 -6881 0
2126 -9134 0
2126 -9135 0
2126 -9136 0
2126 -9137 0
9138 -6874 -9008 0
-9138 6874 0
-9138 9008 0
9139 -8993 -9008 0
-9139 8993 0
-9139 9008 0
9140 -8993 -6880 0
-9140 8993 0
-9140 6880 0
9141 -6874 -6880 -8998 0
-9141 6874 0
-9141 6880 0
-9141 8998 0
-2128 6883 9138 9139 9140 9141 0
2128 -6883 0
2128 -9138 0
2128 -9139 0
2128 -9140 0
2128 -9141 0
9142 -6868 -8993 0
-9142 6868 0
-9142 8993 0
9143 -8963 -6874 0
-9143 8963 0
-9143 6874 0
9144 -8963 -8993 0
-9144 8963 0
-9144 8993 0
9145 -6868 -6874 -8998 0
-9145 6868 0
-9145 6874 0
-9145 8998 0
-2110 6885 9142 9143 9144 9145 0
2110 -6885 0
2110 -9142 0
2110 -9143 0
2110 -9144 0
2110 -9145 0
9146 -6868 -8963 0
-9146 6868 0
-9146 8963 0
8995 -8963 -8963 0
-8995 8963 0
-8995 8963 0
9147 -8963 -6868 0
-9147 8963 0
-9147 6868 0
9148 -6868 -6868 -8998 0
-9148 6868 0
-9148 6868 0
-9148 8998 0
-2117 6887 9146 8995 9147 9148 0
2117 -6887 0
2117 -9146 0
2117 -8995 0
2117 -9147 0
2117 -9148 0
9149 -6868 -9003 0
-9149 6868 0
-9149 9003 0
9150 -8963 -9003 0
-9150 8963 0
-9150 9003 0
9151 -8963 -6877 0
-9151 8963 0
-9151 6877 0
9152 -6868 -6877 -8998 0
-9152 6868 0
-9152 6877 0
-9152 8998 0
-2124 6889 9149 9150 9151 9152 0
2124 -6889 0
2124 -9149 0
2124 -9150 0
2124 -9151 0
2124 -9152 0
9153 -6868 -9008 0
-9153 6868 0
-9153 9008 0
9154 -8963 -6880 0
-9154 8963 0
-9154 6880 0
9155 -8963 -9008 0
-9155 8963 0
-9155 9008 0
9156 -6868 -6880 -8998 0
-9156 6868 0
-9156 6880 0
-9156 8998 0
-2131 6891 9153 9154 9155 9156 0
2131 -6891 0
2131 -9153 0
2131 -9154 0
2131 -9155 0
2131 -9156 0
9157 -6871 -9008 0
-9157 6871 0
-9157 9008 0
9158 -8966 -9008 0
-9158 8966 0
-9158 9008 0
9159 -8966 -6880 0
-9159 8966 0
-9159 6880 0
9160 -6871 -6880 -8998 0
-9160 6871 0
-9160 6880 0
-9160 8998 0
-2138 6893 9157 9158 9159 9160 0
2138 -6893 0
2138 -9157 0
2138 -9158 0
2138 -9159 0
2138 -9160 0
9161 -6877 -8993 0
-9161 6877 0
-9161 8993 0
9162 -9003 -6874 0
-9162 9003 0
-9162 6874 0
9163 -9003 -8993 0
-9163 9003 0
-9163 8993 0
9164 -6877 -6874 -8998 0
-9164 6877 0
-9164 6874 0
-9164 8998 0
-2122 6895 9161 9162 9163 9164 0
2122 -6895 0
2122 -9161 0
2122 -9162 0
2122 -9163 0
2122 -9164 0
9165 -6877 -8966 0
-9165 6877 0
-9165 8966 0
9166 -9003 -6871 0
-9166 9003 0
-9166 6871 0
9167 -9003 -8966 0
-9167 9003 0
-9167 8966 0
9168 -6877 -6871 -8998 0
-9168 6877 0
-9168 6871 0
-9168 8998 0
-2143 6897 9165 9166 9167 9168 0
2143 -6897 0
2143 -9165 0
2143 -9166 0
2143 -9167 0
2143 -9168 0
9169 -6877 -9003 0
-9169 6877 0
-9169 9003 0
9170 -9003 -9003 0
-9170 9003 0
-9170 9003 0
9171 -9003 -6877 0
-9171 9003 0
-9171 6877 0
9172 -6877 -6877 -8998 0
-9172 6877 0
-9172 6877 0
-9172 8998 0
-2149 6899 9169 9170 9171 9172 0
2149 -6899 0
2149 -9169 0
2149 -9170 0
2149 -9171 0
2149 -9172 0
9173 -6771 -6768 0
-9173 6771 0
-9173 6768 0
9174 -6768 -6768 0
-9174 6768 0
-9174 6768 0
9175 -6768 -6771 0
-9175 6768 0
-9175 6771 0
9176 -6771 -6771 -6789 0
-9176 6771 0
-9176 6771 0
-9176 6789 0
-1225 6756 9173 9174 9175 9176 0
1225 -6756 0
1225 -9173 0
1225 -9174 0
1225 -9175 0
1225 -9176 0
9177 -6771 -6779 0
-9177 6771 0
-9177 6779 0
9178 -6768 -6779 0
-9178 6768 0
-9178 6779 0
9179 -6768 -6781 0
-9179 6768 0
-9179 6781 0
9180 -6771 -6781 -6789 0
-9180 6771 0
-9180 6781 0
-9180 6789 0
-2982 6759 9177 9178 9179 9180 0
2982 -6759 0
2982 -9177 0
2982 -9178 0
2982 -9179 0
2982 -9180 0
9181 -6771 -6787 0
-9181 6771 0
-9181 6787 0
9182 -6768 -6783 0
-9182 6768 0
-9182 6783 0
9183 -6768 -6787 0
-9183 6768 0
-9183 6787 0
9184 -6771 -6783 -6789 0
-9184 6771 0
-9184 6783 0
-9184 6789 0
-1223 6762 9181 9182 9183 9184 0
1223 -6762 0
1223 -9181 0
1223 -9182 0
1223 -9183 0
1223 -9184 0
9185 -6773 -6787 0
-9185 6773 0
-9185 6787 0
9186 -6785 -6787 0
-9186 6785 0
-9186 6787 0
9187 -6785 -6783 0
-9187 6785 0
-9187 6783 0
9188 -6773 -6783 -6789 0
-9188 6773 0
-9188 6783 0
-9188 6789 0
-1233 6765 9185 9186 9187 9188 0
1233 -6765 0
1233 -9185 0
1233 -9186 0
1233 -9187 0
1233 -9188 0
9189 -6771 -9190 0
-9189 6771 0
-9189 9190 0
9191 -6768 -9190 0
-9191 6768 0
-9191 9190 0
9192 -6768 -8158 0
-9192 6768 0
-9192 8158 0
9193 -6771 -8158 -6789 0
-9193 6771 0
-9193 8158 0
-9193 6789 0
-1228 8159 9189 9191 9192 9193 0
1228 -8159 0
1228 -9189 0
1228 -9191 0
1228 -9192 0
1228 -9193 0
9194 -6771 -6767 0
-9194 6771 0
-9194 6767 0
9195 -6768 -6770 0
-9195 6768 0
-9195 6770 0
9196 -6768 -6767 0
-9196 6768 0
-9196 6767 0
9197 -6771 -6770 -6789 0
-9197 6771 0
-9197 6770 0
-9197 6789 0
-1231 6755 9194 9195 9196 9197 0
1231 -6755 0
1231 -9194 0
1231 -9195 0
1231 -9196 0
1231 -9197 0
9198 -6773 -6767 0
-9198 6773 0
-9198 6767 0
9199 -6785 -6767 0
-9199 6785 0
-9199 6767 0
9200 -6785 -6770 0
-9200 6785 0
-9200 6770 0
9201 -6773 -6770 -6789 0
-9201 6773 0
-9201 6770 0
-9201 6789 0
-1234 6764 9198 9199 9200 9201 0
1234 -6764 0
1234 -9198 0
1234 -9199 0
1234 -9200 0
1234 -9201 0
9202 -6781 -6785 0
-9202 6781 0
-9202 6785 0
9203 -6779 -6773 0
-9203 6779 0
-9203 6773 0
9204 -6779 -6785 0
-9204 6779 0
-9204 6785 0
9205 -6781 -6773 -6789 0
-9205 6781 0
-9205 6773 0
-9205 6789 0
-2515 6775 9202 9203 9204 9205 0
2515 -6775 0
2515 -9202 0
2515 -9203 0
2515 -9204 0
2515 -9205 0
9206 -6781 -6779 0
-9206 6781 0
-9206 6779 0
9207 -6779 -6779 0
-9207 6779 0
-9207 6779 0
9208 -6779 -6781 0
-9208 6779 0
-9208 6781 0
9209 -6781 -6781 -6789 0
-9209 6781 0
-9209 6781 0
-9209 6789 0
-2517 6777 9206 9207 9208 9209 0
2517 -6777 0
2517 -9206 0
2517 -9207 0
2517 -9208 0
2517 -9209 0
9210 -6781 -9190 0
-9210 6781 0
-9210 9190 0
9211 -6779 -9190 0
-9211 6779 0
-9211 9190 0
9212 -6779 -8158 0
-9212 6779 0
-9212 8158 0
9213 -6781 -8158 -6789 0
-9213 6781 0
-9213 8158 0
-9213 6789 0
-2519 8165 9210 9211 9212 9213 0
2519 -8165 0
2519 -9210 0
2519 -9211 0
2519 -9212 0
2519 -9213 0
9214 -6781 -6767 0
-9214 6781 0
-9214 6767 0
9215 -6779 -6770 0
-9215 6779 0
-9215 6770 0
9216 -6779 -6767 0
-9216 6779 0
-9216 6767 0
9217 -6781 -6770 -6789 0
-9217 6781 0
-9217 6770 0
-9217 6789 0
-2521 6758 9214 9215 9216 9217 0
2521 -6758 0
2521 -9214 0
2521 -9215 0
2521 -9216 0
2521 -9217 0
9218 -6783 -6767 0
-9218 6783 0
-9218 6767 0
9219 -6787 -6767 0
-9219 6787 0
-9219 6767 0
9220 -6787 -6770 0
-9220 6787 0
-9220 6770 0
9221 -6783 -6770 -6789 0
-9221 6783 0
-9221 6770 0
-9221 6789 0
-1230 6761 9218 9219 9220 9221 0
1230 -6761 0
1230 -9218 0
1230 -9219 0
1230 -9220 0
1230 -9221 0
9222 -8158 -6785 0
-9222 8158 0
-9222 6785 0
9223 -9190 -6773 0
-9223 9190 0
-9223 6773 0
9224 -9190 -6785 0
-9224 9190 0
-9224 6785 0
9225 -8158 -6773 -6789 0
-9225 8158 0
-9225 6773 0
-9225 6789 0
-1236 8169 9222 9223 9224 9225 0
1236 -8169 0
1236 -9222 0
1236 -9223 0
1236 -9224 0
1236 -9225 0
9226 -8158 -6787 0
-9226 8158 0
-9226 6787 0
9227 -9190 -6783 0
-9227 9190 0
-9227 6783 0
9228 -9190 -6787 0
-9228 9190 0
-9228 6787 0
9229 -8158 -6783 -6789 0
-9229 8158 0
-9229 6783 0
-9229 6789 0
-1227 8171 9226 9227 9228 9229 0
1227 -8171 0
1227 -9226 0
1227 -9227 0
1227 -9228 0
1227 -9229 0
9230 -8158 -9190 0
-9230 8158 0
-9230 9190 0
9231 -9190 -9190 0
-9231 9190 0
-9231 9190 0
9232 -9190 -8158 0
-9232 9190 0
-9232 8158 0
9233 -8158 -8158 -6789 0
-9233 8158 0
-9233 8158 0
-9233 6789 0
-1239 8173 9230 9231 9232 9233 0
1239 -8173 0
1239 -9230 0
1239 -9231 0
1239 -9232 0
1239 -9233 0
9234 -6921 -6921 0
-9234 6921 0
-9234 6921 0
-1243 6907 9234 0
1243 -6907 0
1243 -9234 0
9235 -6921 -6916 0
-9235 6921 0
-9235 6916 0
-3635 6902 9235 0
3635 -6902 0
3635 -9235 0
9236 -6921 -6918 0
-9236 6921 0
-9236 6918 0
-1241 6901 9236 0
1241 -6901 0
1241 -9236 0
9237 -6928 -6918 0
-9237 6928 0
-9237 6918 0
-1251 6923 9237 0
1251 -6923 0
1251 -9237 0
9238 -6921 -6982 0
-9238 6921 0
-9238 6982 0
-1246 6935 9238 0
1246 -6935 0
1246 -9238 0
9239 -6921 -6972 0
-9239 6921 0
-9239 6972 0
-1249 6942 9239 0
1249 -6942 0
1249 -9239 0
9240 -6928 -6972 0
-9240 6928 0
-9240 6972 0
-1252 6947 9240 0
1252 -6947 0
1252 -9240 0
9241 -6916 -6928 0
-9241 6916 0
-9241 6928 0
-3634 6925 9241 0
3634 -6925 0
3634 -9241 0
9242 -6916 -6916 0
-9242 6916 0
-9242 6916 0
-3640 6906 9242 0
3640 -6906 0
3640 -9242 0
9243 -6916 -6982 0
-9243 6916 0
-9243 6982 0
-3645 6930 9243 0
3645 -6930 0
3645 -9243 0
9244 -6916 -6972 0
-9244 6916 0
-9244 6972 0
-3650 6937 9244 0
3650 -6937 0
3650 -9244 0
9245 -6918 -6972 0
-9245 6918 0
-9245 6972 0
-1248 6939 9245 0
1248 -6939 0
1248 -9245 0
9246 -6982 -6928 0
-9246 6982 0
-9246 6928 0
-1254 6977 9246 0
1254 -6977 0
1254 -9246 0
9247 -6982 -6918 0
-9247 6982 0
-9247 6918 0
-1245 6933 9247 0
1245 -6933 0
1245 -9247 0
9248 -6982 -6982 0
-9248 6982 0
-9248 6982 0
-1257 6987 9248 0
1257 -6987 0
1257 -9248 0
9249 -8416 -8416 0
-9249 8416 0
-9249 8416 0
-5362 8402 9249 0
5362 -8402 0
5362 -9249 0
9250 -8416 -8411 0
-9250 8416 0
-9250 8411 0
-5358 8397 9250 0
5358 -8397 0
5358 -9250 0
9251 -8416 -8413 0
-9251 8416 0
-9251 8413 0
-5382 8396 9251 0
5382 -8396 0
5382 -9251 0
9252 -8423 -8413 0
-9252 8423 0
-9252 8413 0
-5380 8418 9252 0
5380 -8418 0
5380 -9252 0
9253 -8416 -8477 0
-9253 8416 0
-9253 8477 0
-5366 8430 9253 0
5366 -8430 0
5366 -9253 0
9254 -8416 -8467 0
-9254 8416 0
-9254 8467 0
-5373 8437 9254 0
5373 -8437 0
5373 -9254 0
9255 -8423 -8467 0
-9255 8423 0
-9255 8467 0
-5375 8442 9255 0
5375 -8442 0
5375 -9255 0
9256 -8411 -8423 0
-9256 8411 0
-9256 8423 0
-5357 8420 9256 0
5357 -8420 0
5357 -9256 0
9257 -8411 -8411 0
-9257 8411 0
-9257 8411 0
-5364 8401 9257 0
5364 -8401 0
5364 -9257 0
9258 -8411 -8477 0
-9258 8411 0
-9258 8477 0
-5371 8425 9258 0
5371 -8425 0
5371 -9258 0
9259 -8411 -8467 0
-9259 8411 0
-9259 8467 0
-5378 8432 9259 0
5378 -8432 0
5378 -9259 0
9260 -8413 -8467 0
-9260 8413 0
-9260 8467 0
-5385 8434 9260 0
5385 -8434 0
5385 -9260 0
9261 -8477 -8423 0
-9261 8477 0
-9261 8423 0
-5369 8472 9261 0
5369 -8472 0
5369 -9261 0
9262 -8477 -8413 0
-9262 8477 0
-9262 8413 0
-5390 8428 9262 0
5390 -8428 0
5390 -9262 0
9263 -8477 -8477 0
-9263 8477 0
-9263 8477 0
-5396 8482 9263 0
5396 -8482 0
5396 -9263 0
9264 -8262 -8255 0
-9264 8262 0
-9264 8255 0
9265 -8255 -8255 0
-9265 8255 0
-9265 8255 0
9266 -8255 -8262 0
-9266 8255 0
-9266 8262 0
9267 -8262 -8262 -8298 0
-9267 8262 0
-9267 8262 0
-9267 8298 0
-3139 8248 9264 9265 9266 9267 0
3139 -8248 0
3139 -9264 0
3139 -9265 0
3139 -9266 0
3139 -9267 0
9268 -8262 -8250 0
-9268 8262 0
-9268 8250 0
9269 -8255 -8250 0
-9269 8255 0
-9269 8250 0
9270 -8255 -8257 0
-9270 8255 0
-9270 8257 0
9271 -8262 -8257 -8298 0
-9271 8262 0
-9271 8257 0
-9271 8298 0
-3135 8243 9268 9269 9270 9271 0
3135 -8243 0
3135 -9268 0
3135 -9269 0
3135 -9270 0
3135 -9271 0
9272 -8262 -8253 0
-9272 8262 0
-9272 8253 0
9273 -8255 -8259 0
-9273 8255 0
-9273 8259 0
9274 -8255 -8253 0
-9274 8255 0
-9274 8253 0
9275 -8262 -8259 -8298 0
-9275 8262 0
-9275 8259 0
-9275 8298 0
-3159 8242 9272 9273 9274 9275 0
3159 -8242 0
3159 -9272 0
3159 -9273 0
3159 -9274 0
3159 -9275 0
9276 -8269 -8253 0
-9276 8269 0
-9276 8253 0
9277 -8293 -8253 0
-9277 8293 0
-9277 8253 0
9278 -8293 -8259 0
-9278 8293 0
-9278 8259 0
9279 -8269 -8259 -8298 0
-9279 8269 0
-9279 8259 0
-9279 8298 0
-3157 8264 9276 9277 9278 9279 0
3157 -8264 0
3157 -9276 0
3157 -9277 0
3157 -9278 0
3157 -9279 0
9280 -8262 -8303 0
-9280 8262 0
-9280 8303 0
9281 -8255 -8303 0
-9281 8255 0
-9281 8303 0
9282 -8255 -8323 0
-9282 8255 0
-9282 8323 0
9283 -8262 -8323 -8298 0
-9283 8262 0
-9283 8323 0
-9283 8298 0
-3143 8276 9280 9281 9282 9283 0
3143 -8276 0
3143 -9280 0
3143 -9281 0
3143 -9282 0
3143 -9283 0
9284 -8262 -8308 0
-9284 8262 0
-9284 8308 0
9285 -8255 -8313 0
-9285 8255 0
-9285 8313 0
9286 -8255 -8308 0
-9286 8255 0
-9286 8308 0
9287 -8262 -8313 -8298 0
-9287 8262 0
-9287 8313 0
-9287 8298 0
-3150 8283 9284 9285 9286 9287 0
3150 -8283 0
3150 -9284 0
3150 -9285 0
3150 -9286 0
3150 -9287 0
9288 -8269 -8308 0
-9288 8269 0
-9288 8308 0
9289 -8293 -8308 0
-9289 8293 0
-9289 8308 0
9290 -8293 -8313 0
-9290 8293 0
-9290 8313 0
9291 -8269 -8313 -8298 0
-9291 8269 0
-9291 8313 0
-9291 8298 0
-3152 8288 9288 9289 9290 9291 0
3152 -8288 0
3152 -9288 0
3152 -9289 0
3152 -9290 0
3152 -9291 0
9292 -8257 -8293 0
-9292 8257 0
-9292 8293 0
9293 -8250 -8269 0
-9293 8250 0
-9293 8269 0
9294 -8250 -8293 0
-9294 8250 0
-9294 8293 0
9295 -8257 -8269 -8298 0
-9295 8257 0
-9295 8269 0
-9295 8298 0
-3134 8266 9292 9293 9294 9295 0
3134 -8266 0
3134 -9292 0
3134 -9293 0
3134 -9294 0
3134 -9295 0
9296 -8257 -8250 0
-9296 8257 0
-9296 8250 0
8295 -8250 -8250 0
-8295 8250 0
-8295 8250 0
9297 -8250 -8257 0
-9297 8250 0
-9297 8257 0
9298 -8257 -8257 -8298 0
-9298 8257 0
-9298 8257 0
-9298 8298 0
-3141 8247 9296 8295 9297 9298 0
3141 -8247 0
3141 -9296 0
3141 -8295 0
3141 -9297 0
3141 -9298 0
9299 -8257 -8303 0
-9299 8257 0
-9299 8303 0
9300 -8250 -8303 0
-9300 8250 0
-9300 8303 0
9301 -8250 -8323 0
-9301 8250 0
-9301 8323 0
9302 -8257 -8323 -8298 0
-9302 8257 0
-9302 8323 0
-9302 8298 0
-3148 8271 9299 9300 9301 9302 0
3148 -8271 0
3148 -9299 0
3148 -9300 0
3148 -9301 0
3148 -9302 0
9303 -8257 -8308 0
-9303 8257 0
-9303 8308 0
9304 -8250 -8313 0
-9304 8250 0
-9304 8313 0
9305 -8250 -8308 0
-9305 8250 0
-9305 8308 0
9306 -8257 -8313 -8298 0
-9306 8257 0
-9306 8313 0
-9306 8298 0
-3155 8278 9303 9304 9305 9306 0
3155 -8278 0
3155 -9303 0
3155 -9304 0
3155 -9305 0
3155 -9306 0
9307 -8259 -8308 0
-9307 8259 0
-9307 8308 0
9308 -8253 -8308 0
-9308 8253 0
-9308 8308 0
9309 -8253 -8313 0
-9309 8253 0
-9309 8313 0
9310 -8259 -8313 -8298 0
-9310 8259 0
-9310 8313 0
-9310 8298 0
-3162 8280 9307 9308 9309 9310 0
3162 -8280 0
3162 -9307 0
3162 -9308 0
3162 -9309 0
3162 -9310 0
9311 -8323 -8293 0
-9311 8323 0
-9311 8293 0
9312 -8303 -8269 0
-9312 8303 0
-9312 8269 0
9313 -8303 -8293 0
-9313 8303 0
-9313 8293 0
9314 -8323 -8269 -8298 0
-9314 8323 0
-9314 8269 0
-9314 8298 0
-3146 8318 9311 9312 9313 9314 0
3146 -8318 0
3146 -9311 0
3146 -9312 0
3146 -9313 0
3146 -9314 0
9315 -8323 -8253 0
-9315 8323 0
-9315 8253 0
9316 -8303 -8259 0
-9316 8303 0
-9316 8259 0
9317 -8303 -8253 0
-9317 8303 0
-9317 8253 0
9318 -8323 -8259 -8298 0
-9318 8323 0
-9318 8259 0
-9318 8298 0
-3167 8274 9315 9316 9317 9318 0
3167 -8274 0
3167 -9315 0
3167 -9316 0
3167 -9317 0
3167 -9318 0
9319 -8323 -8303 0
-9319 8323 0
-9319 8303 0
9320 -8303 -8303 0
-9320 8303 0
-9320 8303 0
9321 -8303 -8323 0
-9321 8303 0
-9321 8323 0
9322 -8323 -8323 -8298 0
-9322 8323 0
-9322 8323 0
-9322 8298 0
-3173 8328 9319 9320 9321 9322 0
3173 -8328 0
3173 -9319 0
3173 -9320 0
3173 -9321 0
3173 -9322 0
9323 -8242 -8242 0
-9323 8242 0
-9323 8242 0
-2074 8248 9323 0
2074 -8248 0
2074 -9323 0
9324 -8242 -8253 0
-9324 8242 0
-9324 8253 0
-2070 8255 9324 0
2070 -8255 0
2070 -9324 0
9325 -8242 -8259 0
-9325 8242 0
-9325 8259 0
-2094 8262 9325 0
2094 -8262 0
2094 -9325 0
9326 -8264 -8259 0
-9326 8264 0
-9326 8259 0
-2092 8269 9326 0
2092 -8269 0
2092 -9326 0
9327 -8242 -8274 0
-9327 8242 0
-9327 8274 0
-2078 8276 9327 0
2078 -8276 0
2078 -9327 0
9328 -8242 -8280 0
-9328 8242 0
-9328 8280 0
-2085 8283 9328 0
2085 -8283 0
2085 -9328 0
9329 -8264 -8280 0
-9329 8264 0
-9329 8280 0
-2087 8288 9329 0
2087 -8288 0
2087 -9329 0
9330 -8253 -8264 0
-9330 8253 0
-9330 8264 0
-2069 8293 9330 0
2069 -8293 0
2069 -9330 0
9331 -8253 -8253 0
-9331 8253 0
-9331 8253 0
-2076 8298 9331 0
2076 -8298 0
2076 -9331 0
9332 -8253 -8274 0
-9332 8253 0
-9332 8274 0
-2083 8303 9332 0
2083 -8303 0
2083 -9332 0
9333 -8253 -8280 0
-9333 8253 0
-9333 8280 0
-2090 8308 9333 0
2090 -8308 0
2090 -9333 0
9334 -8259 -8280 0
-9334 8259 0
-9334 8280 0
-2097 8313 9334 0
2097 -8313 0
2097 -9334 0
9335 -8274 -8264 0
-9335 8274 0
-9335 8264 0
-2081 8318 9335 0
2081 -8318 0
2081 -9335 0
9336 -8274 -8259 0
-9336 8274 0
-9336 8259 0
-2102 8323 9336 0
2102 -8323 0
2102 -9336 0
9337 -8274 -8274 0
-9337 8274 0
-9337 8274 0
-2108 8328 9337 0
2108 -8328 0
2108 -9337 0
9338 -9339 -9339 0
-9338 9339 0
-9338 9339 0
-3557 9340 9338 0
3557 -9340 0
3557 -9338 0
9341 -9339 -9342 0
-9341 9339 0
-9341 9342 0
-3553 9343 9341 0
3553 -9343 0
3553 -9341 0
9344 -9339 -9345 0
-9344 9339 0
-9344 9345 0
-3577 9346 9344 0
3577 -9346 0
3577 -9344 0
9347 -9348 -9345 0
-9347 9348 0
-9347 9345 0
-3575 9349 9347 0
3575 -9349 0
3575 -9347 0
9350 -9339 -9351 0
-9350 9339 0
-9350 9351 0
-3561 9352 9350 0
3561 -9352 0
3561 -9350 0
9353 -9339 -9354 0
-9353 9339 0
-9353 9354 0
-3568 9355 9353 0
3568 -9355 0
3568 -9353 0
9356 -9348 -9354 0
-9356 9348 0
-9356 9354 0
-3570 9357 9356 0
3570 -9357 0
3570 -9356 0
9358 -9342 -9348 0
-9358 9342 0
-9358 9348 0
-3552 9359 9358 0
3552 -9359 0
3552 -9358 0
9360 -9342 -9342 0
-9360 9342 0
-9360 9342 0
-3559 9361 9360 0
3559 -9361 0
3559 -9360 0
9362 -9342 -9351 0
-9362 9342 0
-9362 9351 0
-3566 9363 9362 0
3566 -9363 0
3566 -9362 0
9364 -9342 -9354 0
-9364 9342 0
-9364 9354 0
-3573 9365 9364 0
3573 -9365 0
3573 -9364 0
9366 -9345 -9354 0
-9366 9345 0
-9366 9354 0
-3580 9367 9366 0
3580 -9367 0
3580 -9366 0
9368 -9351 -9348 0
-9368 9351 0
-9368 9348 0
-3564 9369 9368 0
3564 -9369 0
3564 -9368 0
9370 -9351 -9345 0
-9370 9351 0
-9370 9345 0
-3585 9371 9370 0
3585 -9371 0
3585 -9370 0
9372 -9351 -9351 0
-9372 9351 0
-9372 9351 0
-3591 9373 9372 0
3591 -9373 0
3591 -9372 0
9374 -6667 -6667 0
-9374 6667 0
-9374 6667 0
-3598 6673 9374 0
3598 -6673 0
3598 -9374 0
9375 -6667 -6678 0
-9375 6667 0
-9375 6678 0
-3594 6680 9375 0
3594 -6680 0
3594 -9375 0
9376 -6667 -6684 0
-9376 6667 0
-9376 6684 0
-3618 6687 9376 0
3618 -6687 0
3618 -9376 0
9377 -6689 -6684 0
-9377 6689 0
-9377 6684 0
-3616 6694 9377 0
3616 -6694 0
3616 -9377 0
9378 -6667 -6699 0
-9378 6667 0
-9378 6699 0
-3602 6701 9378 0
3602 -6701 0
3602 -9378 0
9379 -6667 -6705 0
-9379 6667 0
-9379 6705 0
-3609 6708 9379 0
3609 -6708 0
3609 -9379 0
9380 -6689 -6705 0
-9380 6689 0
-9380 6705 0
-3611 6713 9380 0
3611 -6713 0
3611 -9380 0
9381 -6678 -6689 0
-9381 6678 0
-9381 6689 0
-3593 6718 9381 0
3593 -6718 0
3593 -9381 0
9382 -6678 -6678 0
-9382 6678 0
-9382 6678 0
-3600 6723 9382 0
3600 -6723 0
3600 -9382 0
9383 -6678 -6699 0
-9383 6678 0
-9383 6699 0
-3607 6728 9383 0
3607 -6728 0
3607 -9383 0
9384 -6678 -6705 0
-9384 6678 0
-9384 6705 0
-3614 6733 9384 0
3614 -6733 0
3614 -9384 0
9385 -6684 -6705 0
-9385 6684 0
-9385 6705 0
-3621 6738 9385 0
3621 -6738 0
3621 -9385 0
9386 -6699 -6689 0
-9386 6699 0
-9386 6689 0
-3605 6743 9386 0
3605 -6743 0
3605 -9386 0
9387 -6699 -6684 0
-9387 6699 0
-9387 6684 0
-3626 6748 9387 0
3626 -6748 0
3626 -9387 0
9388 -6699 -6699 0
-9388 6699 0
-9388 6699 0
-3632 6753 9388 0
3632 -6753 0
3632 -9388 0
9389 -7757 -7757 0
-9389 7757 0
-9389 7757 0
-3829 7763 9389 0
3829 -7763 0
3829 -9389 0
9390 -7757 -7768 0
-9390 7757 0
-9390 7768 0
-4322 7770 9390 0
4322 -7770 0
4322 -9390 0
9391 -7757 -7774 0
-9391 7757 0
-9391 7774 0
-3827 7777 9391 0
3827 -7777 0
3827 -9391 0
9392 -7779 -7774 0
-9392 7779 0
-9392 7774 0
-3108 7784 9392 0
3108 -7784 0
3108 -9392 0
9393 -7757 -7789 0
-9393 7757 0
-9393 7789 0
-3831 7791 9393 0
3831 -7791 0
3831 -9393 0
9394 -7757 -7795 0
-9394 7757 0
-9394 7795 0
-3833 7798 9394 0
3833 -7798 0
3833 -9394 0
9395 -7779 -7795 0
-9395 7779 0
-9395 7795 0
-3105 7803 9395 0
3105 -7803 0
3105 -9395 0
9396 -7768 -7779 0
-9396 7768 0
-9396 7779 0
-3098 7808 9396 0
3098 -7808 0
3098 -9396 0
9397 -7768 -7768 0
-9397 7768 0
-9397 7768 0
-3100 7813 9397 0
3100 -7813 0
3100 -9397 0
9398 -7768 -7789 0
-9398 7768 0
-9398 7789 0
-3103 7818 9398 0
3103 -7818 0
3103 -9398 0
9399 -7768 -7795 0
-9399 7768 0
-9399 7795 0
-3106 7823 9399 0
3106 -7823 0
3106 -9399 0
9400 -7774 -7795 0
-9400 7774 0
-9400 7795 0
-3109 7828 9400 0
3109 -7828 0
3109 -9400 0
9401 -7789 -7779 0
-9401 7789 0
-9401 7779 0
-3102 7833 9401 0
3102 -7833 0
3102 -9401 0
9402 -7789 -7774 0
-9402 7789 0
-9402 7774 0
-3111 7838 9402 0
3111 -7838 0
3111 -9402 0
9403 -7789 -7789 0
-9403 7789 0
-9403 7789 0
-3114 7843 9403 0
3114 -7843 0
3114 -9403 0
9404 -8731 -9405 0
-9404 8731 0
-9404 9405 0
9406 -9405 -9405 0
-9406 9405 0
-9406 9405 0
9407 -9405 -8731 0
-9407 9405 0
-9407 8731 0
9408 -8731 -8731 -9409 0
-9408 8731 0
-9408 8731 0
-9408 9409 0
-6076 8732 9404 9406 9407 9408 0
6076 -8732 0
6076 -9404 0
6076 -9406 0
6076 -9407 0
6076 -9408 0
9410 -8731 -9411 0
-9410 8731 0
-9410 9411 0
9412 -9405 -9411 0
-9412 9405 0
-9412 9411 0
9413 -9405 -8734 0
-9413 9405 0
-9413 8734 0
9414 -8731 -8734 -9409 0
-9414 8731 0
-9414 8734 0
-9414 9409 0
-6072 8735 9410 9412 9413 9414 0
6072 -8735 0
6072 -9410 0
6072 -9412 0
6072 -9413 0
6072 -9414 0
9415 -8731 -9416 0
-9415 8731 0
-9415 9416 0
9417 -9405 -8737 0
-9417 9405 0
-9417 8737 0
9418 -9405 -9416 0
-9418 9405 0
-9418 9416 0
9419 -8731 -8737 -9409 0
-9419 8731 0
-9419 8737 0
-9419 9409 0
-6090 8738 9415 9417 9418 9419 0
6090 -8738 0
6090 -9415 0
6090 -9417 0
6090 -9418 0
6090 -9419 0
9420 -8740 -9416 0
-9420 8740 0
-9420 9416 0
9421 -9422 -9416 0
-9421 9422 0
-9421 9416 0
9423 -9422 -8737 0
-9423 9422 0
-9423 8737 0
9424 -8740 -8737 -9409 0
-9424 8740 0
-9424 8737 0
-9424 9409 0
-1446 8741 9420 9421 9423 9424 0
1446 -8741 0
1446 -9420 0
1446 -9421 0
1446 -9423 0
1446 -9424 0
9425 -8731 -9426 0
-9425 8731 0
-9425 9426 0
9427 -9405 -9426 0
-9427 9405 0
-9427 9426 0
9428 -9405 -8743 0
-9428 9405 0
-9428 8743 0
9429 -8731 -8743 -9409 0
-9429 8731 0
-9429 8743 0
-9429 9409 0
-6079 8744 9425 9427 9428 9429 0
6079 -8744 0
6079 -9425 0
6079 -9427 0
6079 -9428 0
6079 -9429 0
9430 -8731 -9431 0
-9430 8731 0
-9430 9431 0
9432 -9405 -8746 0
-9432 9405 0
-9432 8746 0
9433 -9405 -9431 0
-9433 9405 0
-9433 9431 0
9434 -8731 -8746 -9409 0
-9434 8731 0
-9434 8746 0
-9434 9409 0
-6084 8747 9430 9432 9433 9434 0
6084 -8747 0
6084 -9430 0
6084 -9432 0
6084 -9433 0
6084 -9434 0
9435 -8740 -9431 0
-9435 8740 0
-9435 9431 0
9436 -9422 -9431 0
-9436 9422 0
-9436 9431 0
9437 -9422 -8746 0
-9437 9422 0
-9437 8746 0
9438 -8740 -8746 -9409 0
-9438 8740 0
-9438 8746 0
-9438 9409 0
-1443 8749 9435 9436 9437 9438 0
1443 -8749 0
1443 -9435 0
1443 -9436 0
1443 -9437 0
1443 -9438 0
9439 -8734 -9422 0
-9439 8734 0
-9439 9422 0
9440 -9411 -8740 0
-9440 9411 0
-9440 8740 0
9441 -9411 -9422 0
-9441 9411 0
-9441 9422 0
9442 -8734 -8740 -9409 0
-9442 8734 0
-9442 8740 0
-9442 9409 0
-1436 8751 9439 9440 9441 9442 0
1436 -8751 0
1436 -9439 0
1436 -9440 0
1436 -9441 0
1436 -9442 0
9443 -8734 -9411 0
-9443 8734 0
-9443 9411 0
9444 -9411 -9411 0
-9444 9411 0
-9444 9411 0
9445 -9411 -8734 0
-9445 9411 0
-9445 8734 0
9446 -8734 -8734 -9409 0
-9446 8734 0
-9446 8734 0
-9446 9409 0
-1438 8753 9443 9444 9445 9446 0
1438 -8753 0
1438 -9443 0
1438 -9444 0
1438 -9445 0
1438 -9446 0
9447 -8734 -9426 0
-9447 8734 0
-9447 9426 0
9448 -9411 -9426 0
-9448 9411 0
-9448 9426 0
9449 -9411 -8743 0
-9449 9411 0
-9449 8743 0
9450 -8734 -8743 -9409 0
-9450 8734 0
-9450 8743 0
-9450 9409 0
-1441 8755 9447 9448 9449 9450 0
1441 -8755 0
1441 -9447 0
1441 -9448 0
1441 -9449 0
1441 -9450 0
9451 -8734 -9431 0
-9451 8734 0
-9451 9431 0
9452 -9411 -8746 0
-9452 9411 0
-9452 8746 0
9453 -9411 -9431 0
-9453 9411 0
-9453 9431 0
9454 -8734 -8746 -9409 0
-9454 8734 0
-9454 8746 0
-9454 9409 0
-1444 8757 9451 9452 9453 9454 0
1444 -8757 0
1444 -9451 0
1444 -9452 0
1444 -9453 0
1444 -9454 0
9455 -8737 -9431 0
-9455 8737 0
-9455 9431 0
9456 -9416 -9431 0
-9456 9416 0
-9456 9431 0
9457 -9416 -8746 0
-9457 9416 0
-9457 8746 0
9458 -8737 -8746 -9409 0
-9458 8737 0
-9458 8746 0
-9458 9409 0
-1447 8759 9455 9456 9457 9458 0
1447 -8759 0
1447 -9455 0
1447 -9456 0
1447 -9457 0
1447 -9458 0
9459 -8743 -9422 0
-9459 8743 0
-9459 9422 0
9460 -9426 -8740 0
-9460 9426 0
-9460 8740 0
9461 -9426 -9422 0
-9461 9426 0
-9461 9422 0
9462 -8743 -8740 -9409 0
-9462 8743 0
-9462 8740 0
-9462 9409 0
-1440 8761 9459 9460 9461 9462 0
1440 -8761 0
1440 -9459 0
1440 -9460 0
1440 -9461 0
1440 -9462 0
9463 -8743 -9416 0
-9463 8743 0
-9463 9416 0
9464 -9426 -8737 0
-9464 9426 0
-9464 8737 0
9465 -9426 -9416 0
-9465 9426 0
-9465 9416 0
9466 -8743 -8737 -9409 0
-9466 8743 0
-9466 8737 0
-9466 9409 0
-1449 8763 9463 9464 9465 9466 0
1449 -8763 0
1449 -9463 0
1449 -9464 0
1449 -9465 0
1449 -9466 0
9467 -8743 -9426 0
-9467 8743 0
-9467 9426 0
9468 -9426 -9426 0
-9468 9426 0
-9468 9426 0
9469 -9426 -8743 0
-9469 9426 0
-9469 8743 0
9470 -8743 -8743 -9409 0
-9470 8743 0
-9470 8743 0
-9470 9409 0
-1452 8765 9467 9468 9469 9470 0
1452 -8765 0
1452 -9467 0
1452 -9468 0
1452 -9469 0
1452 -9470 0
9471 -9472 -9473 0
-9471 9472 0
-9471 9473 0
9474 -9473 -9473 0
-9474 9473 0
-9474 9473 0
9475 -9473 -9472 0
-9475 9473 0
-9475 9472 0
9476 -9472 -9472 -9477 0
-9476 9472 0
-9476 9472 0
-9476 9477 0
-4925 9478 9471 9474 9475 9476 0
4925 -9478 0
4925 -9471 0
4925 -9474 0
4925 -9475 0
4925 -9476 0
9479 -9472 -9480 0
-9479 9472 0
-9479 9480 0
9481 -9473 -9480 0
-9481 9473 0
-9481 9480 0
9482 -9473 -9483 0
-9482 9473 0
-9482 9483 0
9484 -9472 -9483 -9477 0
-9484 9472 0
-9484 9483 0
-9484 9477 0
-4921 9485 9479 9481 9482 9484 0
4921 -9485 0
4921 -9479 0
4921 -9481 0
4921 -9482 0
4921 -9484 0
9486 -9472 -9487 0
-9486 9472 0
-9486 9487 0
9488 -9473 -9489 0
-9488 9473 0
-9488 9489 0
9490 -9473 -9487 0
-9490 9473 0
-9490 9487 0
9491 -9472 -9489 -9477 0
-9491 9472 0
-9491 9489 0
-9491 9477 0
-4939 9492 9486 9488 9490 9491 0
4939 -9492 0
4939 -9486 0
4939 -9488 0
4939 -9490 0
4939 -9491 0
9493 -9494 -9487 0
-9493 9494 0
-9493 9487 0
9495 -9496 -9487 0
-9495 9496 0
-9495 9487 0
9497 -9496 -9489 0
-9497 9496 0
-9497 9489 0
9498 -9494 -9489 -9477 0
-9498 9494 0
-9498 9489 0
-9498 9477 0
-4807 9499 9493 9495 9497 9498 0
4807 -9499 0
4807 -9493 0
4807 -9495 0
4807 -9497 0
4807 -9498 0
9500 -9472 -9501 0
-9500 9472 0
-9500 9501 0
9502 -9473 -9501 0
-9502 9473 0
-9502 9501 0
9503 -9473 -9504 0
-9503 9473 0
-9503 9504 0
9505 -9472 -9504 -9477 0
-9505 9472 0
-9505 9504 0
-9505 9477 0
-4928 9506 9500 9502 9503 9505 0
4928 -9506 0
4928 -9500 0
4928 -9502 0
4928 -9503 0
4928 -9505 0
9507 -9472 -9508 0
-9507 9472 0
-9507 9508 0
9509 -9473 -9510 0
-9509 9473 0
-9509 9510 0
9511 -9473 -9508 0
-9511 9473 0
-9511 9508 0
9512 -9472 -9510 -9477 0
-9512 9472 0
-9512 9510 0
-9512 9477 0
-4933 9513 9507 9509 9511 9512 0
4933 -9513 0
4933 -9507 0
4933 -9509 0
4933 -9511 0
4933 -9512 0
9514 -9494 -9508 0
-9514 9494 0
-9514 9508 0
9515 -9496 -9508 0
-9515 9496 0
-9515 9508 0
9516 -9496 -9510 0
-9516 9496 0
-9516 9510 0
9517 -9494 -9510 -9477 0
-9517 9494 0
-9517 9510 0
-9517 9477 0
-4804 9518 9514 9515 9516 9517 0
4804 -9518 0
4804 -9514 0
4804 -9515 0
4804 -9516 0
4804 -9517 0
9519 -9483 -9496 0
-9519 9483 0
-9519 9496 0
9520 -9480 -9494 0
-9520 9480 0
-9520 9494 0
9521 -9480 -9496 0
-9521 9480 0
-9521 9496 0
9522 -9483 -9494 -9477 0
-9522 9483 0
-9522 9494 0
-9522 9477 0
-4797 9523 9519 9520 9521 9522 0
4797 -9523 0
4797 -9519 0
4797 -9520 0
4797 -9521 0
4797 -9522 0
9524 -9483 -9480 0
-9524 9483 0
-9524 9480 0
9525 -9480 -9480 0
-9525 9480 0
-9525 9480 0
9526 -9480 -9483 0
-9526 9480 0
-9526 9483 0
9527 -9483 -9483 -9477 0
-9527 9483 0
-9527 9483 0
-9527 9477 0
-4799 9528 9524 9525 9526 9527 0
4799 -9528 0
4799 -9524 0
4799 -9525 0
4799 -9526 0
4799 -9527 0
9529 -9483 -9501 0
-9529 9483 0
-9529 9501 0
9530 -9480 -9501 0
-9530 9480 0
-9530 9501 0
9531 -9480 -9504 0
-9531 9480 0
-9531 9504 0
9532 -9483 -9504 -9477 0
-9532 9483 0
-9532 9504 0
-9532 9477 0
-4802 9533 9529 9530 9531 9532 0
4802 -9533 0
4802 -9529 0
4802 -9530 0
4802 -9531 0
4802 -9532 0
9534 -9483 -9508 0
-9534 9483 0
-9534 9508 0
9535 -9480 -9510 0
-9535 9480 0
-9535 9510 0
9536 -9480 -9508 0
-9536 9480 0
-9536 9508 0
9537 -9483 -9510 -9477 0
-9537 9483 0
-9537 9510 0
-9537 9477 0
-4805 9538 9534 9535 9536 9537 0
4805 -9538 0
4805 -9534 0
4805 -9535 0
4805 -9536 0
4805 -9537 0
9539 -9489 -9508 0
-9539 9489 0
-9539 9508 0
9540 -9487 -9508 0
-9540 9487 0
-9540 9508 0
9541 -9487 -9510 0
-9541 9487 0
-9541 9510 0
9542 -9489 -9510 -9477 0
-9542 9489 0
-9542 9510 0
-9542 9477 0
-4808 9543 9539 9540 9541 9542 0
4808 -9543 0
4808 -9539 0
4808 -9540 0
4808 -9541 0
4808 -9542 0
9544 -9504 -9496 0
-9544 9504 0
-9544 9496 0
9545 -9501 -9494 0
-9545 9501 0
-9545 9494 0
9546 -9501 -9496 0
-9546 9501 0
-9546 9496 0
9547 -9504 -9494 -9477 0
-9547 9504 0
-9547 9494 0
-9547 9477 0
-4801 9548 9544 9545 9546 9547 0
4801 -9548 0
4801 -9544 0
4801 -9545 0
4801 -9546 0
4801 -9547 0
9549 -9504 -9487 0
-9549 9504 0
-9549 9487 0
9550 -9501 -9489 0
-9550 9501 0
-9550 9489 0
9551 -9501 -9487 0
-9551 9501 0
-9551 9487 0
9552 -9504 -9489 -9477 0
-9552 9504 0
-9552 9489 0
-9552 9477 0
-4810 9553 9549 9550 9551 9552 0
4810 -9553 0
4810 -9549 0
4810 -9550 0
4810 -9551 0
4810 -9552 0
9554 -9504 -9501 0
-9554 9504 0
-9554 9501 0
9555 -9501 -9501 0
-9555 9501 0
-9555 9501 0
9556 -9501 -9504 0
-9556 9501 0
-9556 9504 0
9557 -9504 -9504 -9477 0
-9557 9504 0
-9557 9504 0
-9557 9477 0
-4813 9558 9554 9555 9556 9557 0
4813 -9558 0
4813 -9554 0
4813 -9555 0
4813 -9556 0
4813 -9557 0
9559 -6471 -6468 0
-9559 6471 0
-9559 6468 0
9560 -6468 -6468 0
-9560 6468 0
-9560 6468 0
9561 -6468 -6471 0
-9561 6468 0
-9561 6471 0
9562 -6471 -6471 -6489 0
-9562 6471 0
-9562 6471 0
-9562 6489 0
-3525 6456 9559 9560 9561 9562 0
3525 -6456 0
3525 -9559 0
3525 -9560 0
3525 -9561 0
3525 -9562 0
9563 -6471 -6479 0
-9563 6471 0
-9563 6479 0
9564 -6468 -6479 0
-9564 6468 0
-9564 6479 0
9565 -6468 -6481 0
-9565 6468 0
-9565 6481 0
9566 -6471 -6481 -6489 0
-9566 6471 0
-9566 6481 0
-9566 6489 0
-3521 6459 9563 9564 9565 9566 0
3521 -6459 0
3521 -9563 0
3521 -9564 0
3521 -9565 0
3521 -9566 0
9567 -6471 -6487 0
-9567 6471 0
-9567 6487 0
9568 -6468 -6483 0
-9568 6468 0
-9568 6483 0
9569 -6468 -6487 0
-9569 6468 0
-9569 6487 0
9570 -6471 -6483 -6489 0
-9570 6471 0
-9570 6483 0
-9570 6489 0
-3539 6462 9567 9568 9569 9570 0
3539 -6462 0
3539 -9567 0
3539 -9568 0
3539 -9569 0
3539 -9570 0
9571 -6473 -6487 0
-9571 6473 0
-9571 6487 0
9572 -6485 -6487 0
-9572 6485 0
-9572 6487 0
9573 -6485 -6483 0
-9573 6485 0
-9573 6483 0
9574 -6473 -6483 -6489 0
-9574 6473 0
-9574 6483 0
-9574 6489 0
-1500 6465 9571 9572 9573 9574 0
1500 -6465 0
1500 -9571 0
1500 -9572 0
1500 -9573 0
1500 -9574 0
9575 -6471 -8523 0
-9575 6471 0
-9575 8523 0
9576 -6468 -8523 0
-9576 6468 0
-9576 8523 0
9577 -6468 -8349 0
-9577 6468 0
-9577 8349 0
9578 -6471 -8349 -6489 0
-9578 6471 0
-9578 8349 0
-9578 6489 0
-3528 8350 9575 9576 9577 9578 0
3528 -8350 0
3528 -9575 0
3528 -9576 0
3528 -9577 0
3528 -9578 0
9579 -6471 -6467 0
-9579 6471 0
-9579 6467 0
9580 -6468 -6470 0
-9580 6468 0
-9580 6470 0
9581 -6468 -6467 0
-9581 6468 0
-9581 6467 0
9582 -6471 -6470 -6489 0
-9582 6471 0
-9582 6470 0
-9582 6489 0
-3533 6455 9579 9580 9581 9582 0
3533 -6455 0
3533 -9579 0
3533 -9580 0
3533 -9581 0
3533 -9582 0
9583 -6473 -6467 0
-9583 6473 0
-9583 6467 0
9584 -6485 -6467 0
-9584 6485 0
-9584 6467 0
9585 -6485 -6470 0
-9585 6485 0
-9585 6470 0
9586 -6473 -6470 -6489 0
-9586 6473 0
-9586 6470 0
-9586 6489 0
-1497 6464 9583 9584 9585 9586 0
1497 -6464 0
1497 -9583 0
1497 -9584 0
1497 -9585 0
1497 -9586 0
9587 -6481 -6485 0
-9587 6481 0
-9587 6485 0
9588 -6479 -6473 0
-9588 6479 0
-9588 6473 0
9589 -6479 -6485 0
-9589 6479 0
-9589 6485 0
9590 -6481 -6473 -6489 0
-9590 6481 0
-9590 6473 0
-9590 6489 0
-1490 6475 9587 9588 9589 9590 0
1490 -6475 0
1490 -9587 0
1490 -9588 0
1490 -9589 0
1490 -9590 0
9591 -6481 -6479 0
-9591 6481 0
-9591 6479 0
8516 -6479 -6479 0
-8516 6479 0
-8516 6479 0
9592 -6479 -6481 0
-9592 6479 0
-9592 6481 0
9593 -6481 -6481 -6489 0
-9593 6481 0
-9593 6481 0
-9593 6489 0
-1492 6477 9591 8516 9592 9593 0
1492 -6477 0
1492 -9591 0
1492 -8516 0
1492 -9592 0
1492 -9593 0
9594 -6481 -8523 0
-9594 6481 0
-9594 8523 0
9595 -6479 -8523 0
-9595 6479 0
-9595 8523 0
9596 -6479 -8349 0
-9596 6479 0
-9596 8349 0
9597 -6481 -8349 -6489 0
-9597 6481 0
-9597 8349 0
-9597 6489 0
-1495 8356 9594 9595 9596 9597 0
1495 -8356 0
1495 -9594 0
1495 -9595 0
1495 -9596 0
1495 -9597 0
9598 -6481 -6467 0
-9598 6481 0
-9598 6467 0
9599 -6479 -6470 0
-9599 6479 0
-9599 6470 0
9600 -6479 -6467 0
-9600 6479 0
-9600 6467 0
9601 -6481 -6470 -6489 0
-9601 6481 0
-9601 6470 0
-9601 6489 0
-1498 6458 9598 9599 9600 9601 0
1498 -6458 0
1498 -9598 0
1498 -9599 0
1498 -9600 0
1498 -9601 0
9602 -6483 -6467 0
-9602 6483 0
-9602 6467 0
9603 -6487 -6467 0
-9603 6487 0
-9603 6467 0
9604 -6487 -6470 0
-9604 6487 0
-9604 6470 0
9605 -6483 -6470 -6489 0
-9605 6483 0
-9605 6470 0
-9605 6489 0
-1501 6461 9602 9603 9604 9605 0
1501 -6461 0
1501 -9602 0
1501 -9603 0
1501 -9604 0
1501 -9605 0
9606 -8349 -6485 0
-9606 8349 0
-9606 6485 0
9607 -8523 -6473 0
-9607 8523 0
-9607 6473 0
9608 -8523 -6485 0
-9608 8523 0
-9608 6485 0
9609 -8349 -6473 -6489 0
-9609 8349 0
-9609 6473 0
-9609 6489 0
-1494 8360 9606 9607 9608 9609 0
1494 -8360 0
1494 -9606 0
1494 -9607 0
1494 -9608 0
1494 -9609 0
9610 -8349 -6487 0
-9610 8349 0
-9610 6487 0
9611 -8523 -6483 0
-9611 8523 0
-9611 6483 0
9612 -8523 -6487 0
-9612 8523 0
-9612 6487 0
9613 -8349 -6483 -6489 0
-9613 8349 0
-9613 6483 0
-9613 6489 0
-1503 8362 9610 9611 9612 9613 0
1503 -8362 0
1503 -9610 0
1503 -9611 0
1503 -9612 0
1503 -9613 0
9614 -8349 -8523 0
-9614 8349 0
-9614 8523 0
8615 -8523 -8523 0
-8615 8523 0
-8615 8523 0
9615 -8523 -8349 0
-9615 8523 0
-9615 8349 0
9616 -8349 -8349 -6489 0
-9616 8349 0
-9616 8349 0
-9616 6489 0
-1506 8364 9614 8615 9615 9616 0
1506 -8364 0
1506 -9614 0
1506 -8615 0
1506 -9615 0
1506 -9616 0
9617 -7777 -7770 0
-9617 7777 0
-9617 7770 0
9618 -7770 -7770 0
-9618 7770 0
-9618 7770 0
9619 -7770 -7777 0
-9619 7770 0
-9619 7777 0
9620 -7777 -7777 -7813 0
-9620 7777 0
-9620 7777 0
-9620 7813 0
-6387 7763 9617 9618 9619 9620 0
6387 -7763 0
6387 -9617 0
6387 -9618 0
6387 -9619 0
6387 -9620 0
9621 -7777 -7765 0
-9621 7777 0
-9621 7765 0
9622 -7770 -7765 0
-9622 7770 0
-9622 7765 0
9623 -7770 -7772 0
-9623 7770 0
-9623 7772 0
9624 -7777 -7772 -7813 0
-9624 7777 0
-9624 7772 0
-9624 7813 0
-6383 7758 9621 9622 9623 9624 0
6383 -7758 0
6383 -9621 0
6383 -9622 0
6383 -9623 0
6383 -9624 0
9625 -7777 -7768 0
-9625 7777 0
-9625 7768 0
9626 -7770 -7774 0
-9626 7770 0
-9626 7774 0
9627 -7770 -7768 0
-9627 7770 0
-9627 7768 0
9628 -7777 -7774 -7813 0
-9628 7777 0
-9628 7774 0
-9628 7813 0
-6401 7757 9625 9626 9627 9628 0
6401 -7757 0
6401 -9625 0
6401 -9626 0
6401 -9627 0
6401 -9628 0
9629 -7784 -7768 0
-9629 7784 0
-9629 7768 0
9630 -7808 -7768 0
-9630 7808 0
-9630 7768 0
9631 -7808 -7774 0
-9631 7808 0
-9631 7774 0
9632 -7784 -7774 -7813 0
-9632 7784 0
-9632 7774 0
-9632 7813 0
-6137 7779 9629 9630 9631 9632 0
6137 -7779 0
6137 -9629 0
6137 -9630 0
6137 -9631 0
6137 -9632 0
9633 -7777 -7818 0
-9633 7777 0
-9633 7818 0
9634 -7770 -7818 0
-9634 7770 0
-9634 7818 0
9635 -7770 -7838 0
-9635 7770 0
-9635 7838 0
9636 -7777 -7838 -7813 0
-9636 7777 0
-9636 7838 0
-9636 7813 0
-6390 7791 9633 9634 9635 9636 0
6390 -7791 0
6390 -9633 0
6390 -9634 0
6390 -9635 0
6390 -9636 0
9637 -7777 -7823 0
-9637 7777 0
-9637 7823 0
9638 -7770 -7828 0
-9638 7770 0
-9638 7828 0
9639 -7770 -7823 0
-9639 7770 0
-9639 7823 0
9640 -7777 -7828 -7813 0
-9640 7777 0
-9640 7828 0
-9640 7813 0
-6395 7798 9637 9638 9639 9640 0
6395 -7798 0
6395 -9637 0
6395 -9638 0
6395 -9639 0
6395 -9640 0
9641 -7784 -7823 0
-9641 7784 0
-9641 7823 0
9642 -7808 -7823 0
-9642 7808 0
-9642 7823 0
9643 -7808 -7828 0
-9643 7808 0
-9643 7828 0
9644 -7784 -7828 -7813 0
-9644 7784 0
-9644 7828 0
-9644 7813 0
-6134 7803 9641 9642 9643 9644 0
6134 -7803 0
6134 -9641 0
6134 -9642 0
6134 -9643 0
6134 -9644 0
9645 -7772 -7808 0
-9645 7772 0
-9645 7808 0
9646 -7765 -7784 0
-9646 7765 0
-9646 7784 0
9647 -7765 -7808 0
-9647 7765 0
-9647 7808 0
9648 -7772 -7784 -7813 0
-9648 7772 0
-9648 7784 0
-9648 7813 0
-6127 7781 9645 9646 9647 9648 0
6127 -7781 0
6127 -9645 0
6127 -9646 0
6127 -9647 0
6127 -9648 0
9649 -7772 -7765 0
-9649 7772 0
-9649 7765 0
7810 -7765 -7765 0
-7810 7765 0
-7810 7765 0
9650 -7765 -7772 0
-9650 7765 0
-9650 7772 0
9651 -7772 -7772 -7813 0
-9651 7772 0
-9651 7772 0
-9651 7813 0
-6129 7762 9649 7810 9650 9651 0
6129 -7762 0
6129 -9649 0
6129 -7810 0
6129 -9650 0
6129 -9651 0
9652 -7772 -7818 0
-9652 7772 0
-9652 7818 0
9653 -7765 -7818 0
-9653 7765 0
-9653 7818 0
9654 -7765 -7838 0
-9654 7765 0
-9654 7838 0
9655 -7772 -7838 -7813 0
-9655 7772 0
-9655 7838 0
-9655 7813 0
-6132 7786 9652 9653 9654 9655 0
6132 -7786 0
6132 -9652 0
6132 -9653 0
6132 -9654 0
6132 -9655 0
9656 -7772 -7823 0
-9656 7772 0
-9656 7823 0
9657 -7765 -7828 0
-9657 7765 0
-9657 7828 0
9658 -7765 -7823 0
-9658 7765 0
-9658 7823 0
9659 -7772 -7828 -7813 0
-9659 7772 0
-9659 7828 0
-9659 7813 0
-6135 7793 9656 9657 9658 9659 0
6135 -7793 0
6135 -9656 0
6135 -9657 0
6135 -9658 0
6135 -9659 0
9660 -7774 -7823 0
-9660 7774 0
-9660 7823 0
9661 -7768 -7823 0
-9661 7768 0
-9661 7823 0
9662 -7768 -7828 0
-9662 7768 0
-9662 7828 0
9663 -7774 -7828 -7813 0
-9663 7774 0
-9663 7828 0
-9663 7813 0
-6138 7795 9660 9661 9662 9663 0
6138 -7795 0
6138 -9660 0
6138 -9661 0
6138 -9662 0
6138 -9663 0
9664 -7838 -7808 0
-9664 7838 0
-9664 7808 0
9665 -7818 -7784 0
-9665 7818 0
-9665 7784 0
9666 -7818 -7808 0
-9666 7818 0
-9666 7808 0
9667 -7838 -7784 -7813 0
-9667 7838 0
-9667 7784 0
-9667 7813 0
-6131 7833 9664 9665 9666 9667 0
6131 -7833 0
6131 -9664 0
6131 -9665 0
6131 -9666 0
6131 -9667 0
9668 -7838 -7768 0
-9668 7838 0
-9668 7768 0
9669 -7818 -7774 0
-9669 7818 0
-9669 7774 0
9670 -7818 -7768 0
-9670 7818 0
-9670 7768 0
9671 -7838 -7774 -7813 0
-9671 7838 0
-9671 7774 0
-9671 7813 0
-6140 7789 9668 9669 9670 9671 0
6140 -7789 0
6140 -9668 0
6140 -9669 0
6140 -9670 0
6140 -9671 0
9672 -7838 -7818 0
-9672 7838 0
-9672 7818 0
9673 -7818 -7818 0
-9673 7818 0
-9673 7818 0
9674 -7818 -7838 0
-9674 7818 0
-9674 7838 0
9675 -7838 -7838 -7813 0
-9675 7838 0
-9675 7838 0
-9675 7813 0
-6143 7843 9672 9673 9674 9675 0
6143 -7843 0
6143 -9672 0
6143 -9673 0
6143 -9674 0
6143 -9675 0
9676 -9472 -9472 0
-9676 9472 0
-9676 9472 0
-4485 9478 9676 0
4485 -9478 0
4485 -9676 0
9677 -9472 -9483 0
-9677 9472 0
-9677 9483 0
-4481 9485 9677 0
4481 -9485 0
4481 -9677 0
9678 -9472 -9489 0
-9678 9472 0
-9678 9489 0
-4499 9492 9678 0
4499 -9492 0
4499 -9678 0
9679 -9494 -9489 0
-9679 9494 0
-9679 9489 0
-3065 9499 9679 0
3065 -9499 0
3065 -9679 0
9680 -9472 -9504 0
-9680 9472 0
-9680 9504 0
-4488 9506 9680 0
4488 -9506 0
4488 -9680 0
9681 -9472 -9510 0
-9681 9472 0
-9681 9510 0
-4493 9513 9681 0
4493 -9513 0
4493 -9681 0
9682 -9494 -9510 0
-9682 9494 0
-9682 9510 0
-3062 9518 9682 0
3062 -9518 0
3062 -9682 0
9683 -9483 -9494 0
-9683 9483 0
-9683 9494 0
-3055 9523 9683 0
3055 -9523 0
3055 -9683 0
9684 -9483 -9483 0
-9684 9483 0
-9684 9483 0
-3057 9528 9684 0
3057 -9528 0
3057 -9684 0
9685 -9483 -9504 0
-9685 9483 0
-9685 9504 0
-3060 9533 9685 0
3060 -9533 0
3060 -9685 0
9686 -9483 -9510 0
-9686 9483 0
-9686 9510 0
-3063 9538 9686 0
3063 -9538 0
3063 -9686 0
9687 -9489 -9510 0
-9687 9489 0
-9687 9510 0
-3066 9543 9687 0
3066 -9543 0
3066 -9687 0
9688 -9504 -9494 0
-9688 9504 0
-9688 9494 0
-3059 9548 9688 0
3059 -9548 0
3059 -9688 0
9689 -9504 -9489 0
-9689 9504 0
-9689 9489 0
-3068 9553 9689 0
3068 -9553 0
3068 -9689 0
9690 -9504 -9504 0
-9690 9504 0
-9690 9504 0
-3071 9558 9690 0
3071 -9558 0
3071 -9690 0
9691 -7128 -9692 0
-9691 7128 0
-9691 9692 0
9693 -9692 -9692 0
-9693 9692 0
-9693 9692 0
9694 -9692 -7128 0
-9694 9692 0
-9694 7128 0
9695 -7128 -7128 -9696 0
-9695 7128 0
-9695 7128 0
-9695 9696 0
-2944 7129 9691 9693 9694 9695 0
2944 -7129 0
2944 -9691 0
2944 -9693 0
2944 -9694 0
2944 -9695 0
9697 -7128 -9698 0
-9697 7128 0
-9697 9698 0
9699 -9692 -9698 0
-9699 9692 0
-9699 9698 0
9700 -9692 -7131 0
-9700 9692 0
-9700 7131 0
9701 -7128 -7131 -9696 0
-9701 7128 0
-9701 7131 0
-9701 9696 0
-2940 7132 9697 9699 9700 9701 0
2940 -7132 0
2940 -9697 0
2940 -9699 0
2940 -9700 0
2940 -9701 0
9702 -7128 -9703 0
-9702 7128 0
-9702 9703 0
9704 -9692 -7134 0
-9704 9692 0
-9704 7134 0
9705 -9692 -9703 0
-9705 9692 0
-9705 9703 0
9706 -7128 -7134 -9696 0
-9706 7128 0
-9706 7134 0
-9706 9696 0
-2964 7135 9702 9704 9705 9706 0
2964 -7135 0
2964 -9702 0
2964 -9704 0
2964 -9705 0
2964 -9706 0
9707 -7137 -9703 0
-9707 7137 0
-9707 9703 0
9708 -9709 -9703 0
-9708 9709 0
-9708 9703 0
9710 -9709 -7134 0
-9710 9709 0
-9710 7134 0
9711 -7137 -7134 -9696 0
-9711 7137 0
-9711 7134 0
-9711 9696 0
-2962 7138 9707 9708 9710 9711 0
2962 -7138 0
2962 -9707 0
2962 -9708 0
2962 -9710 0
2962 -9711 0
9712 -7128 -9713 0
-9712 7128 0
-9712 9713 0
9714 -9692 -9713 0
-9714 9692 0
-9714 9713 0
9715 -9692 -7140 0
-9715 9692 0
-9715 7140 0
9716 -7128 -7140 -9696 0
-9716 7128 0
-9716 7140 0
-9716 9696 0
-2948 7141 9712 9714 9715 9716 0
2948 -7141 0
2948 -9712 0
2948 -9714 0
2948 -9715 0
2948 -9716 0
9717 -7128 -9718 0
-9717 7128 0
-9717 9718 0
9719 -9692 -7143 0
-9719 9692 0
-9719 7143 0
9720 -9692 -9718 0
-9720 9692 0
-9720 9718 0
9721 -7128 -7143 -9696 0
-9721 7128 0
-9721 7143 0
-9721 9696 0
-2955 7144 9717 9719 9720 9721 0
2955 -7144 0
2955 -9717 0
2955 -9719 0
2955 -9720 0
2955 -9721 0
9722 -7137 -9718 0
-9722 7137 0
-9722 9718 0
9723 -9709 -9718 0
-9723 9709 0
-9723 9718 0
9724 -9709 -7143 0
-9724 9709 0
-9724 7143 0
9725 -7137 -7143 -9696 0
-9725 7137 0
-9725 7143 0
-9725 9696 0
-2957 7146 9722 9723 9724 9725 0
2957 -7146 0
2957 -9722 0
2957 -9723 0
2957 -9724 0
2957 -9725 0
9726 -7131 -9709 0
-9726 7131 0
-9726 9709 0
9727 -9698 -7137 0
-9727 9698 0
-9727 7137 0
9728 -9698 -9709 0
-9728 9698 0
-9728 9709 0
9729 -7131 -7137 -9696 0
-9729 7131 0
-9729 7137 0
-9729 9696 0
-2939 7148 9726 9727 9728 9729 0
2939 -7148 0
2939 -9726 0
2939 -9727 0
2939 -9728 0
2939 -9729 0
9730 -7131 -9698 0
-9730 7131 0
-9730 9698 0
9731 -9698 -9698 0
-9731 9698 0
-9731 9698 0
9732 -9698 -7131 0
-9732 9698 0
-9732 7131 0
9733 -7131 -7131 -9696 0
-9733 7131 0
-9733 7131 0
-9733 9696 0
-2946 7150 9730 9731 9732 9733 0
2946 -7150 0
2946 -9730 0
2946 -9731 0
2946 -9732 0
2946 -9733 0
9734 -7131 -9713 0
-9734 7131 0
-9734 9713 0
9735 -9698 -9713 0
-9735 9698 0
-9735 9713 0
9736 -9698 -7140 0
-9736 9698 0
-9736 7140 0
9737 -7131 -7140 -9696 0
-9737 7131 0
-9737 7140 0
-9737 9696 0
-2953 7152 9734 9735 9736 9737 0
2953 -7152 0
2953 -9734 0
2953 -9735 0
2953 -9736 0
2953 -9737 0
9738 -7131 -9718 0
-9738 7131 0
-9738 9718 0
9739 -9698 -7143 0
-9739 9698 0
-9739 7143 0
9740 -9698 -9718 0
-9740 9698 0
-9740 9718 0
9741 -7131 -7143 -9696 0
-9741 7131 0
-9741 7143 0
-9741 9696 0
-2960 7154 9738 9739 9740 9741 0
2960 -7154 0
2960 -9738 0
2960 -9739 0
2960 -9740 0
2960 -9741 0
9742 -7134 -9718 0
-9742 7134 0
-9742 9718 0
9743 -9703 -9718 0
-9743 9703 0
-9743 9718 0
9744 -9703 -7143 0
-9744 9703 0
-9744 7143 0
9745 -7134 -7143 -9696 0
-9745 7134 0
-9745 7143 0
-9745 9696 0
-2967 7156 9742 9743 9744 9745 0
2967 -7156 0
2967 -9742 0
2967 -9743 0
2967 -9744 0
2967 -9745 0
9746 -7140 -9709 0
-9746 7140 0
-9746 9709 0
9747 -9713 -7137 0
-9747 9713 0
-9747 7137 0
9748 -9713 -9709 0
-9748 9713 0
-9748 9709 0
9749 -7140 -7137 -9696 0
-9749 7140 0
-9749 7137 0
-9749 9696 0
-2951 7158 9746 9747 9748 9749 0
2951 -7158 0
2951 -9746 0
2951 -9747 0
2951 -9748 0
2951 -9749 0
9750 -7140 -9703 0
-9750 7140 0
-9750 9703 0
9751 -9713 -7134 0
-9751 9713 0
-9751 7134 0
9752 -9713 -9703 0
-9752 9713 0
-9752 9703 0
9753 -7140 -7134 -9696 0
-9753 7140 0
-9753 7134 0
-9753 9696 0
-2972 7160 9750 9751 9752 9753 0
2972 -7160 0
2972 -9750 0
2972 -9751 0
2972 -9752 0
2972 -9753 0
9754 -7140 -9713 0
-9754 7140 0
-9754 9713 0
9755 -9713 -9713 0
-9755 9713 0
-9755 9713 0
9756 -9713 -7140 0
-9756 9713 0
-9756 7140 0
9757 -7140 -7140 -9696 0
-9757 7140 0
-9757 7140 0
-9757 9696 0
-2978 7162 9754 9755 9756 9757 0
2978 -7162 0
2978 -9754 0
2978 -9755 0
2978 -9756 0
2978 -9757 0
9758 -6901 -6901 0
-9758 6901 0
-9758 6901 0
-5914 6907 9758 0
5914 -6907 0
5914 -9758 0
9759 -6901 -6912 0
-9759 6901 0
-9759 6912 0
-5910 6914 9759 0
5910 -6914 0
5910 -9759 0
9760 -6901 -6918 0
-9760 6901 0
-9760 6918 0
-5928 6921 9760 0
5928 -6921 0
5928 -9760 0
9761 -6923 -6918 0
-9761 6923 0
-9761 6918 0
-1536 6928 9761 0
1536 -6928 0
1536 -9761 0
9762 -6901 -6933 0
-9762 6901 0
-9762 6933 0
-5917 6935 9762 0
5917 -6935 0
5917 -9762 0
9763 -6901 -6939 0
-9763 6901 0
-9763 6939 0
-5922 6942 9763 0
5922 -6942 0
5922 -9763 0
9764 -6923 -6939 0
-9764 6923 0
-9764 6939 0
-1533 6947 9764 0
1533 -6947 0
1533 -9764 0
9765 -6912 -6923 0
-9765 6912 0
-9765 6923 0
-1526 6952 9765 0
1526 -6952 0
1526 -9765 0
9766 -6912 -6912 0
-9766 6912 0
-9766 6912 0
-1528 6957 9766 0
1528 -6957 0
1528 -9766 0
9767 -6912 -6933 0
-9767 6912 0
-9767 6933 0
-1531 6962 9767 0
1531 -6962 0
1531 -9767 0
9768 -6912 -6939 0
-9768 6912 0
-9768 6939 0
-1534 6967 9768 0
1534 -6967 0
1534 -9768 0
9769 -6918 -6939 0
-9769 6918 0
-9769 6939 0
-1537 6972 9769 0
1537 -6972 0
1537 -9769 0
9770 -6933 -6923 0
-9770 6933 0
-9770 6923 0
-1530 6977 9770 0
1530 -6977 0
1530 -9770 0
9771 -6933 -6918 0
-9771 6933 0
-9771 6918 0
-1539 6982 9771 0
1539 -6982 0
1539 -9771 0
9772 -6933 -6933 0
-9772 6933 0
-9772 6933 0
-1542 6987 9772 0
1542 -6987 0
1542 -9772 0
9773 -7184 -7177 0
-9773 7184 0
-9773 7177 0
9774 -7177 -7177 0
-9774 7177 0
-9774 7177 0
9775 -7177 -7184 0
-9775 7177 0
-9775 7184 0
9776 -7184 -7184 -7220 0
-9776 7184 0
-9776 7184 0
-9776 7220 0
-2481 7170 9773 9774 9775 9776 0
2481 -7170 0
2481 -9773 0
2481 -9774 0
2481 -9775 0
2481 -9776 0
9777 -7184 -7172 0
-9777 7184 0
-9777 7172 0
9778 -7177 -7172 0
-9778 7177 0
-9778 7172 0
9779 -7177 -7179 0
-9779 7177 0
-9779 7179 0
9780 -7184 -7179 -7220 0
-9780 7184 0
-9780 7179 0
-9780 7220 0
-2475 7165 9777 9778 9779 9780 0
2475 -7165 0
2475 -9777 0
2475 -9778 0
2475 -9779 0
2475 -9780 0
9781 -7184 -7175 0
-9781 7184 0
-9781 7175 0
9782 -7177 -7181 0
-9782 7177 0
-9782 7181 0
9783 -7177 -7175 0
-9783 7177 0
-9783 7175 0
9784 -7184 -7181 -7220 0
-9784 7184 0
-9784 7181 0
-9784 7220 0
-2474 7164 9781 9782 9783 9784 0
2474 -7164 0
2474 -9781 0
2474 -9782 0
2474 -9783 0
2474 -9784 0
9785 -7191 -7175 0
-9785 7191 0
-9785 7175 0
9786 -7215 -7175 0
-9786 7215 0
-9786 7175 0
9787 -7215 -7181 0
-9787 7215 0
-9787 7181 0
9788 -7191 -7181 -7220 0
-9788 7191 0
-9788 7181 0
-9788 7220 0
-2497 7186 9785 9786 9787 9788 0
2497 -7186 0
2497 -9785 0
2497 -9786 0
2497 -9787 0
2497 -9788 0
9789 -7184 -7225 0
-9789 7184 0
-9789 7225 0
9790 -7177 -7225 0
-9790 7177 0
-9790 7225 0
9791 -7177 -7245 0
-9791 7177 0
-9791 7245 0
9792 -7184 -7245 -7220 0
-9792 7184 0
-9792 7245 0
-9792 7220 0
-2488 7198 9789 9790 9791 9792 0
2488 -7198 0
2488 -9789 0
2488 -9790 0
2488 -9791 0
2488 -9792 0
9793 -7184 -7230 0
-9793 7184 0
-9793 7230 0
9794 -7177 -7235 0
-9794 7177 0
-9794 7235 0
9795 -7177 -7230 0
-9795 7177 0
-9795 7230 0
9796 -7184 -7235 -7220 0
-9796 7184 0
-9796 7235 0
-9796 7220 0
-2495 7205 9793 9794 9795 9796 0
2495 -7205 0
2495 -9793 0
2495 -9794 0
2495 -9795 0
2495 -9796 0
9797 -7191 -7230 0
-9797 7191 0
-9797 7230 0
9798 -7215 -7230 0
-9798 7215 0
-9798 7230 0
9799 -7215 -7235 0
-9799 7215 0
-9799 7235 0
9800 -7191 -7235 -7220 0
-9800 7191 0
-9800 7235 0
-9800 7220 0
-2502 7210 9797 9798 9799 9800 0
2502 -7210 0
2502 -9797 0
2502 -9798 0
2502 -9799 0
2502 -9800 0
9801 -7179 -7215 0
-9801 7179 0
-9801 7215 0
9802 -7172 -7191 0
-9802 7172 0
-9802 7191 0
9803 -7172 -7215 0
-9803 7172 0
-9803 7215 0
9804 -7179 -7191 -7220 0
-9804 7179 0
-9804 7191 0
-9804 7220 0
-2499 7188 9801 9802 9803 9804 0
2499 -7188 0
2499 -9801 0
2499 -9802 0
2499 -9803 0
2499 -9804 0
9805 -7179 -7172 0
-9805 7179 0
-9805 7172 0
7217 -7172 -7172 0
-7217 7172 0
-7217 7172 0
9806 -7172 -7179 0
-9806 7172 0
-9806 7179 0
9807 -7179 -7179 -7220 0
-9807 7179 0
-9807 7179 0
-9807 7220 0
-2479 7169 9805 7217 9806 9807 0
2479 -7169 0
2479 -9805 0
2479 -7217 0
2479 -9806 0
2479 -9807 0
9808 -7179 -7225 0
-9808 7179 0
-9808 7225 0
9809 -7172 -7225 0
-9809 7172 0
-9809 7225 0
9810 -7172 -7245 0
-9810 7172 0
-9810 7245 0
9811 -7179 -7245 -7220 0
-9811 7179 0
-9811 7245 0
-9811 7220 0
-2483 7193 9808 9809 9810 9811 0
2483 -7193 0
2483 -9808 0
2483 -9809 0
2483 -9810 0
2483 -9811 0
9812 -7179 -7230 0
-9812 7179 0
-9812 7230 0
9813 -7172 -7235 0
-9813 7172 0
-9813 7235 0
9814 -7172 -7230 0
-9814 7172 0
-9814 7230 0
9815 -7179 -7235 -7220 0
-9815 7179 0
-9815 7235 0
-9815 7220 0
-2490 7200 9812 9813 9814 9815 0
2490 -7200 0
2490 -9812 0
2490 -9813 0
2490 -9814 0
2490 -9815 0
9816 -7181 -7230 0
-9816 7181 0
-9816 7230 0
9817 -7175 -7230 0
-9817 7175 0
-9817 7230 0
9818 -7175 -7235 0
-9818 7175 0
-9818 7235 0
9819 -7181 -7235 -7220 0
-9819 7181 0
-9819 7235 0
-9819 7220 0
-2492 7202 9816 9817 9818 9819 0
2492 -7202 0
2492 -9816 0
2492 -9817 0
2492 -9818 0
2492 -9819 0
9820 -7245 -7215 0
-9820 7245 0
-9820 7215 0
9821 -7225 -7191 0
-9821 7225 0
-9821 7191 0
9822 -7225 -7215 0
-9822 7225 0
-9822 7215 0
9823 -7245 -7191 -7220 0
-9823 7245 0
-9823 7191 0
-9823 7220 0
-2507 7240 9820 9821 9822 9823 0
2507 -7240 0
2507 -9820 0
2507 -9821 0
2507 -9822 0
2507 -9823 0
9824 -7245 -7175 0
-9824 7245 0
-9824 7175 0
9825 -7225 -7181 0
-9825 7225 0
-9825 7181 0
9826 -7225 -7175 0
-9826 7225 0
-9826 7175 0
9827 -7245 -7181 -7220 0
-9827 7245 0
-9827 7181 0
-9827 7220 0
-2486 7196 9824 9825 9826 9827 0
2486 -7196 0
2486 -9824 0
2486 -9825 0
2486 -9826 0
2486 -9827 0
9828 -7245 -7225 0
-9828 7245 0
-9828 7225 0
9829 -7225 -7225 0
-9829 7225 0
-9829 7225 0
9830 -7225 -7245 0
-9830 7225 0
-9830 7245 0
9831 -7245 -7245 -7220 0
-9831 7245 0
-9831 7245 0
-9831 7220 0
-2513 7250 9828 9829 9830 9831 0
2513 -7250 0
2513 -9828 0
2513 -9829 0
2513 -9830 0
2513 -9831 0
9832 -7164 -7164 0
-9832 7164 0
-9832 7164 0
-4405 7170 9832 0
4405 -7170 0
4405 -9832 0
9833 -7164 -7175 0
-9833 7164 0
-9833 7175 0
-4401 7177 9833 0
4401 -7177 0
4401 -9833 0
9834 -7164 -7181 0
-9834 7164 0
-9834 7181 0
-4419 7184 9834 0
4419 -7184 0
4419 -9834 0
9835 -7186 -7181 0
-9835 7186 0
-9835 7181 0
-4359 7191 9835 0
4359 -7191 0
4359 -9835 0
9836 -7164 -7196 0
-9836 7164 0
-9836 7196 0
-4408 7198 9836 0
4408 -7198 0
4408 -9836 0
9837 -7164 -7202 0
-9837 7164 0
-9837 7202 0
-4413 7205 9837 0
4413 -7205 0
4413 -9837 0
9838 -7186 -7202 0
-9838 7186 0
-9838 7202 0
-4356 7210 9838 0
4356 -7210 0
4356 -9838 0
9839 -7175 -7186 0
-9839 7175 0
-9839 7186 0
-4349 7215 9839 0
4349 -7215 0
4349 -9839 0
9840 -7175 -7175 0
-9840 7175 0
-9840 7175 0
-4351 7220 9840 0
4351 -7220 0
4351 -9840 0
9841 -7175 -7196 0
-9841 7175 0
-9841 7196 0
-4354 7225 9841 0
4354 -7225 0
4354 -9841 0
9842 -7175 -7202 0
-9842 7175 0
-9842 7202 0
-4357 7230 9842 0
4357 -7230 0
4357 -9842 0
9843 -7181 -7202 0
-9843 7181 0
-9843 7202 0
-4360 7235 9843 0
4360 -7235 0
4360 -9843 0
9844 -7196 -7186 0
-9844 7196 0
-9844 7186 0
-4353 7240 9844 0
4353 -7240 0
4353 -9844 0
9845 -7196 -7181 0
-9845 7196 0
-9845 7181 0
-4362 7245 9845 0
4362 -7245 0
4362 -9845 0
9846 -7196 -7196 0
-9846 7196 0
-9846 7196 0
-4365 7250 9846 0
4365 -7250 0
4365 -9846 0
9847 -6762 -6762 0
-9847 6762 0
-9847 6762 0
-4885 6756 9847 0
4885 -6756 0
4885 -9847 0
9848 -6762 -8171 0
-9848 6762 0
-9848 8171 0
-4881 8159 9848 0
4881 -8159 0
4881 -9848 0
9849 -6762 -6761 0
-9849 6762 0
-9849 6761 0
-4905 6755 9849 0
4905 -6755 0
4905 -9849 0
9850 -6765 -6761 0
-9850 6765 0
-9850 6761 0
-4903 6764 9850 0
4903 -6764 0
4903 -9850 0
9851 -6762 -6787 0
-9851 6762 0
-9851 6787 0
-4889 6768 9851 0
4889 -6768 0
4889 -9851 0
9852 -6762 -6783 0
-9852 6762 0
-9852 6783 0
-4896 6771 9852 0
4896 -6771 0
4896 -9852 0
9853 -6765 -6783 0
-9853 6765 0
-9853 6783 0
-4898 6773 9853 0
4898 -6773 0
4898 -9853 0
9854 -8171 -6765 0
-9854 8171 0
-9854 6765 0
-4880 8169 9854 0
4880 -8169 0
4880 -9854 0
9855 -8171 -8171 0
-9855 8171 0
-9855 8171 0
-4887 8173 9855 0
4887 -8173 0
4887 -9855 0
9856 -8171 -6787 0
-9856 8171 0
-9856 6787 0
-4894 9190 9856 0
4894 -9190 0
4894 -9856 0
9857 -8171 -6783 0
-9857 8171 0
-9857 6783 0
-4901 8158 9857 0
4901 -8158 0
4901 -9857 0
9858 -6761 -6783 0
-9858 6761 0
-9858 6783 0
-4908 6770 9858 0
4908 -6770 0
4908 -9858 0
9859 -6787 -6765 0
-9859 6787 0
-9859 6765 0
-4892 6785 9859 0
4892 -6785 0
4892 -9859 0
9860 -6787 -6761 0
-9860 6787 0
-9860 6761 0
-4913 6767 9860 0
4913 -6767 0
4913 -9860 0
9861 -6787 -6787 0
-9861 6787 0
-9861 6787 0
-4919 6789 9861 0
4919 -6789 0
4919 -9861 0
9862 -7025 -7025 0
-9862 7025 0
-9862 7025 0
-1590 7031 9862 0
1590 -7031 0
1590 -9862 0
9863 -7025 -7036 0
-9863 7025 0
-9863 7036 0
-1586 7038 9863 0
1586 -7038 0
1586 -9863 0
9864 -7025 -7042 0
-9864 7025 0
-9864 7042 0
-1610 7045 9864 0
1610 -7045 0
1610 -9864 0
9865 -7047 -7042 0
-9865 7047 0
-9865 7042 0
-1608 7052 9865 0
1608 -7052 0
1608 -9865 0
9866 -7025 -7057 0
-9866 7025 0
-9866 7057 0
-1594 7059 9866 0
1594 -7059 0
1594 -9866 0
9867 -7025 -7063 0
-9867 7025 0
-9867 7063 0
-1601 7066 9867 0
1601 -7066 0
1601 -9867 0
9868 -7047 -7063 0
-9868 7047 0
-9868 7063 0
-1603 7071 9868 0
1603 -7071 0
1603 -9868 0
9869 -7036 -7047 0
-9869 7036 0
-9869 7047 0
-1585 7076 9869 0
1585 -7076 0
1585 -9869 0
9870 -7036 -7036 0
-9870 7036 0
-9870 7036 0
-1592 7081 9870 0
1592 -7081 0
1592 -9870 0
9871 -7036 -7057 0
-9871 7036 0
-9871 7057 0
-1599 7086 9871 0
1599 -7086 0
1599 -9871 0
9872 -7036 -7063 0
-9872 7036 0
-9872 7063 0
-1606 7091 9872 0
1606 -7091 0
1606 -9872 0
9873 -7042 -7063 0
-9873 7042 0
-9873 7063 0
-1613 7096 9873 0
1613 -7096 0
1613 -9873 0
9874 -7057 -7047 0
-9874 7057 0
-9874 7047 0
-1597 7101 9874 0
1597 -7101 0
1597 -9874 0
9875 -7057 -7042 0
-9875 7057 0
-9875 7042 0
-1618 7106 9875 0
1618 -7106 0
1618 -9875 0
9876 -7057 -7057 0
-9876 7057 0
-9876 7057 0
-1624 7111 9876 0
1624 -7111 0
1624 -9876 0
9877 -8007 -8007 0
-9877 8007 0
-9877 8007 0
-6149 8013 9877 0
6149 -8013 0
6149 -9877 0
9878 -8007 -8018 0
-9878 8007 0
-9878 8018 0
-6145 8020 9878 0
6145 -8020 0
6145 -9878 0
9879 -8007 -8024 0
-9879 8007 0
-9879 8024 0
-6163 8027 9879 0
6163 -8027 0
6163 -9879 0
9880 -8029 -8024 0
-9880 8029 0
-9880 8024 0
-1903 8034 9880 0
1903 -8034 0
1903 -9880 0
9881 -8007 -8039 0
-9881 8007 0
-9881 8039 0
-6152 8041 9881 0
6152 -8041 0
6152 -9881 0
9882 -8007 -8045 0
-9882 8007 0
-9882 8045 0
-6157 8048 9882 0
6157 -8048 0
6157 -9882 0
9883 -8029 -8045 0
-9883 8029 0
-9883 8045 0
-1900 8053 9883 0
1900 -8053 0
1900 -9883 0
9884 -8018 -8029 0
-9884 8018 0
-9884 8029 0
-1893 8058 9884 0
1893 -8058 0
1893 -9884 0
9885 -8018 -8018 0
-9885 8018 0
-9885 8018 0
-1895 8063 9885 0
1895 -8063 0
1895 -9885 0
9886 -8018 -8039 0
-9886 8018 0
-9886 8039 0
-1898 8068 9886 0
1898 -8068 0
1898 -9886 0
9887 -8018 -8045 0
-9887 8018 0
-9887 8045 0
-1901 8073 9887 0
1901 -8073 0
1901 -9887 0
9888 -8024 -8045 0
-9888 8024 0
-9888 8045 0
-1904 8078 9888 0
1904 -8078 0
1904 -9888 0
9889 -8039 -8029 0
-9889 8039 0
-9889 8029 0
-1897 8083 9889 0
1897 -8083 0
1897 -9889 0
9890 -8039 -8024 0
-9890 8039 0
-9890 8024 0
-1906 8088 9890 0
1906 -8088 0
1906 -9890 0
9891 -8039 -8039 0
-9891 8039 0
-9891 8039 0
-1909 8093 9891 0
1909 -8093 0
1909 -9891 0
9892 -6599 -6599 0
-9892 6599 0
-9892 6599 0
-5842 6585 9892 0
5842 -6585 0
5842 -9892 0
9893 -6599 -6594 0
-9893 6599 0
-9893 6594 0
-5838 6580 9893 0
5838 -6580 0
5838 -9893 0
9894 -6599 -6596 0
-9894 6599 0
-9894 6596 0
-5856 6579 9894 0
5856 -6579 0
5856 -9894 0
9895 -6606 -6596 0
-9895 6606 0
-9895 6596 0
-5252 6601 9895 0
5252 -6601 0
5252 -9895 0
9896 -6599 -6660 0
-9896 6599 0
-9896 6660 0
-5845 6613 9896 0
5845 -6613 0
5845 -9896 0
9897 -6599 -6650 0
-9897 6599 0
-9897 6650 0
-5850 6620 9897 0
5850 -6620 0
5850 -9897 0
9898 -6606 -6650 0
-9898 6606 0
-9898 6650 0
-5249 6625 9898 0
5249 -6625 0
5249 -9898 0
9899 -6594 -6606 0
-9899 6594 0
-9899 6606 0
-5242 6603 9899 0
5242 -6603 0
5242 -9899 0
9900 -6594 -6594 0
-9900 6594 0
-9900 6594 0
-5244 6584 9900 0
5244 -6584 0
5244 -9900 0
9901 -6594 -6660 0
-9901 6594 0
-9901 6660 0
-5247 6608 9901 0
5247 -6608 0
5247 -9901 0
9902 -6594 -6650 0
-9902 6594 0
-9902 6650 0
-5250 6615 9902 0
5250 -6615 0
5250 -9902 0
9903 -6596 -6650 0
-9903 6596 0
-9903 6650 0
-5253 6617 9903 0
5253 -6617 0
5253 -9903 0
9904 -6660 -6606 0
-9904 6660 0
-9904 6606 0
-5246 6655 9904 0
5246 -6655 0
5246 -9904 0
9905 -6660 -6596 0
-9905 6660 0
-9905 6596 0
-5255 6611 9905 0
5255 -6611 0
5255 -9905 0
9906 -6660 -6660 0
-9906 6660 0
-9906 6660 0
-5258 6665 9906 0
5258 -6665 0
5258 -9906 0
9907 -9339 -9908 0
-9907 9339 0
-9907 9908 0
9909 -9908 -9908 0
-9909 9908 0
-9909 9908 0
9910 -9908 -9339 0
-9910 9908 0
-9910 9339 0
9911 -9339 -9339 -9912 0
-9911 9339 0
-9911 9339 0
-9911 9912 0
-4549 9340 9907 9909 9910 9911 0
4549 -9340 0
4549 -9907 0
4549 -9909 0
4549 -9910 0
4549 -9911 0
9913 -9339 -9914 0
-9913 9339 0
-9913 9914 0
9915 -9908 -9914 0
-9915 9908 0
-9915 9914 0
9916 -9908 -9342 0
-9916 9908 0
-9916 9342 0
9917 -9339 -9342 -9912 0
-9917 9339 0
-9917 9342 0
-9917 9912 0
-4545 9343 9913 9915 9916 9917 0
4545 -9343 0
4545 -9913 0
4545 -9915 0
4545 -9916 0
4545 -9917 0
9918 -9339 -9919 0
-9918 9339 0
-9918 9919 0
9920 -9908 -9345 0
-9920 9908 0
-9920 9345 0
9921 -9908 -9919 0
-9921 9908 0
-9921 9919 0
9922 -9339 -9345 -9912 0
-9922 9339 0
-9922 9345 0
-9922 9912 0
-4563 9346 9918 9920 9921 9922 0
4563 -9346 0
4563 -9918 0
4563 -9920 0
4563 -9921 0
4563 -9922 0
9923 -9348 -9919 0
-9923 9348 0
-9923 9919 0
9924 -9925 -9919 0
-9924 9925 0
-9924 9919 0
9926 -9925 -9345 0
-9926 9925 0
-9926 9345 0
9927 -9348 -9345 -9912 0
-9927 9348 0
-9927 9345 0
-9927 9912 0
-2027 9349 9923 9924 9926 9927 0
2027 -9349 0
2027 -9923 0
2027 -9924 0
2027 -9926 0
2027 -9927 0
9928 -9339 -9929 0
-9928 9339 0
-9928 9929 0
9930 -9908 -9929 0
-9930 9908 0
-9930 9929 0
9931 -9908 -9351 0
-9931 9908 0
-9931 9351 0
9932 -9339 -9351 -9912 0
-9932 9339 0
-9932 9351 0
-9932 9912 0
-4552 9352 9928 9930 9931 9932 0
4552 -9352 0
4552 -9928 0
4552 -9930 0
4552 -9931 0
4552 -9932 0
9933 -9339 -9934 0
-9933 9339 0
-9933 9934 0
9935 -9908 -9354 0
-9935 9908 0
-9935 9354 0
9936 -9908 -9934 0
-9936 9908 0
-9936 9934 0
9937 -9339 -9354 -9912 0
-9937 9339 0
-9937 9354 0
-9937 9912 0
-4557 9355 9933 9935 9936 9937 0
4557 -9355 0
4557 -9933 0
4557 -9935 0
4557 -9936 0
4557 -9937 0
9938 -9348 -9934 0
-9938 9348 0
-9938 9934 0
9939 -9925 -9934 0
-9939 9925 0
-9939 9934 0
9940 -9925 -9354 0
-9940 9925 0
-9940 9354 0
9941 -9348 -9354 -9912 0
-9941 9348 0
-9941 9354 0
-9941 9912 0
-2024 9357 9938 9939 9940 9941 0
2024 -9357 0
2024 -9938 0
2024 -9939 0
2024 -9940 0
2024 -9941 0
9942 -9342 -9925 0
-9942 9342 0
-9942 9925 0
9943 -9914 -9348 0
-9943 9914 0
-9943 9348 0
9944 -9914 -9925 0
-9944 9914 0
-9944 9925 0
9945 -9342 -9348 -9912 0
-9945 9342 0
-9945 9348 0
-9945 9912 0
-2017 9359 9942 9943 9944 9945 0
2017 -9359 0
2017 -9942 0
2017 -9943 0
2017 -9944 0
2017 -9945 0
9946 -9342 -9914 0
-9946 9342 0
-9946 9914 0
9947 -9914 -9914 0
-9947 9914 0
-9947 9914 0
9948 -9914 -9342 0
-9948 9914 0
-9948 9342 0
9949 -9342 -9342 -9912 0
-9949 9342 0
-9949 9342 0
-9949 9912 0
-2019 9361 9946 9947 9948 9949 0
2019 -9361 0
2019 -9946 0
2019 -9947 0
2019 -9948 0
2019 -9949 0
9950 -9342 -9929 0
-9950 9342 0
-9950 9929 0
9951 -9914 -9929 0
-9951 9914 0
-9951 9929 0
9952 -9914 -9351 0
-9952 9914 0
-9952 9351 0
9953 -9342 -9351 -9912 0
-9953 9342 0
-9953 9351 0
-9953 9912 0
-2022 9363 9950 9951 9952 9953 0
2022 -9363 0
2022 -9950 0
2022 -9951 0
2022 -9952 0
2022 -9953 0
9954 -9342 -9934 0
-9954 9342 0
-9954 9934 0
9955 -9914 -9354 0
-9955 9914 0
-9955 9354 0
9956 -9914 -9934 0
-9956 9914 0
-9956 9934 0
9957 -9342 -9354 -9912 0
-9957 9342 0
-9957 9354 0
-9957 9912 0
-2025 9365 9954 9955 9956 9957 0
2025 -9365 0
2025 -9954 0
2025 -9955 0
2025 -9956 0
2025 -9957 0
9958 -9345 -9934 0
-9958 9345 0
-9958 9934 0
9959 -9919 -9934 0
-9959 9919 0
-9959 9934 0
9960 -9919 -9354 0
-9960 9919 0
-9960 9354 0
9961 -9345 -9354 -9912 0
-9961 9345 0
-9961 9354 0
-9961 9912 0
-2028 9367 9958 9959 9960 9961 0
2028 -9367 0
2028 -9958 0
2028 -9959 0
2028 -9960 0
2028 -9961 0
9962 -9351 -9925 0
-9962 9351 0
-9962 9925 0
9963 -9929 -9348 0
-9963 9929 0
-9963 9348 0
9964 -9929 -9925 0
-9964 9929 0
-9964 9925 0
9965 -9351 -9348 -9912 0
-9965 9351 0
-9965 9348 0
-9965 9912 0
-2021 9369 9962 9963 9964 9965 0
2021 -9369 0
2021 -9962 0
2021 -9963 0
2021 -9964 0
2021 -9965 0
9966 -9351 -9919 0
-9966 9351 0
-9966 9919 0
9967 -9929 -9345 0
-9967 9929 0
-9967 9345 0
9968 -9929 -9919 0
-9968 9929 0
-9968 9919 0
9969 -9351 -9345 -9912 0
-9969 9351 0
-9969 9345 0
-9969 9912 0
-2030 9371 9966 9967 9968 9969 0
2030 -9371 0
2030 -9966 0
2030 -9967 0
2030 -9968 0
2030 -9969 0
9970 -9351 -9929 0
-9970 9351 0
-9970 9929 0
9971 -9929 -9929 0
-9971 9929 0
-9971 9929 0
9972 -9929 -9351 0
-9972 9929 0
-9972 9351 0
9973 -9351 -9351 -9912 0
-9973 9351 0
-9973 9351 0
-9973 9912 0
-2033 9373 9970 9971 9972 9973 0
2033 -9373 0
2033 -9970 0
2033 -9971 0
2033 -9972 0
2033 -9973 0
9974 -6762 -6759 0
-9974 6762 0
-9974 6759 0
9975 -6759 -6759 0
-9975 6759 0
-9975 6759 0
9976 -6759 -6762 0
-9976 6759 0
-9976 6762 0
9977 -6762 -6762 -6777 0
-9977 6762 0
-9977 6762 0
-9977 6777 0
-5184 6756 9974 9975 9976 9977 0
5184 -6756 0
5184 -9974 0
5184 -9975 0
5184 -9976 0
5184 -9977 0
9978 -6762 -8165 0
-9978 6762 0
-9978 8165 0
9979 -6759 -8165 0
-9979 6759 0
-9979 8165 0
9980 -6759 -8171 0
-9980 6759 0
-9980 8171 0
9981 -6762 -8171 -6777 0
-9981 6762 0
-9981 8171 0
-9981 6777 0
-5180 8159 9978 9979 9980 9981 0
5180 -8159 0
5180 -9978 0
5180 -9979 0
5180 -9980 0
5180 -9981 0
9982 -6762 -6758 0
-9982 6762 0
-9982 6758 0
9983 -6759 -6761 0
-9983 6759 0
-9983 6761 0
9984 -6759 -6758 0
-9984 6759 0
-9984 6758 0
9985 -6762 -6761 -6777 0
-9985 6762 0
-9985 6761 0
-9985 6777 0
-5198 6755 9982 9983 9984 9985 0
5198 -6755 0
5198 -9982 0
5198 -9983 0
5198 -9984 0
5198 -9985 0
9986 -6765 -6758 0
-9986 6765 0
-9986 6758 0
9987 -6775 -6758 0
-9987 6775 0
-9987 6758 0
9988 -6775 -6761 0
-9988 6775 0
-9988 6761 0
9989 -6765 -6761 -6777 0
-9989 6765 0
-9989 6761 0
-9989 6777 0
-3923 6764 9986 9987 9988 9989 0
3923 -6764 0
3923 -9986 0
3923 -9987 0
3923 -9988 0
3923 -9989 0
9990 -6762 -6779 0
-9990 6762 0
-9990 6779 0
9991 -6759 -6779 0
-9991 6759 0
-9991 6779 0
9992 -6759 -6787 0
-9992 6759 0
-9992 6787 0
9993 -6762 -6787 -6777 0
-9993 6762 0
-9993 6787 0
-9993 6777 0
-5187 6768 9990 9991 9992 9993 0
5187 -6768 0
5187 -9990 0
5187 -9991 0
5187 -9992 0
5187 -9993 0
9994 -6762 -6781 0
-9994 6762 0
-9994 6781 0
9995 -6759 -6783 0
-9995 6759 0
-9995 6783 0
9996 -6759 -6781 0
-9996 6759 0
-9996 6781 0
9997 -6762 -6783 -6777 0
-9997 6762 0
-9997 6783 0
-9997 6777 0
-5192 6771 9994 9995 9996 9997 0
5192 -6771 0
5192 -9994 0
5192 -9995 0
5192 -9996 0
5192 -9997 0
9998 -6765 -6781 0
-9998 6765 0
-9998 6781 0
9999 -6775 -6781 0
-9999 6775 0
-9999 6781 0
10000 -6775 -6783 0
-10000 6775 0
-10000 6783 0
10001 -6765 -6783 -6777 0
-10001 6765 0
-10001 6783 0
-10001 6777 0
-3920 6773 9998 9999 10000 10001 0
3920 -6773 0
3920 -9998 0
3920 -9999 0
3920 -10000 0
3920 -10001 0
10002 -8171 -6775 0
-10002 8171 0
-10002 6775 0
10003 -8165 -6765 0
-10003 8165 0
-10003 6765 0
10004 -8165 -6775 0
-10004 8165 0
-10004 6775 0
10005 -8171 -6765 -6777 0
-10005 8171 0
-10005 6765 0
-10005 6777 0
-3913 8169 10002 10003 10004 10005 0
3913 -8169 0
3913 -10002 0
3913 -10003 0
3913 -10004 0
3913 -10005 0
10006 -8171 -8165 0
-10006 8171 0
-10006 8165 0
10007 -8165 -8165 0
-10007 8165 0
-10007 8165 0
10008 -8165 -8171 0
-10008 8165 0
-10008 8171 0
10009 -8171 -8171 -6777 0
-10009 8171 0
-10009 8171 0
-10009 6777 0
-3915 8173 10006 10007 10008 10009 0
3915 -8173 0
3915 -10006 0
3915 -10007 0
3915 -10008 0
3915 -10009 0
10010 -8171 -6779 0
-10010 8171 0
-10010 6779 0
10011 -8165 -6779 0
-10011 8165 0
-10011 6779 0
10012 -8165 -6787 0
-10012 8165 0
-10012 6787 0
10013 -8171 -6787 -6777 0
-10013 8171 0
-10013 6787 0
-10013 6777 0
-3918 9190 10010 10011 10012 10013 0
3918 -9190 0
3918 -10010 0
3918 -10011 0
3918 -10012 0
3918 -10013 0
10014 -8171 -6781 0
-10014 8171 0
-10014 6781 0
10015 -8165 -6783 0
-10015 8165 0
-10015 6783 0
10016 -8165 -6781 0
-10016 8165 0
-10016 6781 0
10017 -8171 -6783 -6777 0
-10017 8171 0
-10017 6783 0
-10017 6777 0
-3921 8158 10014 10015 10016 10017 0
3921 -8158 0
3921 -10014 0
3921 -10015 0
3921 -10016 0
3921 -10017 0
10018 -6761 -6781 0
-10018 6761 0
-10018 6781 0
10019 -6758 -6781 0
-10019 6758 0
-10019 6781 0
10020 -6758 -6783 0
-10020 6758 0
-10020 6783 0
10021 -6761 -6783 -6777 0
-10021 6761 0
-10021 6783 0
-10021 6777 0
-3924 6770 10018 10019 10020 10021 0
3924 -6770 0
3924 -10018 0
3924 -10019 0
3924 -10020 0
3924 -10021 0
10022 -6787 -6775 0
-10022 6787 0
-10022 6775 0
10023 -6779 -6765 0
-10023 6779 0
-10023 6765 0
10024 -6779 -6775 0
-10024 6779 0
-10024 6775 0
10025 -6787 -6765 -6777 0
-10025 6787 0
-10025 6765 0
-10025 6777 0
-3917 6785 10022 10023 10024 10025 0
3917 -6785 0
3917 -10022 0
3917 -10023 0
3917 -10024 0
3917 -10025 0
10026 -6787 -6758 0
-10026 6787 0
-10026 6758 0
10027 -6779 -6761 0
-10027 6779 0
-10027 6761 0
10028 -6779 -6758 0
-10028 6779 0
-10028 6758 0
10029 -6787 -6761 -6777 0
-10029 6787 0
-10029 6761 0
-10029 6777 0
-3926 6767 10026 10027 10028 10029 0
3926 -6767 0
3926 -10026 0
3926 -10027 0
3926 -10028 0
3926 -10029 0
10030 -6787 -6779 0
-10030 6787 0
-10030 6779 0
9207 -6779 -6779 0
-9207 6779 0
-9207 6779 0
10031 -6779 -6787 0
-10031 6779 0
-10031 6787 0
10032 -6787 -6787 -6777 0
-10032 6787 0
-10032 6787 0
-10032 6777 0
-3929 6789 10030 9207 10031 10032 0
3929 -6789 0
3929 -10030 0
3929 -9207 0
3929 -10031 0
3929 -10032 0
10033 -6755 -8159 0
-10033 6755 0
-10033 8159 0
10034 -8159 -8159 0
-10034 8159 0
-10034 8159 0
10035 -8159 -6755 0
-10035 8159 0
-10035 6755 0
10036 -6755 -6755 -8173 0
-10036 6755 0
-10036 6755 0
-10036 8173 0
-3753 6756 10033 10034 10035 10036 0
3753 -6756 0
3753 -10033 0
3753 -10034 0
3753 -10035 0
3753 -10036 0
10037 -6755 -8165 0
-10037 6755 0
-10037 8165 0
10038 -8159 -8165 0
-10038 8159 0
-10038 8165 0
10039 -8159 -6758 0
-10039 8159 0
-10039 6758 0
10040 -6755 -6758 -8173 0
-10040 6755 0
-10040 6758 0
-10040 8173 0
-3749 6759 10037 10038 10039 10040 0
3749 -6759 0
3749 -10037 0
3749 -10038 0
3749 -10039 0
3749 -10040 0
10041 -6755 -8171 0
-10041 6755 0
-10041 8171 0
10042 -8159 -6761 0
-10042 8159 0
-10042 6761 0
10043 -8159 -8171 0
-10043 8159 0
-10043 8171 0
10044 -6755 -6761 -8173 0
-10044 6755 0
-10044 6761 0
-10044 8173 0
-3773 6762 10041 10042 10043 10044 0
3773 -6762 0
3773 -10041 0
3773 -10042 0
3773 -10043 0
3773 -10044 0
10045 -6764 -8171 0
-10045 6764 0
-10045 8171 0
10046 -8169 -8171 0
-10046 8169 0
-10046 8171 0
10047 -8169 -6761 0
-10047 8169 0
-10047 6761 0
10048 -6764 -6761 -8173 0
-10048 6764 0
-10048 6761 0
-10048 8173 0
-3771 6765 10045 10046 10047 10048 0
3771 -6765 0
3771 -10045 0
3771 -10046 0
3771 -10047 0
3771 -10048 0
10049 -6755 -9190 0
-10049 6755 0
-10049 9190 0
10050 -8159 -9190 0
-10050 8159 0
-10050 9190 0
10051 -8159 -6767 0
-10051 8159 0
-10051 6767 0
10052 -6755 -6767 -8173 0
-10052 6755 0
-10052 6767 0
-10052 8173 0
-3757 6768 10049 10050 10051 10052 0
3757 -6768 0
3757 -10049 0
3757 -10050 0
3757 -10051 0
3757 -10052 0
10053 -6755 -8158 0
-10053 6755 0
-10053 8158 0
10054 -8159 -6770 0
-10054 8159 0
-10054 6770 0
10055 -8159 -8158 0
-10055 8159 0
-10055 8158 0
10056 -6755 -6770 -8173 0
-10056 6755 0
-10056 6770 0
-10056 8173 0
-3764 6771 10053 10054 10055 10056 0
3764 -6771 0
3764 -10053 0
3764 -10054 0
3764 -10055 0
3764 -10056 0
10057 -6764 -8158 0
-10057 6764 0
-10057 8158 0
10058 -8169 -8158 0
-10058 8169 0
-10058 8158 0
10059 -8169 -6770 0
-10059 8169 0
-10059 6770 0
10060 -6764 -6770 -8173 0
-10060 6764 0
-10060 6770 0
-10060 8173 0
-3766 6773 10057 10058 10059 10060 0
3766 -6773 0
3766 -10057 0
3766 -10058 0
3766 -10059 0
3766 -10060 0
10061 -6758 -8169 0
-10061 6758 0
-10061 8169 0
10062 -8165 -6764 0
-10062 8165 0
-10062 6764 0
10063 -8165 -8169 0
-10063 8165 0
-10063 8169 0
10064 -6758 -6764 -8173 0
-10064 6758 0
-10064 6764 0
-10064 8173 0
-3748 6775 10061 10062 10063 10064 0
3748 -6775 0
3748 -10061 0
3748 -10062 0
3748 -10063 0
3748 -10064 0
10065 -6758 -8165 0
-10065 6758 0
-10065 8165 0
10007 -8165 -8165 0
-10007 8165 0
-10007 8165 0
10066 -8165 -6758 0
-10066 8165 0
-10066 6758 0
10067 -6758 -6758 -8173 0
-10067 6758 0
-10067 6758 0
-10067 8173 0
-3755 6777 10065 10007 10066 10067 0
3755 -6777 0
3755 -10065 0
3755 -10007 0
3755 -10066 0
3755 -10067 0
10068 -6758 -9190 0
-10068 6758 0
-10068 9190 0
10069 -8165 -9190 0
-10069 8165 0
-10069 9190 0
10070 -8165 -6767 0
-10070 8165 0
-10070 6767 0
10071 -6758 -6767 -8173 0
-10071 6758 0
-10071 6767 0
-10071 8173 0
-3762 6779 10068 10069 10070 10071 0
3762 -6779 0
3762 -10068 0
3762 -10069 0
3762 -10070 0
3762 -10071 0
10072 -6758 -8158 0
-10072 6758 0
-10072 8158 0
10073 -8165 -6770 0
-10073 8165 0
-10073 6770 0
10074 -8165 -8158 0
-10074 8165 0
-10074 8158 0
10075 -6758 -6770 -8173 0
-10075 6758 0
-10075 6770 0
-10075 8173 0
-3769 6781 10072 10073 10074 10075 0
3769 -6781 0
3769 -10072 0
3769 -10073 0
3769 -10074 0
3769 -10075 0
10076 -6761 -8158 0
-10076 6761 0
-10076 8158 0
10077 -8171 -8158 0
-10077 8171 0
-10077 8158 0
10078 -8171 -6770 0
-10078 8171 0
-10078 6770 0
10079 -6761 -6770 -8173 0
-10079 6761 0
-10079 6770 0
-10079 8173 0
-3776 6783 10076 10077 10078 10079 0
3776 -6783 0
3776 -10076 0
3776 -10077 0
3776 -10078 0
3776 -10079 0
10080 -6767 -8169 0
-10080 6767 0
-10080 8169 0
10081 -9190 -6764 0
-10081 9190 0
-10081 6764 0
10082 -9190 -8169 0
-10082 9190 0
-10082 8169 0
10083 -6767 -6764 -8173 0
-10083 6767 0
-10083 6764 0
-10083 8173 0
-3760 6785 10080 10081 10082 10083 0
3760 -6785 0
3760 -10080 0
3760 -10081 0
3760 -10082 0
3760 -10083 0
10084 -6767 -8171 0
-10084 6767 0
-10084 8171 0
10085 -9190 -6761 0
-10085 9190 0
-10085 6761 0
10086 -9190 -8171 0
-10086 9190 0
-10086 8171 0
10087 -6767 -6761 -8173 0
-10087 6767 0
-10087 6761 0
-10087 8173 0
-3781 6787 10084 10085 10086 10087 0
3781 -6787 0
3781 -10084 0
3781 -10085 0
3781 -10086 0
3781 -10087 0
10088 -6767 -9190 0
-10088 6767 0
-10088 9190 0
9231 -9190 -9190 0
-9231 9190 0
-9231 9190 0
10089 -9190 -6767 0
-10089 9190 0
-10089 6767 0
10090 -6767 -6767 -8173 0
-10090 6767 0
-10090 6767 0
-10090 8173 0
-3787 6789 10088 9231 10089 10090 0
3787 -6789 0
3787 -10088 0
3787 -9231 0
3787 -10089 0
3787 -10090 0
10091 -6462 -6462 0
-10091 6462 0
-10091 6462 0
-1549 6456 10091 0
1549 -6456 0
1549 -10091 0
10092 -6462 -6487 0
-10092 6462 0
-10092 6487 0
-1545 6468 10092 0
1545 -6468 0
1545 -10092 0
10093 -6462 -6483 0
-10093 6462 0
-10093 6483 0
-1569 6471 10093 0
1569 -6471 0
1569 -10093 0
10094 -6465 -6483 0
-10094 6465 0
-10094 6483 0
-1567 6473 10094 0
1567 -6473 0
1567 -10094 0
10095 -6462 -8362 0
-10095 6462 0
-10095 8362 0
-1553 8350 10095 0
1553 -8350 0
1553 -10095 0
10096 -6462 -6461 0
-10096 6462 0
-10096 6461 0
-1560 6455 10096 0
1560 -6455 0
1560 -10096 0
10097 -6465 -6461 0
-10097 6465 0
-10097 6461 0
-1562 6464 10097 0
1562 -6464 0
1562 -10097 0
10098 -6487 -6465 0
-10098 6487 0
-10098 6465 0
-1544 6485 10098 0
1544 -6485 0
1544 -10098 0
10099 -6487 -6487 0
-10099 6487 0
-10099 6487 0
-1551 6489 10099 0
1551 -6489 0
1551 -10099 0
10100 -6487 -8362 0
-10100 6487 0
-10100 8362 0
-1558 8523 10100 0
1558 -8523 0
1558 -10100 0
10101 -6487 -6461 0
-10101 6487 0
-10101 6461 0
-1565 6467 10101 0
1565 -6467 0
1565 -10101 0
10102 -6483 -6461 0
-10102 6483 0
-10102 6461 0
-1572 6470 10102 0
1572 -6470 0
1572 -10102 0
10103 -8362 -6465 0
-10103 8362 0
-10103 6465 0
-1556 8360 10103 0
1556 -8360 0
1556 -10103 0
10104 -8362 -6483 0
-10104 8362 0
-10104 6483 0
-1577 8349 10104 0
1577 -8349 0
1577 -10104 0
10105 -8362 -8362 0
-10105 8362 0
-10105 8362 0
-1583 8364 10105 0
1583 -8364 0
1583 -10105 0
10106 -10107 -10108 0
-10106 10107 0
-10106 10108 0
10109 -10108 -10108 0
-10109 10108 0
-10109 10108 0
10110 -10108 -10107 0
-10110 10108 0
-10110 10107 0
10111 -10107 -10107 -10112 0
-10111 10107 0
-10111 10107 0
-10111 10112 0
-9478 10113 10106 10109 10110 10111 0
9478 -10113 0
9478 -10106 0
9478 -10109 0
9478 -10110 0
9478 -10111 0
10114 -10107 -10115 0
-10114 10107 0
-10114 10115 0
10116 -10108 -10115 0
-10116 10108 0
-10116 10115 0
10117 -10108 -10118 0
-10117 10108 0
-10117 10118 0
10119 -10107 -10118 -10112 0
-10119 10107 0
-10119 10118 0
-10119 10112 0
-9473 10120 10114 10116 10117 10119 0
9473 -10120 0
9473 -10114 0
9473 -10116 0
9473 -10117 0
9473 -10119 0
10121 -10107 -10122 0
-10121 10107 0
-10121 10122 0
10123 -10108 -10124 0
-10123 10108 0
-10123 10124 0
10125 -10108 -10122 0
-10125 10108 0
-10125 10122 0
10126 -10107 -10124 -10112 0
-10126 10107 0
-10126 10124 0
-10126 10112 0
-9472 10127 10121 10123 10125 10126 0
9472 -10127 0
9472 -10121 0
9472 -10123 0
9472 -10125 0
9472 -10126 0
10128 -10129 -10122 0
-10128 10129 0
-10128 10122 0
10130 -10131 -10122 0
-10130 10131 0
-10130 10122 0
10132 -10131 -10124 0
-10132 10131 0
-10132 10124 0
10133 -10129 -10124 -10112 0
-10133 10129 0
-10133 10124 0
-10133 10112 0
-9494 10134 10128 10130 10132 10133 0
9494 -10134 0
9494 -10128 0
9494 -10130 0
9494 -10132 0
9494 -10133 0
10135 -10107 -10136 0
-10135 10107 0
-10135 10136 0
10137 -10108 -10136 0
-10137 10108 0
-10137 10136 0
10138 -10108 -10139 0
-10138 10108 0
-10138 10139 0
10140 -10107 -10139 -10112 0
-10140 10107 0
-10140 10139 0
-10140 10112 0
-9485 10141 10135 10137 10138 10140 0
9485 -10141 0
9485 -10135 0
9485 -10137 0
9485 -10138 0
9485 -10140 0
10142 -10107 -10143 0
-10142 10107 0
-10142 10143 0
10144 -10108 -10145 0
-10144 10108 0
-10144 10145 0
10146 -10108 -10143 0
-10146 10108 0
-10146 10143 0
10147 -10107 -10145 -10112 0
-10147 10107 0
-10147 10145 0
-10147 10112 0
-9492 10148 10142 10144 10146 10147 0
9492 -10148 0
9492 -10142 0
9492 -10144 0
9492 -10146 0
9492 -10147 0
10149 -10129 -10143 0
-10149 10129 0
-10149 10143 0
10150 -10131 -10143 0
-10150 10131 0
-10150 10143 0
10151 -10131 -10145 0
-10151 10131 0
-10151 10145 0
10152 -10129 -10145 -10112 0
-10152 10129 0
-10152 10145 0
-10152 10112 0
-9499 10153 10149 10150 10151 10152 0
9499 -10153 0
9499 -10149 0
9499 -10150 0
9499 -10151 0
9499 -10152 0
10154 -10107 -10155 0
-10154 10107 0
-10154 10155 0
10156 -10108 -10155 0
-10156 10108 0
-10156 10155 0
10157 -10108 -10158 0
-10157 10108 0
-10157 10158 0
10159 -10107 -10158 -10112 0
-10159 10107 0
-10159 10158 0
-10159 10112 0
-9506 10160 10154 10156 10157 10159 0
9506 -10160 0
9506 -10154 0
9506 -10156 0
9506 -10157 0
9506 -10159 0
10161 -10107 -10162 0
-10161 10107 0
-10161 10162 0
10163 -10108 -10164 0
-10163 10108 0
-10163 10164 0
10165 -10108 -10162 0
-10165 10108 0
-10165 10162 0
10166 -10107 -10164 -10112 0
-10166 10107 0
-10166 10164 0
-10166 10112 0
-9513 10167 10161 10163 10165 10166 0
9513 -10167 0
9513 -10161 0
9513 -10163 0
9513 -10165 0
9513 -10166 0
10168 -10129 -10162 0
-10168 10129 0
-10168 10162 0
10169 -10131 -10162 0
-10169 10131 0
-10169 10162 0
10170 -10131 -10164 0
-10170 10131 0
-10170 10164 0
10171 -10129 -10164 -10112 0
-10171 10129 0
-10171 10164 0
-10171 10112 0
-9518 10172 10168 10169 10170 10171 0
9518 -10172 0
9518 -10168 0
9518 -10169 0
9518 -10170 0
9518 -10171 0
10173 -10118 -10131 0
-10173 10118 0
-10173 10131 0
10174 -10115 -10129 0
-10174 10115 0
-10174 10129 0
10175 -10115 -10131 0
-10175 10115 0
-10175 10131 0
10176 -10118 -10129 -10112 0
-10176 10118 0
-10176 10129 0
-10176 10112 0
-9496 10177 10173 10174 10175 10176 0
9496 -10177 0
9496 -10173 0
9496 -10174 0
9496 -10175 0
9496 -10176 0
10178 -10118 -10115 0
-10178 10118 0
-10178 10115 0
10179 -10115 -10115 0
-10179 10115 0
-10179 10115 0
10180 -10115 -10118 0
-10180 10115 0
-10180 10118 0
10181 -10118 -10118 -10112 0
-10181 10118 0
-10181 10118 0
-10181 10112 0
-9477 10182 10178 10179 10180 10181 0
9477 -10182 0
9477 -10178 0
9477 -10179 0
9477 -10180 0
9477 -10181 0
10183 -10118 -10136 0
-10183 10118 0
-10183 10136 0
10184 -10115 -10136 0
-10184 10115 0
-10184 10136 0
10185 -10115 -10139 0
-10185 10115 0
-10185 10139 0
10186 -10118 -10139 -10112 0
-10186 10118 0
-10186 10139 0
-10186 10112 0
-9480 10187 10183 10184 10185 10186 0
9480 -10187 0
9480 -10183 0
9480 -10184 0
9480 -10185 0
9480 -10186 0
10188 -10118 -10143 0
-10188 10118 0
-10188 10143 0
10189 -10115 -10145 0
-10189 10115 0
-10189 10145 0
10190 -10115 -10143 0
-10190 10115 0
-10190 10143 0
10191 -10118 -10145 -10112 0
-10191 10118 0
-10191 10145 0
-10191 10112 0
-9487 10192 10188 10189 10190 10191 0
9487 -10192 0
9487 -10188 0
9487 -10189 0
9487 -10190 0
9487 -10191 0
10193 -10124 -10143 0
-10193 10124 0
-10193 10143 0
10194 -10122 -10143 0
-10194 10122 0
-10194 10143 0
10195 -10122 -10145 0
-10195 10122 0
-10195 10145 0
10196 -10124 -10145 -10112 0
-10196 10124 0
-10196 10145 0
-10196 10112 0
-9489 10197 10193 10194 10195 10196 0
9489 -10197 0
9489 -10193 0
9489 -10194 0
9489 -10195 0
9489 -10196 0
10198 -10118 -10155 0
-10198 10118 0
-10198 10155 0
10199 -10115 -10155 0
-10199 10115 0
-10199 10155 0
10200 -10115 -10158 0
-10200 10115 0
-10200 10158 0
10201 -10118 -10158 -10112 0
-10201 10118 0
-10201 10158 0
-10201 10112 0
-9501 10202 10198 10199 10200 10201 0
9501 -10202 0
9501 -10198 0
9501 -10199 0
9501 -10200 0
9501 -10201 0
10203 -10118 -10162 0
-10203 10118 0
-10203 10162 0
10204 -10115 -10164 0
-10204 10115 0
-10204 10164 0
10205 -10115 -10162 0
-10205 10115 0
-10205 10162 0
10206 -10118 -10164 -10112 0
-10206 10118 0
-10206 10164 0
-10206 10112 0
-9508 10207 10203 10204 10205 10206 0
9508 -10207 0
9508 -10203 0
9508 -10204 0
9508 -10205 0
9508 -10206 0
10208 -10124 -10162 0
-10208 10124 0
-10208 10162 0
10209 -10122 -10162 0
-10209 10122 0
-10209 10162 0
10210 -10122 -10164 0
-10210 10122 0
-10210 10164 0
10211 -10124 -10164 -10112 0
-10211 10124 0
-10211 10164 0
-10211 10112 0
-9510 10212 10208 10209 10210 10211 0
9510 -10212 0
9510 -10208 0
9510 -10209 0
9510 -10210 0
9510 -10211 0
10213 -10139 -10131 0
-10213 10139 0
-10213 10131 0
10214 -10136 -10129 0
-10214 10136 0
-10214 10129 0
10215 -10136 -10131 0
-10215 10136 0
-10215 10131 0
10216 -10139 -10129 -10112 0
-10216 10139 0
-10216 10129 0
-10216 10112 0
-9523 10217 10213 10214 10215 10216 0
9523 -10217 0
9523 -10213 0
9523 -10214 0
9523 -10215 0
9523 -10216 0
10218 -10139 -10122 0
-10218 10139 0
-10218 10122 0
10219 -10136 -10124 0
-10219 10136 0
-10219 10124 0
10220 -10136 -10122 0
-10220 10136 0
-10220 10122 0
10221 -10139 -10124 -10112 0
-10221 10139 0
-10221 10124 0
-10221 10112 0
-9483 10222 10218 10219 10220 10221 0
9483 -10222 0
9483 -10218 0
9483 -10219 0
9483 -10220 0
9483 -10221 0
10223 -10139 -10136 0
-10223 10139 0
-10223 10136 0
10224 -10136 -10136 0
-10224 10136 0
-10224 10136 0
10225 -10136 -10139 0
-10225 10136 0
-10225 10139 0
10226 -10139 -10139 -10112 0
-10226 10139 0
-10226 10139 0
-10226 10112 0
-9528 10227 10223 10224 10225 10226 0
9528 -10227 0
9528 -10223 0
9528 -10224 0
9528 -10225 0
9528 -10226 0
10228 -10139 -10155 0
-10228 10139 0
-10228 10155 0
10229 -10136 -10155 0
-10229 10136 0
-10229 10155 0
10230 -10136 -10158 0
-10230 10136 0
-10230 10158 0
10231 -10139 -10158 -10112 0
-10231 10139 0
-10231 10158 0
-10231 10112 0
-9533 10232 10228 10229 10230 10231 0
9533 -10232 0
9533 -10228 0
9533 -10229 0
9533 -10230 0
9533 -10231 0
10233 -10139 -10162 0
-10233 10139 0
-10233 10162 0
10234 -10136 -10164 0
-10234 10136 0
-10234 10164 0
10235 -10136 -10162 0
-10235 10136 0
-10235 10162 0
10236 -10139 -10164 -10112 0
-10236 10139 0
-10236 10164 0
-10236 10112 0
-9538 10237 10233 10234 10235 10236 0
9538 -10237 0
9538 -10233 0
9538 -10234 0
9538 -10235 0
9538 -10236 0
10238 -10145 -10162 0
-10238 10145 0
-10238 10162 0
10239 -10143 -10162 0
-10239 10143 0
-10239 10162 0
10240 -10143 -10164 0
-10240 10143 0
-10240 10164 0
10241 -10145 -10164 -10112 0
-10241 10145 0
-10241 10164 0
-10241 10112 0
-9543 10242 10238 10239 10240 10241 0
9543 -10242 0
9543 -10238 0
9543 -10239 0
9543 -10240 0
9543 -10241 0
10243 -10158 -10131 0
-10243 10158 0
-10243 10131 0
10244 -10155 -10129 0
-10244 10155 0
-10244 10129 0
10245 -10155 -10131 0
-10245 10155 0
-10245 10131 0
10246 -10158 -10129 -10112 0
-10246 10158 0
-10246 10129 0
-10246 10112 0
-9548 10247 10243 10244 10245 10246 0
9548 -10247 0
9548 -10243 0
9548 -10244 0
9548 -10245 0
9548 -10246 0
10248 -10158 -10122 0
-10248 10158 0
-10248 10122 0
10249 -10155 -10124 0
-10249 10155 0
-10249 10124 0
10250 -10155 -10122 0
-10250 10155 0
-10250 10122 0
10251 -10158 -10124 -10112 0
-10251 10158 0
-10251 10124 0
-10251 10112 0
-9504 10252 10248 10249 10250 10251 0
9504 -10252 0
9504 -10248 0
9504 -10249 0
9504 -10250 0
9504 -10251 0
10253 -10158 -10143 0
-10253 10158 0
-10253 10143 0
10254 -10155 -10145 0
-10254 10155 0
-10254 10145 0
10255 -10155 -10143 0
-10255 10155 0
-10255 10143 0
10256 -10158 -10145 -10112 0
-10256 10158 0
-10256 10145 0
-10256 10112 0
-9553 10257 10253 10254 10255 10256 0
9553 -10257 0
9553 -10253 0
9553 -10254 0
9553 -10255 0
9553 -10256 0
10258 -10158 -10155 0
-10258 10158 0
-10258 10155 0
10259 -10155 -10155 0
-10259 10155 0
-10259 10155 0
10260 -10155 -10158 0
-10260 10155 0
-10260 10158 0
10261 -10158 -10158 -10112 0
-10261 10158 0
-10261 10158 0
-10261 10112 0
-9558 10262 10258 10259 10260 10261 0
9558 -10262 0
9558 -10258 0
9558 -10259 0
9558 -10260 0
9558 -10261 0
10263 -10264 -10265 0
-10263 10264 0
-10263 10265 0
10266 -10265 -10265 0
-10266 10265 0
-10266 10265 0
10267 -10265 -10264 0
-10267 10265 0
-10267 10264 0
10268 -10264 -10264 -10269 0
-10268 10264 0
-10268 10264 0
-10268 10269 0
-7675 10270 10263 10266 10267 10268 0
7675 -10270 0
7675 -10263 0
7675 -10266 0
7675 -10267 0
7675 -10268 0
10271 -10264 -10272 0
-10271 10264 0
-10271 10272 0
10273 -10265 -10272 0
-10273 10265 0
-10273 10272 0
10274 -10265 -10275 0
-10274 10265 0
-10274 10275 0
10276 -10264 -10275 -10269 0
-10276 10264 0
-10276 10275 0
-10276 10269 0
-7670 10277 10271 10273 10274 10276 0
7670 -10277 0
7670 -10271 0
7670 -10273 0
7670 -10274 0
7670 -10276 0
10278 -10264 -10279 0
-10278 10264 0
-10278 10279 0
10280 -10265 -10281 0
-10280 10265 0
-10280 10281 0
10282 -10265 -10279 0
-10282 10265 0
-10282 10279 0
10283 -10264 -10281 -10269 0
-10283 10264 0
-10283 10281 0
-10283 10269 0
-7669 10284 10278 10280 10282 10283 0
7669 -10284 0
7669 -10278 0
7669 -10280 0
7669 -10282 0
7669 -10283 0
10285 -10286 -10279 0
-10285 10286 0
-10285 10279 0
10287 -10288 -10279 0
-10287 10288 0
-10287 10279 0
10289 -10288 -10281 0
-10289 10288 0
-10289 10281 0
10290 -10286 -10281 -10269 0
-10290 10286 0
-10290 10281 0
-10290 10269 0
-7691 10291 10285 10287 10289 10290 0
7691 -10291 0
7691 -10285 0
7691 -10287 0
7691 -10289 0
7691 -10290 0
10292 -10264 -10293 0
-10292 10264 0
-10292 10293 0
10294 -10265 -10293 0
-10294 10265 0
-10294 10293 0
10295 -10265 -10296 0
-10295 10265 0
-10295 10296 0
10297 -10264 -10296 -10269 0
-10297 10264 0
-10297 10296 0
-10297 10269 0
-7682 10298 10292 10294 10295 10297 0
7682 -10298 0
7682 -10292 0
7682 -10294 0
7682 -10295 0
7682 -10297 0
10299 -10264 -10300 0
-10299 10264 0
-10299 10300 0
10301 -10265 -10302 0
-10301 10265 0
-10301 10302 0
10303 -10265 -10300 0
-10303 10265 0
-10303 10300 0
10304 -10264 -10302 -10269 0
-10304 10264 0
-10304 10302 0
-10304 10269 0
-7689 10305 10299 10301 10303 10304 0
7689 -10305 0
7689 -10299 0
7689 -10301 0
7689 -10303 0
7689 -10304 0
10306 -10286 -10300 0
-10306 10286 0
-10306 10300 0
10307 -10288 -10300 0
-10307 10288 0
-10307 10300 0
10308 -10288 -10302 0
-10308 10288 0
-10308 10302 0
10309 -10286 -10302 -10269 0
-10309 10286 0
-10309 10302 0
-10309 10269 0
-7696 10310 10306 10307 10308 10309 0
7696 -10310 0
7696 -10306 0
7696 -10307 0
7696 -10308 0
7696 -10309 0
10311 -10264 -10312 0
-10311 10264 0
-10311 10312 0
10313 -10265 -10312 0
-10313 10265 0
-10313 10312 0
10314 -10265 -10315 0
-10314 10265 0
-10314 10315 0
10316 -10264 -10315 -10269 0
-10316 10264 0
-10316 10315 0
-10316 10269 0
-7703 10317 10311 10313 10314 10316 0
7703 -10317 0
7703 -10311 0
7703 -10313 0
7703 -10314 0
7703 -10316 0
10318 -10264 -10319 0
-10318 10264 0
-10318 10319 0
10320 -10265 -10321 0
-10320 10265 0
-10320 10321 0
10322 -10265 -10319 0
-10322 10265 0
-10322 10319 0
10323 -10264 -10321 -10269 0
-10323 10264 0
-10323 10321 0
-10323 10269 0
-7710 10324 10318 10320 10322 10323 0
7710 -10324 0
7710 -10318 0
7710 -10320 0
7710 -10322 0
7710 -10323 0
10325 -10286 -10319 0
-10325 10286 0
-10325 10319 0
10326 -10288 -10319 0
-10326 10288 0
-10326 10319 0
10327 -10288 -10321 0
-10327 10288 0
-10327 10321 0
10328 -10286 -10321 -10269 0
-10328 10286 0
-10328 10321 0
-10328 10269 0
-7715 10329 10325 10326 10327 10328 0
7715 -10329 0
7715 -10325 0
7715 -10326 0
7715 -10327 0
7715 -10328 0
10330 -10275 -10288 0
-10330 10275 0
-10330 10288 0
10331 -10272 -10286 0
-10331 10272 0
-10331 10286 0
10332 -10272 -10288 0
-10332 10272 0
-10332 10288 0
10333 -10275 -10286 -10269 0
-10333 10275 0
-10333 10286 0
-10333 10269 0
-7693 10334 10330 10331 10332 10333 0
7693 -10334 0
7693 -10330 0
7693 -10331 0
7693 -10332 0
7693 -10333 0
10335 -10275 -10272 0
-10335 10275 0
-10335 10272 0
10336 -10272 -10272 0
-10336 10272 0
-10336 10272 0
10337 -10272 -10275 0
-10337 10272 0
-10337 10275 0
10338 -10275 -10275 -10269 0
-10338 10275 0
-10338 10275 0
-10338 10269 0
-7674 10339 10335 10336 10337 10338 0
7674 -10339 0
7674 -10335 0
7674 -10336 0
7674 -10337 0
7674 -10338 0
10340 -10275 -10293 0
-10340 10275 0
-10340 10293 0
10341 -10272 -10293 0
-10341 10272 0
-10341 10293 0
10342 -10272 -10296 0
-10342 10272 0
-10342 10296 0
10343 -10275 -10296 -10269 0
-10343 10275 0
-10343 10296 0
-10343 10269 0
-7677 10344 10340 10341 10342 10343 0
7677 -10344 0
7677 -10340 0
7677 -10341 0
7677 -10342 0
7677 -10343 0
10345 -10275 -10300 0
-10345 10275 0
-10345 10300 0
10346 -10272 -10302 0
-10346 10272 0
-10346 10302 0
10347 -10272 -10300 0
-10347 10272 0
-10347 10300 0
10348 -10275 -10302 -10269 0
-10348 10275 0
-10348 10302 0
-10348 10269 0
-7684 10349 10345 10346 10347 10348 0
7684 -10349 0
7684 -10345 0
7684 -10346 0
7684 -10347 0
7684 -10348 0
10350 -10281 -10300 0
-10350 10281 0
-10350 10300 0
10351 -10279 -10300 0
-10351 10279 0
-10351 10300 0
10352 -10279 -10302 0
-10352 10279 0
-10352 10302 0
10353 -10281 -10302 -10269 0
-10353 10281 0
-10353 10302 0
-10353 10269 0
-7686 10354 10350 10351 10352 10353 0
7686 -10354 0
7686 -10350 0
7686 -10351 0
7686 -10352 0
7686 -10353 0
10355 -10275 -10312 0
-10355 10275 0
-10355 10312 0
10356 -10272 -10312 0
-10356 10272 0
-10356 10312 0
10357 -10272 -10315 0
-10357 10272 0
-10357 10315 0
10358 -10275 -10315 -10269 0
-10358 10275 0
-10358 10315 0
-10358 10269 0
-7698 10359 10355 10356 10357 10358 0
7698 -10359 0
7698 -10355 0
7698 -10356 0
7698 -10357 0
7698 -10358 0
10360 -10275 -10319 0
-10360 10275 0
-10360 10319 0
10361 -10272 -10321 0
-10361 10272 0
-10361 10321 0
10362 -10272 -10319 0
-10362 10272 0
-10362 10319 0
10363 -10275 -10321 -10269 0
-10363 10275 0
-10363 10321 0
-10363 10269 0
-7705 10364 10360 10361 10362 10363 0
7705 -10364 0
7705 -10360 0
7705 -10361 0
7705 -10362 0
7705 -10363 0
10365 -10281 -10319 0
-10365 10281 0
-10365 10319 0
10366 -10279 -10319 0
-10366 10279 0
-10366 10319 0
10367 -10279 -10321 0
-10367 10279 0
-10367 10321 0
10368 -10281 -10321 -10269 0
-10368 10281 0
-10368 10321 0
-10368 10269 0
-7707 10369 10365 10366 10367 10368 0
7707 -10369 0
7707 -10365 0
7707 -10366 0
7707 -10367 0
7707 -10368 0
10370 -10296 -10288 0
-10370 10296 0
-10370 10288 0
10371 -10293 -10286 0
-10371 10293 0
-10371 10286 0
10372 -10293 -10288 0
-10372 10293 0
-10372 10288 0
10373 -10296 -10286 -10269 0
-10373 10296 0
-10373 10286 0
-10373 10269 0
-7720 10374 10370 10371 10372 10373 0
7720 -10374 0
7720 -10370 0
7720 -10371 0
7720 -10372 0
7720 -10373 0
10375 -10296 -10279 0
-10375 10296 0
-10375 10279 0
10376 -10293 -10281 0
-10376 10293 0
-10376 10281 0
10377 -10293 -10279 0
-10377 10293 0
-10377 10279 0
10378 -10296 -10281 -10269 0
-10378 10296 0
-10378 10281 0
-10378 10269 0
-7680 10379 10375 10376 10377 10378 0
7680 -10379 0
7680 -10375 0
7680 -10376 0
7680 -10377 0
7680 -10378 0
10380 -10296 -10293 0
-10380 10296 0
-10380 10293 0
10381 -10293 -10293 0
-10381 10293 0
-10381 10293 0
10382 -10293 -10296 0
-10382 10293 0
-10382 10296 0
10383 -10296 -10296 -10269 0
-10383 10296 0
-10383 10296 0
-10383 10269 0
-7725 10384 10380 10381 10382 10383 0
7725 -10384 0
7725 -10380 0
7725 -10381 0
7725 -10382 0
7725 -10383 0
10385 -10296 -10312 0
-10385 10296 0
-10385 10312 0
10386 -10293 -10312 0
-10386 10293 0
-10386 10312 0
10387 -10293 -10315 0
-10387 10293 0
-10387 10315 0
10388 -10296 -10315 -10269 0
-10388 10296 0
-10388 10315 0
-10388 10269 0
-7730 10389 10385 10386 10387 10388 0
7730 -10389 0
7730 -10385 0
7730 -10386 0
7730 -10387 0
7730 -10388 0
10390 -10296 -10319 0
-10390 10296 0
-10390 10319 0
10391 -10293 -10321 0
-10391 10293 0
-10391 10321 0
10392 -10293 -10319 0
-10392 10293 0
-10392 10319 0
10393 -10296 -10321 -10269 0
-10393 10296 0
-10393 10321 0
-10393 10269 0
-7735 10394 10390 10391 10392 10393 0
7735 -10394 0
7735 -10390 0
7735 -10391 0
7735 -10392 0
7735 -10393 0
10395 -10302 -10319 0
-10395 10302 0
-10395 10319 0
10396 -10300 -10319 0
-10396 10300 0
-10396 10319 0
10397 -10300 -10321 0
-10397 10300 0
-10397 10321 0
10398 -10302 -10321 -10269 0
-10398 10302 0
-10398 10321 0
-10398 10269 0
-7740 10399 10395 10396 10397 10398 0
7740 -10399 0
7740 -10395 0
7740 -10396 0
7740 -10397 0
7740 -10398 0
10400 -10315 -10288 0
-10400 10315 0
-10400 10288 0
10401 -10312 -10286 0
-10401 10312 0
-10401 10286 0
10402 -10312 -10288 0
-10402 10312 0
-10402 10288 0
10403 -10315 -10286 -10269 0
-10403 10315 0
-10403 10286 0
-10403 10269 0
-7745 10404 10400 10401 10402 10403 0
7745 -10404 0
7745 -10400 0
7745 -10401 0
7745 -10402 0
7745 -10403 0
10405 -10315 -10279 0
-10405 10315 0
-10405 10279 0
10406 -10312 -10281 0
-10406 10312 0
-10406 10281 0
10407 -10312 -10279 0
-10407 10312 0
-10407 10279 0
10408 -10315 -10281 -10269 0
-10408 10315 0
-10408 10281 0
-10408 10269 0
-7701 10409 10405 10406 10407 10408 0
7701 -10409 0
7701 -10405 0
7701 -10406 0
7701 -10407 0
7701 -10408 0
10410 -10315 -10300 0
-10410 10315 0
-10410 10300 0
10411 -10312 -10302 0
-10411 10312 0
-10411 10302 0
10412 -10312 -10300 0
-10412 10312 0
-10412 10300 0
10413 -10315 -10302 -10269 0
-10413 10315 0
-10413 10302 0
-10413 10269 0
-7750 10414 10410 10411 10412 10413 0
7750 -10414 0
7750 -10410 0
7750 -10411 0
7750 -10412 0
7750 -10413 0
10415 -10315 -10312 0
-10415 10315 0
-10415 10312 0
10416 -10312 -10312 0
-10416 10312 0
-10416 10312 0
10417 -10312 -10315 0
-10417 10312 0
-10417 10315 0
10418 -10315 -10315 -10269 0
-10418 10315 0
-10418 10315 0
-10418 10269 0
-7755 10419 10415 10416 10417 10418 0
7755 -10419 0
7755 -10415 0
7755 -10416 0
7755 -10417 0
7755 -10418 0
10420 -10421 -10421 0
-10420 10421 0
-10420 10421 0
-6456 10422 10420 0
6456 -10422 0
6456 -10420 0
10423 -10421 -10424 0
-10423 10421 0
-10423 10424 0
-6459 10425 10423 0
6459 -10425 0
6459 -10423 0
10426 -10421 -10427 0
-10426 10421 0
-10426 10427 0
-6462 10428 10426 0
6462 -10428 0
6462 -10426 0
10429 -10430 -10427 0
-10429 10430 0
-10429 10427 0
-6465 10431 10429 0
6465 -10431 0
6465 -10429 0
10432 -10421 -10433 0
-10432 10421 0
-10432 10433 0
-6468 10434 10432 0
6468 -10434 0
6468 -10432 0
10435 -10421 -10436 0
-10435 10421 0
-10435 10436 0
-6471 10437 10435 0
6471 -10437 0
6471 -10435 0
10438 -10430 -10436 0
-10438 10430 0
-10438 10436 0
-6473 10439 10438 0
6473 -10439 0
6473 -10438 0
10440 -10421 -10441 0
-10440 10421 0
-10440 10441 0
-8350 10442 10440 0
8350 -10442 0
8350 -10440 0
10443 -10421 -10444 0
-10443 10421 0
-10443 10444 0
-6455 10445 10443 0
6455 -10445 0
6455 -10443 0
10446 -10430 -10444 0
-10446 10430 0
-10446 10444 0
-6464 10447 10446 0
6464 -10447 0
6464 -10446 0
10448 -10424 -10430 0
-10448 10424 0
-10448 10430 0
-6475 10449 10448 0
6475 -10449 0
6475 -10448 0
10450 -10424 -10424 0
-10450 10424 0
-10450 10424 0
-6477 10451 10450 0
6477 -10451 0
6477 -10450 0
10452 -10424 -10433 0
-10452 10424 0
-10452 10433 0
-6479 10453 10452 0
6479 -10453 0
6479 -10452 0
10454 -10424 -10436 0
-10454 10424 0
-10454 10436 0
-6481 10455 10454 0
6481 -10455 0
6481 -10454 0
10456 -10427 -10436 0
-10456 10427 0
-10456 10436 0
-6483 10457 10456 0
6483 -10457 0
6483 -10456 0
10458 -10424 -10441 0
-10458 10424 0
-10458 10441 0
-8356 10459 10458 0
8356 -10459 0
8356 -10458 0
10460 -10424 -10444 0
-10460 10424 0
-10460 10444 0
-6458 10461 10460 0
6458 -10461 0
6458 -10460 0
10462 -10427 -10444 0
-10462 10427 0
-10462 10444 0
-6461 10463 10462 0
6461 -10463 0
6461 -10462 0
10464 -10433 -10430 0
-10464 10433 0
-10464 10430 0
-6485 10465 10464 0
6485 -10465 0
6485 -10464 0
10466 -10433 -10427 0
-10466 10433 0
-10466 10427 0
-6487 10467 10466 0
6487 -10467 0
6487 -10466 0
10468 -10433 -10433 0
-10468 10433 0
-10468 10433 0
-6489 10469 10468 0
6489 -10469 0
6489 -10468 0
10470 -10433 -10441 0
-10470 10433 0
-10470 10441 0
-8523 10471 10470 0
8523 -10471 0
8523 -10470 0
10472 -10433 -10444 0
-10472 10433 0
-10472 10444 0
-6467 10473 10472 0
6467 -10473 0
6467 -10472 0
10474 -10436 -10444 0
-10474 10436 0
-10474 10444 0
-6470 10475 10474 0
6470 -10475 0
6470 -10474 0
10476 -10441 -10430 0
-10476 10441 0
-10476 10430 0
-8360 10477 10476 0
8360 -10477 0
8360 -10476 0
10478 -10441 -10427 0
-10478 10441 0
-10478 10427 0
-8362 10479 10478 0
8362 -10479 0
8362 -10478 0
10480 -10441 -10436 0
-10480 10441 0
-10480 10436 0
-8349 10481 10480 0
8349 -10481 0
8349 -10480 0
10482 -10441 -10441 0
-10482 10441 0
-10482 10441 0
-8364 10483 10482 0
8364 -10483 0
8364 -10482 0
10484 -10485 -10486 0
-10484 10485 0
-10484 10486 0
10487 -10486 -10486 0
-10487 10486 0
-10487 10486 0
10488 -10486 -10485 0
-10488 10486 0
-10488 10485 0
10489 -10485 -10485 -10490 0
-10489 10485 0
-10489 10485 0
-10489 10490 0
-6585 10491 10484 10487 10488 10489 0
6585 -10491 0
6585 -10484 0
6585 -10487 0
6585 -10488 0
6585 -10489 0
10492 -10485 -10493 0
-10492 10485 0
-10492 10493 0
10494 -10486 -10493 0
-10494 10486 0
-10494 10493 0
10495 -10486 -10496 0
-10495 10486 0
-10495 10496 0
10497 -10485 -10496 -10490 0
-10497 10485 0
-10497 10496 0
-10497 10490 0
-6592 10498 10492 10494 10495 10497 0
6592 -10498 0
6592 -10492 0
6592 -10494 0
6592 -10495 0
6592 -10497 0
10499 -10485 -10500 0
-10499 10485 0
-10499 10500 0
10501 -10486 -10502 0
-10501 10486 0
-10501 10502 0
10503 -10486 -10500 0
-10503 10486 0
-10503 10500 0
10504 -10485 -10502 -10490 0
-10504 10485 0
-10504 10502 0
-10504 10490 0
-6599 10505 10499 10501 10503 10504 0
6599 -10505 0
6599 -10499 0
6599 -10501 0
6599 -10503 0
6599 -10504 0
10506 -10507 -10500 0
-10506 10507 0
-10506 10500 0
10508 -10509 -10500 0
-10508 10509 0
-10508 10500 0
10510 -10509 -10502 0
-10510 10509 0
-10510 10502 0
10511 -10507 -10502 -10490 0
-10511 10507 0
-10511 10502 0
-10511 10490 0
-6606 10512 10506 10508 10510 10511 0
6606 -10512 0
6606 -10506 0
6606 -10508 0
6606 -10510 0
6606 -10511 0
10513 -10485 -10514 0
-10513 10485 0
-10513 10514 0
10515 -10486 -10514 0
-10515 10486 0
-10515 10514 0
10516 -10486 -10517 0
-10516 10486 0
-10516 10517 0
10518 -10485 -10517 -10490 0
-10518 10485 0
-10518 10517 0
-10518 10490 0
-6580 10519 10513 10515 10516 10518 0
6580 -10519 0
6580 -10513 0
6580 -10515 0
6580 -10516 0
6580 -10518 0
10520 -10485 -10521 0
-10520 10485 0
-10520 10521 0
10522 -10486 -10523 0
-10522 10486 0
-10522 10523 0
10524 -10486 -10521 0
-10524 10486 0
-10524 10521 0
10525 -10485 -10523 -10490 0
-10525 10485 0
-10525 10523 0
-10525 10490 0
-6579 10526 10520 10522 10524 10525 0
6579 -10526 0
6579 -10520 0
6579 -10522 0
6579 -10524 0
6579 -10525 0
10527 -10507 -10521 0
-10527 10507 0
-10527 10521 0
10528 -10509 -10521 0
-10528 10509 0
-10528 10521 0
10529 -10509 -10523 0
-10529 10509 0
-10529 10523 0
10530 -10507 -10523 -10490 0
-10530 10507 0
-10530 10523 0
-10530 10490 0
-6601 10531 10527 10528 10529 10530 0
6601 -10531 0
6601 -10527 0
6601 -10528 0
6601 -10529 0
6601 -10530 0
10532 -10485 -10533 0
-10532 10485 0
-10532 10533 0
10534 -10486 -10533 0
-10534 10486 0
-10534 10533 0
10535 -10486 -10536 0
-10535 10486 0
-10535 10536 0
10537 -10485 -10536 -10490 0
-10537 10485 0
-10537 10536 0
-10537 10490 0
-6613 10538 10532 10534 10535 10537 0
6613 -10538 0
6613 -10532 0
6613 -10534 0
6613 -10535 0
6613 -10537 0
10539 -10485 -10540 0
-10539 10485 0
-10539 10540 0
10541 -10486 -10542 0
-10541 10486 0
-10541 10542 0
10543 -10486 -10540 0
-10543 10486 0
-10543 10540 0
10544 -10485 -10542 -10490 0
-10544 10485 0
-10544 10542 0
-10544 10490 0
-6620 10545 10539 10541 10543 10544 0
6620 -10545 0
6620 -10539 0
6620 -10541 0
6620 -10543 0
6620 -10544 0
10546 -10507 -10540 0
-10546 10507 0
-10546 10540 0
10547 -10509 -10540 0
-10547 10509 0
-10547 10540 0
10548 -10509 -10542 0
-10548 10509 0
-10548 10542 0
10549 -10507 -10542 -10490 0
-10549 10507 0
-10549 10542 0
-10549 10490 0
-6625 10550 10546 10547 10548 10549 0
6625 -10550 0
6625 -10546 0
6625 -10547 0
6625 -10548 0
6625 -10549 0
10551 -10496 -10509 0
-10551 10496 0
-10551 10509 0
10552 -10493 -10507 0
-10552 10493 0
-10552 10507 0
10553 -10493 -10509 0
-10553 10493 0
-10553 10509 0
10554 -10496 -10507 -10490 0
-10554 10496 0
-10554 10507 0
-10554 10490 0
-6630 10555 10551 10552 10553 10554 0
6630 -10555 0
6630 -10551 0
6630 -10552 0
6630 -10553 0
6630 -10554 0
10556 -10496 -10493 0
-10556 10496 0
-10556 10493 0
10557 -10493 -10493 0
-10557 10493 0
-10557 10493 0
10558 -10493 -10496 0
-10558 10493 0
-10558 10496 0
10559 -10496 -10496 -10490 0
-10559 10496 0
-10559 10496 0
-10559 10490 0
-6635 10560 10556 10557 10558 10559 0
6635 -10560 0
6635 -10556 0
6635 -10557 0
6635 -10558 0
6635 -10559 0
10561 -10496 -10514 0
-10561 10496 0
-10561 10514 0
10562 -10493 -10514 0
-10562 10493 0
-10562 10514 0
10563 -10493 -10517 0
-10563 10493 0
-10563 10517 0
10564 -10496 -10517 -10490 0
-10564 10496 0
-10564 10517 0
-10564 10490 0
-6587 10565 10561 10562 10563 10564 0
6587 -10565 0
6587 -10561 0
6587 -10562 0
6587 -10563 0
6587 -10564 0
10566 -10496 -10521 0
-10566 10496 0
-10566 10521 0
10567 -10493 -10523 0
-10567 10493 0
-10567 10523 0
10568 -10493 -10521 0
-10568 10493 0
-10568 10521 0
10569 -10496 -10523 -10490 0
-10569 10496 0
-10569 10523 0
-10569 10490 0
-6590 10570 10566 10567 10568 10569 0
6590 -10570 0
6590 -10566 0
6590 -10567 0
6590 -10568 0
6590 -10569 0
10571 -10502 -10521 0
-10571 10502 0
-10571 10521 0
10572 -10500 -10521 0
-10572 10500 0
-10572 10521 0
10573 -10500 -10523 0
-10573 10500 0
-10573 10523 0
10574 -10502 -10523 -10490 0
-10574 10502 0
-10574 10523 0
-10574 10490 0
-6596 10575 10571 10572 10573 10574 0
6596 -10575 0
6596 -10571 0
6596 -10572 0
6596 -10573 0
6596 -10574 0
10576 -10496 -10533 0
-10576 10496 0
-10576 10533 0
10577 -10493 -10533 0
-10577 10493 0
-10577 10533 0
10578 -10493 -10536 0
-10578 10493 0
-10578 10536 0
10579 -10496 -10536 -10490 0
-10579 10496 0
-10579 10536 0
-10579 10490 0
-6640 10580 10576 10577 10578 10579 0
6640 -10580 0
6640 -10576 0
6640 -10577 0
6640 -10578 0
6640 -10579 0
10581 -10496 -10540 0
-10581 10496 0
-10581 10540 0
10582 -10493 -10542 0
-10582 10493 0
-10582 10542 0
10583 -10493 -10540 0
-10583 10493 0
-10583 10540 0
10584 -10496 -10542 -10490 0
-10584 10496 0
-10584 10542 0
-10584 10490 0
-6645 10585 10581 10582 10583 10584 0
6645 -10585 0
6645 -10581 0
6645 -10582 0
6645 -10583 0
6645 -10584 0
10586 -10502 -10540 0
-10586 10502 0
-10586 10540 0
10587 -10500 -10540 0
-10587 10500 0
-10587 10540 0
10588 -10500 -10542 0
-10588 10500 0
-10588 10542 0
10589 -10502 -10542 -10490 0
-10589 10502 0
-10589 10542 0
-10589 10490 0
-6650 10590 10586 10587 10588 10589 0
6650 -10590 0
6650 -10586 0
6650 -10587 0
6650 -10588 0
6650 -10589 0
10591 -10517 -10509 0
-10591 10517 0
-10591 10509 0
10592 -10514 -10507 0
-10592 10514 0
-10592 10507 0
10593 -10514 -10509 0
-10593 10514 0
-10593 10509 0
10594 -10517 -10507 -10490 0
-10594 10517 0
-10594 10507 0
-10594 10490 0
-6603 10595 10591 10592 10593 10594 0
6603 -10595 0
6603 -10591 0
6603 -10592 0
6603 -10593 0
6603 -10594 0
10596 -10517 -10500 0
-10596 10517 0
-10596 10500 0
10597 -10514 -10502 0
-10597 10514 0
-10597 10502 0
10598 -10514 -10500 0
-10598 10514 0
-10598 10500 0
10599 -10517 -10502 -10490 0
-10599 10517 0
-10599 10502 0
-10599 10490 0
-6594 10600 10596 10597 10598 10599 0
6594 -10600 0
6594 -10596 0
6594 -10597 0
6594 -10598 0
6594 -10599 0
10601 -10517 -10514 0
-10601 10517 0
-10601 10514 0
10602 -10514 -10514 0
-10602 10514 0
-10602 10514 0
10603 -10514 -10517 0
-10603 10514 0
-10603 10517 0
10604 -10517 -10517 -10490 0
-10604 10517 0
-10604 10517 0
-10604 10490 0
-6584 10605 10601 10602 10603 10604 0
6584 -10605 0
6584 -10601 0
6584 -10602 0
6584 -10603 0
6584 -10604 0
10606 -10517 -10533 0
-10606 10517 0
-10606 10533 0
10607 -10514 -10533 0
-10607 10514 0
-10607 10533 0
10608 -10514 -10536 0
-10608 10514 0
-10608 10536 0
10609 -10517 -10536 -10490 0
-10609 10517 0
-10609 10536 0
-10609 10490 0
-6608 10610 10606 10607 10608 10609 0
6608 -10610 0
6608 -10606 0
6608 -10607 0
6608 -10608 0
6608 -10609 0
10611 -10517 -10540 0
-10611 10517 0
-10611 10540 0
10612 -10514 -10542 0
-10612 10514 0
-10612 10542 0
10613 -10514 -10540 0
-10613 10514 0
-10613 10540 0
10614 -10517 -10542 -10490 0
-10614 10517 0
-10614 10542 0
-10614 10490 0
-6615 10615 10611 10612 10613 10614 0
6615 -10615 0
6615 -10611 0
6615 -10612 0
6615 -10613 0
6615 -10614 0
10616 -10523 -10540 0
-10616 10523 0
-10616 10540 0
10617 -10521 -10540 0
-10617 10521 0
-10617 10540 0
10618 -10521 -10542 0
-10618 10521 0
-10618 10542 0
10619 -10523 -10542 -10490 0
-10619 10523 0
-10619 10542 0
-10619 10490 0
-6617 10620 10616 10617 10618 10619 0
6617 -10620 0
6617 -10616 0
6617 -10617 0
6617 -10618 0
6617 -10619 0
10621 -10536 -10509 0
-10621 10536 0
-10621 10509 0
10622 -10533 -10507 0
-10622 10533 0
-10622 10507 0
10623 -10533 -10509 0
-10623 10533 0
-10623 10509 0
10624 -10536 -10507 -10490 0
-10624 10536 0
-10624 10507 0
-10624 10490 0
-6655 10625 10621 10622 10623 10624 0
6655 -10625 0
6655 -10621 0
6655 -10622 0
6655 -10623 0
6655 -10624 0
10626 -10536 -10500 0
-10626 10536 0
-10626 10500 0
10627 -10533 -10502 0
-10627 10533 0
-10627 10502 0
10628 -10533 -10500 0
-10628 10533 0
-10628 10500 0
10629 -10536 -10502 -10490 0
-10629 10536 0
-10629 10502 0
-10629 10490 0
-6660 10630 10626 10627 10628 10629 0
6660 -10630 0
6660 -10626 0
6660 -10627 0
6660 -10628 0
6660 -10629 0
10631 -10536 -10521 0
-10631 10536 0
-10631 10521 0
10632 -10533 -10523 0
-10632 10533 0
-10632 10523 0
10633 -10533 -10521 0
-10633 10533 0
-10633 10521 0
10634 -10536 -10523 -10490 0
-10634 10536 0
-10634 10523 0
-10634 10490 0
-6611 10635 10631 10632 10633 10634 0
6611 -10635 0
6611 -10631 0
6611 -10632 0
6611 -10633 0
6611 -10634 0
10636 -10536 -10533 0
-10636 10536 0
-10636 10533 0
10637 -10533 -10533 0
-10637 10533 0
-10637 10533 0
10638 -10533 -10536 0
-10638 10533 0
-10638 10536 0
10639 -10536 -10536 -10490 0
-10639 10536 0
-10639 10536 0
-10639 10490 0
-6665 10640 10636 10637 10638 10639 0
6665 -10640 0
6665 -10636 0
6665 -10637 0
6665 -10638 0
6665 -10639 0
10641 -10642 -10643 0
-10641 10642 0
-10641 10643 0
10644 -10643 -10643 0
-10644 10643 0
-10644 10643 0
10645 -10643 -10642 0
-10645 10643 0
-10645 10642 0
10646 -10642 -10642 -10647 0
-10646 10642 0
-10646 10642 0
-10646 10647 0
-6866 10648 10641 10644 10645 10646 0
6866 -10648 0
6866 -10641 0
6866 -10644 0
6866 -10645 0
6866 -10646 0
10649 -10642 -10650 0
-10649 10642 0
-10649 10650 0
10651 -10643 -10650 0
-10651 10643 0
-10651 10650 0
10652 -10643 -10653 0
-10652 10643 0
-10652 10653 0
10654 -10642 -10653 -10647 0
-10654 10642 0
-10654 10653 0
-10654 10647 0
-6869 10655 10649 10651 10652 10654 0
6869 -10655 0
6869 -10649 0
6869 -10651 0
6869 -10652 0
6869 -10654 0
10656 -10642 -10657 0
-10656 10642 0
-10656 10657 0
10658 -10643 -10659 0
-10658 10643 0
-10658 10659 0
10660 -10643 -10657 0
-10660 10643 0
-10660 10657 0
10661 -10642 -10659 -10647 0
-10661 10642 0
-10661 10659 0
-10661 10647 0
-6872 10662 10656 10658 10660 10661 0
6872 -10662 0
6872 -10656 0
6872 -10658 0
6872 -10660 0
6872 -10661 0
10663 -10664 -10657 0
-10663 10664 0
-10663 10657 0
10665 -10666 -10657 0
-10665 10666 0
-10665 10657 0
10667 -10666 -10659 0
-10667 10666 0
-10667 10659 0
10668 -10664 -10659 -10647 0
-10668 10664 0
-10668 10659 0
-10668 10647 0
-6875 10669 10663 10665 10667 10668 0
6875 -10669 0
6875 -10663 0
6875 -10665 0
6875 -10667 0
6875 -10668 0
10670 -10642 -10671 0
-10670 10642 0
-10670 10671 0
10672 -10643 -10671 0
-10672 10643 0
-10672 10671 0
10673 -10643 -10674 0
-10673 10643 0
-10673 10674 0
10675 -10642 -10674 -10647 0
-10675 10642 0
-10675 10674 0
-10675 10647 0
-8968 10676 10670 10672 10673 10675 0
8968 -10676 0
8968 -10670 0
8968 -10672 0
8968 -10673 0
8968 -10675 0
10677 -10642 -10678 0
-10677 10642 0
-10677 10678 0
10679 -10643 -10680 0
-10679 10643 0
-10679 10680 0
10681 -10643 -10678 0
-10681 10643 0
-10681 10678 0
10682 -10642 -10680 -10647 0
-10682 10642 0
-10682 10680 0
-10682 10647 0
-6865 10683 10677 10679 10681 10682 0
6865 -10683 0
6865 -10677 0
6865 -10679 0
6865 -10681 0
6865 -10682 0
10684 -10664 -10678 0
-10684 10664 0
-10684 10678 0
10685 -10666 -10678 0
-10685 10666 0
-10685 10678 0
10686 -10666 -10680 0
-10686 10666 0
-10686 10680 0
10687 -10664 -10680 -10647 0
-10687 10664 0
-10687 10680 0
-10687 10647 0
-6874 10688 10684 10685 10686 10687 0
6874 -10688 0
6874 -10684 0
6874 -10685 0
6874 -10686 0
6874 -10687 0
10689 -10642 -10690 0
-10689 10642 0
-10689 10690 0
10691 -10643 -10690 0
-10691 10643 0
-10691 10690 0
10692 -10643 -10693 0
-10692 10643 0
-10692 10693 0
10694 -10642 -10693 -10647 0
-10694 10642 0
-10694 10693 0
-10694 10647 0
-6878 10695 10689 10691 10692 10694 0
6878 -10695 0
6878 -10689 0
6878 -10691 0
6878 -10692 0
6878 -10694 0
10696 -10642 -10697 0
-10696 10642 0
-10696 10697 0
10698 -10643 -10699 0
-10698 10643 0
-10698 10699 0
10700 -10643 -10697 0
-10700 10643 0
-10700 10697 0
10701 -10642 -10699 -10647 0
-10701 10642 0
-10701 10699 0
-10701 10647 0
-6881 10702 10696 10698 10700 10701 0
6881 -10702 0
6881 -10696 0
6881 -10698 0
6881 -10700 0
6881 -10701 0
10703 -10664 -10697 0
-10703 10664 0
-10703 10697 0
10704 -10666 -10697 0
-10704 10666 0
-10704 10697 0
10705 -10666 -10699 0
-10705 10666 0
-10705 10699 0
10706 -10664 -10699 -10647 0
-10706 10664 0
-10706 10699 0
-10706 10647 0
-6883 10707 10703 10704 10705 10706 0
6883 -10707 0
6883 -10703 0
6883 -10704 0
6883 -10705 0
6883 -10706 0
10708 -10653 -10666 0
-10708 10653 0
-10708 10666 0
10709 -10650 -10664 0
-10709 10650 0
-10709 10664 0
10710 -10650 -10666 0
-10710 10650 0
-10710 10666 0
10711 -10653 -10664 -10647 0
-10711 10653 0
-10711 10664 0
-10711 10647 0
-6885 10712 10708 10709 10710 10711 0
6885 -10712 0
6885 -10708 0
6885 -10709 0
6885 -10710 0
6885 -10711 0
10713 -10653 -10650 0
-10713 10653 0
-10713 10650 0
10714 -10650 -10650 0
-10714 10650 0
-10714 10650 0
10715 -10650 -10653 0
-10715 10650 0
-10715 10653 0
10716 -10653 -10653 -10647 0
-10716 10653 0
-10716 10653 0
-10716 10647 0
-6887 10717 10713 10714 10715 10716 0
6887 -10717 0
6887 -10713 0
6887 -10714 0
6887 -10715 0
6887 -10716 0
10718 -10653 -10671 0
-10718 10653 0
-10718 10671 0
10719 -10650 -10671 0
-10719 10650 0
-10719 10671 0
10720 -10650 -10674 0
-10720 10650 0
-10720 10674 0
10721 -10653 -10674 -10647 0
-10721 10653 0
-10721 10674 0
-10721 10647 0
-8963 10722 10718 10719 10720 10721 0
8963 -10722 0
8963 -10718 0
8963 -10719 0
8963 -10720 0
8963 -10721 0
10723 -10653 -10678 0
-10723 10653 0
-10723 10678 0
10724 -10650 -10680 0
-10724 10650 0
-10724 10680 0
10725 -10650 -10678 0
-10725 10650 0
-10725 10678 0
10726 -10653 -10680 -10647 0
-10726 10653 0
-10726 10680 0
-10726 10647 0
-6868 10727 10723 10724 10725 10726 0
6868 -10727 0
6868 -10723 0
6868 -10724 0
6868 -10725 0
6868 -10726 0
10728 -10659 -10678 0
-10728 10659 0
-10728 10678 0
10729 -10657 -10678 0
-10729 10657 0
-10729 10678 0
10730 -10657 -10680 0
-10730 10657 0
-10730 10680 0
10731 -10659 -10680 -10647 0
-10731 10659 0
-10731 10680 0
-10731 10647 0
-6871 10732 10728 10729 10730 10731 0
6871 -10732 0
6871 -10728 0
6871 -10729 0
6871 -10730 0
6871 -10731 0
10733 -10653 -10690 0
-10733 10653 0
-10733 10690 0
10734 -10650 -10690 0
-10734 10650 0
-10734 10690 0
10735 -10650 -10693 0
-10735 10650 0
-10735 10693 0
10736 -10653 -10693 -10647 0
-10736 10653 0
-10736 10693 0
-10736 10647 0
-6889 10737 10733 10734 10735 10736 0
6889 -10737 0
6889 -10733 0
6889 -10734 0
6889 -10735 0
6889 -10736 0
10738 -10653 -10697 0
-10738 10653 0
-10738 10697 0
10739 -10650 -10699 0
-10739 10650 0
-10739 10699 0
10740 -10650 -10697 0
-10740 10650 0
-10740 10697 0
10741 -10653 -10699 -10647 0
-10741 10653 0
-10741 10699 0
-10741 10647 0
-6891 10742 10738 10739 10740 10741 0
6891 -10742 0
6891 -10738 0
6891 -10739 0
6891 -10740 0
6891 -10741 0
10743 -10659 -10697 0
-10743 10659 0
-10743 10697 0
10744 -10657 -10697 0
-10744 10657 0
-10744 10697 0
10745 -10657 -10699 0
-10745 10657 0
-10745 10699 0
10746 -10659 -10699 -10647 0
-10746 10659 0
-10746 10699 0
-10746 10647 0
-6893 10747 10743 10744 10745 10746 0
6893 -10747 0
6893 -10743 0
6893 -10744 0
6893 -10745 0
6893 -10746 0
10748 -10674 -10666 0
-10748 10674 0
-10748 10666 0
10749 -10671 -10664 0
-10749 10671 0
-10749 10664 0
10750 -10671 -10666 0
-10750 10671 0
-10750 10666 0
10751 -10674 -10664 -10647 0
-10751 10674 0
-10751 10664 0
-10751 10647 0
-8993 10752 10748 10749 10750 10751 0
8993 -10752 0
8993 -10748 0
8993 -10749 0
8993 -10750 0
8993 -10751 0
10753 -10674 -10657 0
-10753 10674 0
-10753 10657 0
10754 -10671 -10659 0
-10754 10671 0
-10754 10659 0
10755 -10671 -10657 0
-10755 10671 0
-10755 10657 0
10756 -10674 -10659 -10647 0
-10756 10674 0
-10756 10659 0
-10756 10647 0
-8966 10757 10753 10754 10755 10756 0
8966 -10757 0
8966 -10753 0
8966 -10754 0
8966 -10755 0
8966 -10756 0
10758 -10674 -10671 0
-10758 10674 0
-10758 10671 0
10759 -10671 -10671 0
-10759 10671 0
-10759 10671 0
10760 -10671 -10674 0
-10760 10671 0
-10760 10674 0
10761 -10674 -10674 -10647 0
-10761 10674 0
-10761 10674 0
-10761 10647 0
-8998 10762 10758 10759 10760 10761 0
8998 -10762 0
8998 -10758 0
8998 -10759 0
8998 -10760 0
8998 -10761 0
10763 -10674 -10690 0
-10763 10674 0
-10763 10690 0
10764 -10671 -10690 0
-10764 10671 0
-10764 10690 0
10765 -10671 -10693 0
-10765 10671 0
-10765 10693 0
10766 -10674 -10693 -10647 0
-10766 10674 0
-10766 10693 0
-10766 10647 0
-9003 10767 10763 10764 10765 10766 0
9003 -10767 0
9003 -10763 0
9003 -10764 0
9003 -10765 0
9003 -10766 0
10768 -10674 -10697 0
-10768 10674 0
-10768 10697 0
10769 -10671 -10699 0
-10769 10671 0
-10769 10699 0
10770 -10671 -10697 0
-10770 10671 0
-10770 10697 0
10771 -10674 -10699 -10647 0
-10771 10674 0
-10771 10699 0
-10771 10647 0
-9008 10772 10768 10769 10770 10771 0
9008 -10772 0
9008 -10768 0
9008 -10769 0
9008 -10770 0
9008 -10771 0
10773 -10680 -10697 0
-10773 10680 0
-10773 10697 0
10774 -10678 -10697 0
-10774 10678 0
-10774 10697 0
10775 -10678 -10699 0
-10775 10678 0
-10775 10699 0
10776 -10680 -10699 -10647 0
-10776 10680 0
-10776 10699 0
-10776 10647 0
-6880 10777 10773 10774 10775 10776 0
6880 -10777 0
6880 -10773 0
6880 -10774 0
6880 -10775 0
6880 -10776 0
10778 -10693 -10666 0
-10778 10693 0
-10778 10666 0
10779 -10690 -10664 0
-10779 10690 0
-10779 10664 0
10780 -10690 -10666 0
-10780 10690 0
-10780 10666 0
10781 -10693 -10664 -10647 0
-10781 10693 0
-10781 10664 0
-10781 10647 0
-6895 10782 10778 10779 10780 10781 0
6895 -10782 0
6895 -10778 0
6895 -10779 0
6895 -10780 0
6895 -10781 0
10783 -10693 -10657 0
-10783 10693 0
-10783 10657 0
10784 -10690 -10659 0
-10784 10690 0
-10784 10659 0
10785 -10690 -10657 0
-10785 10690 0
-10785 10657 0
10786 -10693 -10659 -10647 0
-10786 10693 0
-10786 10659 0
-10786 10647 0
-6897 10787 10783 10784 10785 10786 0
6897 -10787 0
6897 -10783 0
6897 -10784 0
6897 -10785 0
6897 -10786 0
10788 -10693 -10678 0
-10788 10693 0
-10788 10678 0
10789 -10690 -10680 0
-10789 10690 0
-10789 10680 0
10790 -10690 -10678 0
-10790 10690 0
-10790 10678 0
10791 -10693 -10680 -10647 0
-10791 10693 0
-10791 10680 0
-10791 10647 0
-6877 10792 10788 10789 10790 10791 0
6877 -10792 0
6877 -10788 0
6877 -10789 0
6877 -10790 0
6877 -10791 0
10793 -10693 -10690 0
-10793 10693 0
-10793 10690 0
10794 -10690 -10690 0
-10794 10690 0
-10794 10690 0
10795 -10690 -10693 0
-10795 10690 0
-10795 10693 0
10796 -10693 -10693 -10647 0
-10796 10693 0
-10796 10693 0
-10796 10647 0
-6899 10797 10793 10794 10795 10796 0
6899 -10797 0
6899 -10793 0
6899 -10794 0
6899 -10795 0
6899 -10796 0
10798 -10545 -10538 0
-10798 10545 0
-10798 10538 0
10799 -10538 -10538 0
-10799 10538 0
-10799 10538 0
10800 -10538 -10545 0
-10800 10538 0
-10800 10545 0
10801 -10545 -10545 -10640 0
-10801 10545 0
-10801 10545 0
-10801 10640 0
-8248 10491 10798 10799 10800 10801 0
8248 -10491 0
8248 -10798 0
8248 -10799 0
8248 -10800 0
8248 -10801 0
10802 -10545 -10580 0
-10802 10545 0
-10802 10580 0
10803 -10538 -10580 0
-10803 10538 0
-10803 10580 0
10804 -10538 -10585 0
-10804 10538 0
-10804 10585 0
10805 -10545 -10585 -10640 0
-10805 10545 0
-10805 10585 0
-10805 10640 0
-8255 10498 10802 10803 10804 10805 0
8255 -10498 0
8255 -10802 0
8255 -10803 0
8255 -10804 0
8255 -10805 0
10806 -10545 -10630 0
-10806 10545 0
-10806 10630 0
10807 -10538 -10590 0
-10807 10538 0
-10807 10590 0
10808 -10538 -10630 0
-10808 10538 0
-10808 10630 0
10809 -10545 -10590 -10640 0
-10809 10545 0
-10809 10590 0
-10809 10640 0
-8262 10505 10806 10807 10808 10809 0
8262 -10505 0
8262 -10806 0
8262 -10807 0
8262 -10808 0
8262 -10809 0
10810 -10550 -10630 0
-10810 10550 0
-10810 10630 0
10811 -10625 -10630 0
-10811 10625 0
-10811 10630 0
10812 -10625 -10590 0
-10812 10625 0
-10812 10590 0
10813 -10550 -10590 -10640 0
-10813 10550 0
-10813 10590 0
-10813 10640 0
-8269 10512 10810 10811 10812 10813 0
8269 -10512 0
8269 -10810 0
8269 -10811 0
8269 -10812 0
8269 -10813 0
10814 -10545 -10610 0
-10814 10545 0
-10814 10610 0
10815 -10538 -10610 0
-10815 10538 0
-10815 10610 0
10816 -10538 -10615 0
-10816 10538 0
-10816 10615 0
10817 -10545 -10615 -10640 0
-10817 10545 0
-10817 10615 0
-10817 10640 0
-8243 10519 10814 10815 10816 10817 0
8243 -10519 0
8243 -10814 0
8243 -10815 0
8243 -10816 0
8243 -10817 0
10818 -10545 -10635 0
-10818 10545 0
-10818 10635 0
10819 -10538 -10620 0
-10819 10538 0
-10819 10620 0
10820 -10538 -10635 0
-10820 10538 0
-10820 10635 0
10821 -10545 -10620 -10640 0
-10821 10545 0
-10821 10620 0
-10821 10640 0
-8242 10526 10818 10819 10820 10821 0
8242 -10526 0
8242 -10818 0
8242 -10819 0
8242 -10820 0
8242 -10821 0
10822 -10550 -10635 0
-10822 10550 0
-10822 10635 0
10823 -10625 -10635 0
-10823 10625 0
-10823 10635 0
10824 -10625 -10620 0
-10824 10625 0
-10824 10620 0
10825 -10550 -10620 -10640 0
-10825 10550 0
-10825 10620 0
-10825 10640 0
-8264 10531 10822 10823 10824 10825 0
8264 -10531 0
8264 -10822 0
8264 -10823 0
8264 -10824 0
8264 -10825 0
10826 -10545 -10533 0
-10826 10545 0
-10826 10533 0
10827 -10538 -10533 0
-10827 10538 0
-10827 10533 0
10828 -10538 -10540 0
-10828 10538 0
-10828 10540 0
10829 -10545 -10540 -10640 0
-10829 10545 0
-10829 10540 0
-10829 10640 0
-8276 10486 10826 10827 10828 10829 0
8276 -10486 0
8276 -10826 0
8276 -10827 0
8276 -10828 0
8276 -10829 0
10830 -10545 -10536 0
-10830 10545 0
-10830 10536 0
10831 -10538 -10542 0
-10831 10538 0
-10831 10542 0
10832 -10538 -10536 0
-10832 10538 0
-10832 10536 0
10833 -10545 -10542 -10640 0
-10833 10545 0
-10833 10542 0
-10833 10640 0
-8283 10485 10830 10831 10832 10833 0
8283 -10485 0
8283 -10830 0
8283 -10831 0
8283 -10832 0
8283 -10833 0
10834 -10550 -10536 0
-10834 10550 0
-10834 10536 0
10835 -10625 -10536 0
-10835 10625 0
-10835 10536 0
10836 -10625 -10542 0
-10836 10625 0
-10836 10542 0
10837 -10550 -10542 -10640 0
-10837 10550 0
-10837 10542 0
-10837 10640 0
-8288 10507 10834 10835 10836 10837 0
8288 -10507 0
8288 -10834 0
8288 -10835 0
8288 -10836 0
8288 -10837 0
10838 -10585 -10625 0
-10838 10585 0
-10838 10625 0
10839 -10580 -10550 0
-10839 10580 0
-10839 10550 0
10840 -10580 -10625 0
-10840 10580 0
-10840 10625 0
10841 -10585 -10550 -10640 0
-10841 10585 0
-10841 10550 0
-10841 10640 0
-8293 10555 10838 10839 10840 10841 0
8293 -10555 0
8293 -10838 0
8293 -10839 0
8293 -10840 0
8293 -10841 0
10842 -10585 -10580 0
-10842 10585 0
-10842 10580 0
10843 -10580 -10580 0
-10843 10580 0
-10843 10580 0
10844 -10580 -10585 0
-10844 10580 0
-10844 10585 0
10845 -10585 -10585 -10640 0
-10845 10585 0
-10845 10585 0
-10845 10640 0
-8298 10560 10842 10843 10844 10845 0
8298 -10560 0
8298 -10842 0
8298 -10843 0
8298 -10844 0
8298 -10845 0
10846 -10585 -10610 0
-10846 10585 0
-10846 10610 0
10847 -10580 -10610 0
-10847 10580 0
-10847 10610 0
10848 -10580 -10615 0
-10848 10580 0
-10848 10615 0
10849 -10585 -10615 -10640 0
-10849 10585 0
-10849 10615 0
-10849 10640 0
-8250 10565 10846 10847 10848 10849 0
8250 -10565 0
8250 -10846 0
8250 -10847 0
8250 -10848 0
8250 -10849 0
10850 -10585 -10635 0
-10850 10585 0
-10850 10635 0
10851 -10580 -10620 0
-10851 10580 0
-10851 10620 0
10852 -10580 -10635 0
-10852 10580 0
-10852 10635 0
10853 -10585 -10620 -10640 0
-10853 10585 0
-10853 10620 0
-10853 10640 0
-8253 10570 10850 10851 10852 10853 0
8253 -10570 0
8253 -10850 0
8253 -10851 0
8253 -10852 0
8253 -10853 0
10854 -10590 -10635 0
-10854 10590 0
-10854 10635 0
10855 -10630 -10635 0
-10855 10630 0
-10855 10635 0
10856 -10630 -10620 0
-10856 10630 0
-10856 10620 0
10857 -10590 -10620 -10640 0
-10857 10590 0
-10857 10620 0
-10857 10640 0
-8259 10575 10854 10855 10856 10857 0
8259 -10575 0
8259 -10854 0
8259 -10855 0
8259 -10856 0
8259 -10857 0
10858 -10585 -10533 0
-10858 10585 0
-10858 10533 0
10859 -10580 -10533 0
-10859 10580 0
-10859 10533 0
10860 -10580 -10540 0
-10860 10580 0
-10860 10540 0
10861 -10585 -10540 -10640 0
-10861 10585 0
-10861 10540 0
-10861 10640 0
-8303 10493 10858 10859 10860 10861 0
8303 -10493 0
8303 -10858 0
8303 -10859 0
8303 -10860 0
8303 -10861 0
10862 -10585 -10536 0
-10862 10585 0
-10862 10536 0
10863 -10580 -10542 0
-10863 10580 0
-10863 10542 0
10864 -10580 -10536 0
-10864 10580 0
-10864 10536 0
10865 -10585 -10542 -10640 0
-10865 10585 0
-10865 10542 0
-10865 10640 0
-8308 10496 10862 10863 10864 10865 0
8308 -10496 0
8308 -10862 0
8308 -10863 0
8308 -10864 0
8308 -10865 0
10866 -10590 -10536 0
-10866 10590 0
-10866 10536 0
10867 -10630 -10536 0
-10867 10630 0
-10867 10536 0
10868 -10630 -10542 0
-10868 10630 0
-10868 10542 0
10869 -10590 -10542 -10640 0
-10869 10590 0
-10869 10542 0
-10869 10640 0
-8313 10502 10866 10867 10868 10869 0
8313 -10502 0
8313 -10866 0
8313 -10867 0
8313 -10868 0
8313 -10869 0
10870 -10615 -10625 0
-10870 10615 0
-10870 10625 0
10871 -10610 -10550 0
-10871 10610 0
-10871 10550 0
10872 -10610 -10625 0
-10872 10610 0
-10872 10625 0
10873 -10615 -10550 -10640 0
-10873 10615 0
-10873 10550 0
-10873 10640 0
-8266 10595 10870 10871 10872 10873 0
8266 -10595 0
8266 -10870 0
8266 -10871 0
8266 -10872 0
8266 -10873 0
10874 -10615 -10630 0
-10874 10615 0
-10874 10630 0
10875 -10610 -10590 0
-10875 10610 0
-10875 10590 0
10876 -10610 -10630 0
-10876 10610 0
-10876 10630 0
10877 -10615 -10590 -10640 0
-10877 10615 0
-10877 10590 0
-10877 10640 0
-8257 10600 10874 10875 10876 10877 0
8257 -10600 0
8257 -10874 0
8257 -10875 0
8257 -10876 0
8257 -10877 0
10878 -10615 -10610 0
-10878 10615 0
-10878 10610 0
10879 -10610 -10610 0
-10879 10610 0
-10879 10610 0
10880 -10610 -10615 0
-10880 10610 0
-10880 10615 0
10881 -10615 -10615 -10640 0
-10881 10615 0
-10881 10615 0
-10881 10640 0
-8247 10605 10878 10879 10880 10881 0
8247 -10605 0
8247 -10878 0
8247 -10879 0
8247 -10880 0
8247 -10881 0
10882 -10615 -10533 0
-10882 10615 0
-10882 10533 0
10883 -10610 -10533 0
-10883 10610 0
-10883 10533 0
10884 -10610 -10540 0
-10884 10610 0
-10884 10540 0
10885 -10615 -10540 -10640 0
-10885 10615 0
-10885 10540 0
-10885 10640 0
-8271 10514 10882 10883 10884 10885 0
8271 -10514 0
8271 -10882 0
8271 -10883 0
8271 -10884 0
8271 -10885 0
10886 -10615 -10536 0
-10886 10615 0
-10886 10536 0
10887 -10610 -10542 0
-10887 10610 0
-10887 10542 0
10888 -10610 -10536 0
-10888 10610 0
-10888 10536 0
10889 -10615 -10542 -10640 0
-10889 10615 0
-10889 10542 0
-10889 10640 0
-8278 10517 10886 10887 10888 10889 0
8278 -10517 0
8278 -10886 0
8278 -10887 0
8278 -10888 0
8278 -10889 0
10890 -10620 -10536 0
-10890 10620 0
-10890 10536 0
10891 -10635 -10536 0
-10891 10635 0
-10891 10536 0
10892 -10635 -10542 0
-10892 10635 0
-10892 10542 0
10893 -10620 -10542 -10640 0
-10893 10620 0
-10893 10542 0
-10893 10640 0
-8280 10523 10890 10891 10892 10893 0
8280 -10523 0
8280 -10890 0
8280 -10891 0
8280 -10892 0
8280 -10893 0
10894 -10540 -10625 0
-10894 10540 0
-10894 10625 0
10895 -10533 -10550 0
-10895 10533 0
-10895 10550 0
10896 -10533 -10625 0
-10896 10533 0
-10896 10625 0
10897 -10540 -10550 -10640 0
-10897 10540 0
-10897 10550 0
-10897 10640 0
-8318 10509 10894 10895 10896 10897 0
8318 -10509 0
8318 -10894 0
8318 -10895 0
8318 -10896 0
8318 -10897 0
10898 -10540 -10630 0
-10898 10540 0
-10898 10630 0
10899 -10533 -10590 0
-10899 10533 0
-10899 10590 0
10900 -10533 -10630 0
-10900 10533 0
-10900 10630 0
10901 -10540 -10590 -10640 0
-10901 10540 0
-10901 10590 0
-10901 10640 0
-8323 10500 10898 10899 10900 10901 0
8323 -10500 0
8323 -10898 0
8323 -10899 0
8323 -10900 0
8323 -10901 0
10902 -10540 -10635 0
-10902 10540 0
-10902 10635 0
10903 -10533 -10620 0
-10903 10533 0
-10903 10620 0
10904 -10533 -10635 0
-10904 10533 0
-10904 10635 0
10905 -10540 -10620 -10640 0
-10905 10540 0
-10905 10620 0
-10905 10640 0
-8274 10521 10902 10903 10904 10905 0
8274 -10521 0
8274 -10902 0
8274 -10903 0
8274 -10904 0
8274 -10905 0
10906 -10540 -10533 0
-10906 10540 0
-10906 10533 0
10637 -10533 -10533 0
-10637 10533 0
-10637 10533 0
10907 -10533 -10540 0
-10907 10533 0
-10907 10540 0
10908 -10540 -10540 -10640 0
-10908 10540 0
-10908 10540 0
-10908 10640 0
-8328 10490 10906 10637 10907 10908 0
8328 -10490 0
8328 -10906 0
8328 -10637 0
8328 -10907 0
8328 -10908 0
10909 -10445 -10442 0
-10909 10445 0
-10909 10442 0
10910 -10442 -10442 0
-10910 10442 0
-10910 10442 0
10911 -10442 -10445 0
-10911 10442 0
-10911 10445 0
10912 -10445 -10445 -10483 0
-10912 10445 0
-10912 10445 0
-10912 10483 0
-7170 10422 10909 10910 10911 10912 0
7170 -10422 0
7170 -10909 0
7170 -10910 0
7170 -10911 0
7170 -10912 0
10913 -10445 -10459 0
-10913 10445 0
-10913 10459 0
10914 -10442 -10459 0
-10914 10442 0
-10914 10459 0
10915 -10442 -10461 0
-10915 10442 0
-10915 10461 0
10916 -10445 -10461 -10483 0
-10916 10445 0
-10916 10461 0
-10916 10483 0
-7165 10425 10913 10914 10915 10916 0
7165 -10425 0
7165 -10913 0
7165 -10914 0
7165 -10915 0
7165 -10916 0
10917 -10445 -10479 0
-10917 10445 0
-10917 10479 0
10918 -10442 -10463 0
-10918 10442 0
-10918 10463 0
10919 -10442 -10479 0
-10919 10442 0
-10919 10479 0
10920 -10445 -10463 -10483 0
-10920 10445 0
-10920 10463 0
-10920 10483 0
-7164 10428 10917 10918 10919 10920 0
7164 -10428 0
7164 -10917 0
7164 -10918 0
7164 -10919 0
7164 -10920 0
10921 -10447 -10479 0
-10921 10447 0
-10921 10479 0
10922 -10477 -10479 0
-10922 10477 0
-10922 10479 0
10923 -10477 -10463 0
-10923 10477 0
-10923 10463 0
10924 -10447 -10463 -10483 0
-10924 10447 0
-10924 10463 0
-10924 10483 0
-7186 10431 10921 10922 10923 10924 0
7186 -10431 0
7186 -10921 0
7186 -10922 0
7186 -10923 0
7186 -10924 0
10925 -10445 -10471 0
-10925 10445 0
-10925 10471 0
10926 -10442 -10471 0
-10926 10442 0
-10926 10471 0
10927 -10442 -10473 0
-10927 10442 0
-10927 10473 0
10928 -10445 -10473 -10483 0
-10928 10445 0
-10928 10473 0
-10928 10483 0
-7177 10434 10925 10926 10927 10928 0
7177 -10434 0
7177 -10925 0
7177 -10926 0
7177 -10927 0
7177 -10928 0
10929 -10445 -10481 0
-10929 10445 0
-10929 10481 0
10930 -10442 -10475 0
-10930 10442 0
-10930 10475 0
10931 -10442 -10481 0
-10931 10442 0
-10931 10481 0
10932 -10445 -10475 -10483 0
-10932 10445 0
-10932 10475 0
-10932 10483 0
-7184 10437 10929 10930 10931 10932 0
7184 -10437 0
7184 -10929 0
7184 -10930 0
7184 -10931 0
7184 -10932 0
10933 -10447 -10481 0
-10933 10447 0
-10933 10481 0
10934 -10477 -10481 0
-10934 10477 0
-10934 10481 0
10935 -10477 -10475 0
-10935 10477 0
-10935 10475 0
10936 -10447 -10475 -10483 0
-10936 10447 0
-10936 10475 0
-10936 10483 0
-7191 10439 10933 10934 10935 10936 0
7191 -10439 0
7191 -10933 0
7191 -10934 0
7191 -10935 0
7191 -10936 0
10937 -10445 -10938 0
-10937 10445 0
-10937 10938 0
10939 -10442 -10938 0
-10939 10442 0
-10939 10938 0
10940 -10442 -10941 0
-10940 10442 0
-10940 10941 0
10942 -10445 -10941 -10483 0
-10942 10445 0
-10942 10941 0
-10942 10483 0
-7198 10943 10937 10939 10940 10942 0
7198 -10943 0
7198 -10937 0
7198 -10939 0
7198 -10940 0
7198 -10942 0
10944 -10445 -10441 0
-10944 10445 0
-10944 10441 0
10945 -10442 -10444 0
-10945 10442 0
-10945 10444 0
10946 -10442 -10441 0
-10946 10442 0
-10946 10441 0
10947 -10445 -10444 -10483 0
-10947 10445 0
-10947 10444 0
-10947 10483 0
-7205 10421 10944 10945 10946 10947 0
7205 -10421 0
7205 -10944 0
7205 -10945 0
7205 -10946 0
7205 -10947 0
10948 -10447 -10441 0
-10948 10447 0
-10948 10441 0
10949 -10477 -10441 0
-10949 10477 0
-10949 10441 0
10950 -10477 -10444 0
-10950 10477 0
-10950 10444 0
10951 -10447 -10444 -10483 0
-10951 10447 0
-10951 10444 0
-10951 10483 0
-7210 10430 10948 10949 10950 10951 0
7210 -10430 0
7210 -10948 0
7210 -10949 0
7210 -10950 0
7210 -10951 0
10952 -10461 -10477 0
-10952 10461 0
-10952 10477 0
10953 -10459 -10447 0
-10953 10459 0
-10953 10447 0
10954 -10459 -10477 0
-10954 10459 0
-10954 10477 0
10955 -10461 -10447 -10483 0
-10955 10461 0
-10955 10447 0
-10955 10483 0
-7188 10449 10952 10953 10954 10955 0
7188 -10449 0
7188 -10952 0
7188 -10953 0
7188 -10954 0
7188 -10955 0
10956 -10461 -10459 0
-10956 10461 0
-10956 10459 0
10957 -10459 -10459 0
-10957 10459 0
-10957 10459 0
10958 -10459 -10461 0
-10958 10459 0
-10958 10461 0
10959 -10461 -10461 -10483 0
-10959 10461 0
-10959 10461 0
-10959 10483 0
-7169 10451 10956 10957 10958 10959 0
7169 -10451 0
7169 -10956 0
7169 -10957 0
7169 -10958 0
7169 -10959 0
10960 -10461 -10471 0
-10960 10461 0
-10960 10471 0
10961 -10459 -10471 0
-10961 10459 0
-10961 10471 0
10962 -10459 -10473 0
-10962 10459 0
-10962 10473 0
10963 -10461 -10473 -10483 0
-10963 10461 0
-10963 10473 0
-10963 10483 0
-7172 10453 10960 10961 10962 10963 0
7172 -10453 0
7172 -10960 0
7172 -10961 0
7172 -10962 0
7172 -10963 0
10964 -10461 -10481 0
-10964 10461 0
-10964 10481 0
10965 -10459 -10475 0
-10965 10459 0
-10965 10475 0
10966 -10459 -10481 0
-10966 10459 0
-10966 10481 0
10967 -10461 -10475 -10483 0
-10967 10461 0
-10967 10475 0
-10967 10483 0
-7179 10455 10964 10965 10966 10967 0
7179 -10455 0
7179 -10964 0
7179 -10965 0
7179 -10966 0
7179 -10967 0
10968 -10463 -10481 0
-10968 10463 0
-10968 10481 0
10969 -10479 -10481 0
-10969 10479 0
-10969 10481 0
10970 -10479 -10475 0
-10970 10479 0
-10970 10475 0
10971 -10463 -10475 -10483 0
-10971 10463 0
-10971 10475 0
-10971 10483 0
-7181 10457 10968 10969 10970 10971 0
7181 -10457 0
7181 -10968 0
7181 -10969 0
7181 -10970 0
7181 -10971 0
10972 -10461 -10938 0
-10972 10461 0
-10972 10938 0
10973 -10459 -10938 0
-10973 10459 0
-10973 10938 0
10974 -10459 -10941 0
-10974 10459 0
-10974 10941 0
10975 -10461 -10941 -10483 0
-10975 10461 0
-10975 10941 0
-10975 10483 0
-7193 10976 10972 10973 10974 10975 0
7193 -10976 0
7193 -10972 0
7193 -10973 0
7193 -10974 0
7193 -10975 0
10977 -10461 -10441 0
-10977 10461 0
-10977 10441 0
10978 -10459 -10444 0
-10978 10459 0
-10978 10444 0
10979 -10459 -10441 0
-10979 10459 0
-10979 10441 0
10980 -10461 -10444 -10483 0
-10980 10461 0
-10980 10444 0
-10980 10483 0
-7200 10424 10977 10978 10979 10980 0
7200 -10424 0
7200 -10977 0
7200 -10978 0
7200 -10979 0
7200 -10980 0
10981 -10463 -10441 0
-10981 10463 0
-10981 10441 0
10982 -10479 -10441 0
-10982 10479 0
-10982 10441 0
10983 -10479 -10444 0
-10983 10479 0
-10983 10444 0
10984 -10463 -10444 -10483 0
-10984 10463 0
-10984 10444 0
-10984 10483 0
-7202 10427 10981 10982 10983 10984 0
7202 -10427 0
7202 -10981 0
7202 -10982 0
7202 -10983 0
7202 -10984 0
10985 -10473 -10477 0
-10985 10473 0
-10985 10477 0
10986 -10471 -10447 0
-10986 10471 0
-10986 10447 0
10987 -10471 -10477 0
-10987 10471 0
-10987 10477 0
10988 -10473 -10447 -10483 0
-10988 10473 0
-10988 10447 0
-10988 10483 0
-7215 10465 10985 10986 10987 10988 0
7215 -10465 0
7215 -10985 0
7215 -10986 0
7215 -10987 0
7215 -10988 0
10989 -10473 -10479 0
-10989 10473 0
-10989 10479 0
10990 -10471 -10463 0
-10990 10471 0
-10990 10463 0
10991 -10471 -10479 0
-10991 10471 0
-10991 10479 0
10992 -10473 -10463 -10483 0
-10992 10473 0
-10992 10463 0
-10992 10483 0
-7175 10467 10989 10990 10991 10992 0
7175 -10467 0
7175 -10989 0
7175 -10990 0
7175 -10991 0
7175 -10992 0
10993 -10473 -10471 0
-10993 10473 0
-10993 10471 0
10994 -10471 -10471 0
-10994 10471 0
-10994 10471 0
10995 -10471 -10473 0
-10995 10471 0
-10995 10473 0
10996 -10473 -10473 -10483 0
-10996 10473 0
-10996 10473 0
-10996 10483 0
-7220 10469 10993 10994 10995 10996 0
7220 -10469 0
7220 -10993 0
7220 -10994 0
7220 -10995 0
7220 -10996 0
10997 -10473 -10938 0
-10997 10473 0
-10997 10938 0
10998 -10471 -10938 0
-10998 10471 0
-10998 10938 0
10999 -10471 -10941 0
-10999 10471 0
-10999 10941 0
11000 -10473 -10941 -10483 0
-11000 10473 0
-11000 10941 0
-11000 10483 0
-7225 11001 10997 10998 10999 11000 0
7225 -11001 0
7225 -10997 0
7225 -10998 0
7225 -10999 0
7225 -11000 0
11002 -10473 -10441 0
-11002 10473 0
-11002 10441 0
11003 -10471 -10444 0
-11003 10471 0
-11003 10444 0
11004 -10471 -10441 0
-11004 10471 0
-11004 10441 0
11005 -10473 -10444 -10483 0
-11005 10473 0
-11005 10444 0
-11005 10483 0
-7230 10433 11002 11003 11004 11005 0
7230 -10433 0
7230 -11002 0
7230 -11003 0
7230 -11004 0
7230 -11005 0
11006 -10475 -10441 0
-11006 10475 0
-11006 10441 0
11007 -10481 -10441 0
-11007 10481 0
-11007 10441 0
11008 -10481 -10444 0
-11008 10481 0
-11008 10444 0
11009 -10475 -10444 -10483 0
-11009 10475 0
-11009 10444 0
-11009 10483 0
-7235 10436 11006 11007 11008 11009 0
7235 -10436 0
7235 -11006 0
7235 -11007 0
7235 -11008 0
7235 -11009 0
11010 -10941 -10477 0
-11010 10941 0
-11010 10477 0
11011 -10938 -10447 0
-11011 10938 0
-11011 10447 0
11012 -10938 -10477 0
-11012 10938 0
-11012 10477 0
11013 -10941 -10447 -10483 0
-11013 10941 0
-11013 10447 0
-11013 10483 0
-7240 11014 11010 11011 11012 11013 0
7240 -11014 0
7240 -11010 0
7240 -11011 0
7240 -11012 0
7240 -11013 0
11015 -10941 -10479 0
-11015 10941 0
-11015 10479 0
11016 -10938 -10463 0
-11016 10938 0
-11016 10463 0
11017 -10938 -10479 0
-11017 10938 0
-11017 10479 0
11018 -10941 -10463 -10483 0
-11018 10941 0
-11018 10463 0
-11018 10483 0
-7196 11019 11015 11016 11017 11018 0
7196 -11019 0
7196 -11015 0
7196 -11016 0
7196 -11017 0
7196 -11018 0
11020 -10941 -10481 0
-11020 10941 0
-11020 10481 0
11021 -10938 -10475 0
-11021 10938 0
-11021 10475 0
11022 -10938 -10481 0
-11022 10938 0
-11022 10481 0
11023 -10941 -10475 -10483 0
-11023 10941 0
-11023 10475 0
-11023 10483 0
-7245 11024 11020 11021 11022 11023 0
7245 -11024 0
7245 -11020 0
7245 -11021 0
7245 -11022 0
7245 -11023 0
11025 -10941 -10938 0
-11025 10941 0
-11025 10938 0
11026 -10938 -10938 0
-11026 10938 0
-11026 10938 0
11027 -10938 -10941 0
-11027 10938 0
-11027 10941 0
11028 -10941 -10941 -10483 0
-11028 10941 0
-11028 10941 0
-11028 10483 0
-7250 11029 11025 11026 11027 11028 0
7250 -11029 0
7250 -11025 0
7250 -11026 0
7250 -11027 0
7250 -11028 0
11030 -10526 -10519 0
-11030 10526 0
-11030 10519 0
11031 -10519 -10519 0
-11031 10519 0
-11031 10519 0
11032 -10519 -10526 0
-11032 10519 0
-11032 10526 0
11033 -10526 -10526 -10605 0
-11033 10526 0
-11033 10526 0
-11033 10605 0
-9340 10491 11030 11031 11032 11033 0
9340 -10491 0
9340 -11030 0
9340 -11031 0
9340 -11032 0
9340 -11033 0
11034 -10526 -10565 0
-11034 10526 0
-11034 10565 0
11035 -10519 -10565 0
-11035 10519 0
-11035 10565 0
11036 -10519 -10570 0
-11036 10519 0
-11036 10570 0
11037 -10526 -10570 -10605 0
-11037 10526 0
-11037 10570 0
-11037 10605 0
-9908 10498 11034 11035 11036 11037 0
9908 -10498 0
9908 -11034 0
9908 -11035 0
9908 -11036 0
9908 -11037 0
11038 -10526 -10600 0
-11038 10526 0
-11038 10600 0
11039 -10519 -10575 0
-11039 10519 0
-11039 10575 0
11040 -10519 -10600 0
-11040 10519 0
-11040 10600 0
11041 -10526 -10575 -10605 0
-11041 10526 0
-11041 10575 0
-11041 10605 0
-9339 10505 11038 11039 11040 11041 0
9339 -10505 0
9339 -11038 0
9339 -11039 0
9339 -11040 0
9339 -11041 0
11042 -10531 -10600 0
-11042 10531 0
-11042 10600 0
11043 -10595 -10600 0
-11043 10595 0
-11043 10600 0
11044 -10595 -10575 0
-11044 10595 0
-11044 10575 0
11045 -10531 -10575 -10605 0
-11045 10531 0
-11045 10575 0
-11045 10605 0
-9348 10512 11042 11043 11044 11045 0
9348 -10512 0
9348 -11042 0
9348 -11043 0
9348 -11044 0
9348 -11045 0
11046 -10526 -10610 0
-11046 10526 0
-11046 10610 0
11047 -10519 -10610 0
-11047 10519 0
-11047 10610 0
11048 -10519 -10635 0
-11048 10519 0
-11048 10635 0
11049 -10526 -10635 -10605 0
-11049 10526 0
-11049 10635 0
-11049 10605 0
-9343 10538 11046 11047 11048 11049 0
9343 -10538 0
9343 -11046 0
9343 -11047 0
9343 -11048 0
9343 -11049 0
11050 -10526 -10615 0
-11050 10526 0
-11050 10615 0
11051 -10519 -10620 0
-11051 10519 0
-11051 10620 0
11052 -10519 -10615 0
-11052 10519 0
-11052 10615 0
11053 -10526 -10620 -10605 0
-11053 10526 0
-11053 10620 0
-11053 10605 0
-9346 10545 11050 11051 11052 11053 0
9346 -10545 0
9346 -11050 0
9346 -11051 0
9346 -11052 0
9346 -11053 0
11054 -10531 -10615 0
-11054 10531 0
-11054 10615 0
11055 -10595 -10615 0
-11055 10595 0
-11055 10615 0
11056 -10595 -10620 0
-11056 10595 0
-11056 10620 0
11057 -10531 -10620 -10605 0
-11057 10531 0
-11057 10620 0
-11057 10605 0
-9349 10550 11054 11055 11056 11057 0
9349 -10550 0
9349 -11054 0
9349 -11055 0
9349 -11056 0
9349 -11057 0
11058 -10526 -10514 0
-11058 10526 0
-11058 10514 0
11059 -10519 -10514 0
-11059 10519 0
-11059 10514 0
11060 -10519 -10521 0
-11060 10519 0
-11060 10521 0
11061 -10526 -10521 -10605 0
-11061 10526 0
-11061 10521 0
-11061 10605 0
-9352 10486 11058 11059 11060 11061 0
9352 -10486 0
9352 -11058 0
9352 -11059 0
9352 -11060 0
9352 -11061 0
11062 -10526 -10517 0
-11062 10526 0
-11062 10517 0
11063 -10519 -10523 0
-11063 10519 0
-11063 10523 0
11064 -10519 -10517 0
-11064 10519 0
-11064 10517 0
11065 -10526 -10523 -10605 0
-11065 10526 0
-11065 10523 0
-11065 10605 0
-9355 10485 11062 11063 11064 11065 0
9355 -10485 0
9355 -11062 0
9355 -11063 0
9355 -11064 0
9355 -11065 0
11066 -10531 -10517 0
-11066 10531 0
-11066 10517 0
11067 -10595 -10517 0
-11067 10595 0
-11067 10517 0
11068 -10595 -10523 0
-11068 10595 0
-11068 10523 0
11069 -10531 -10523 -10605 0
-11069 10531 0
-11069 10523 0
-11069 10605 0
-9357 10507 11066 11067 11068 11069 0
9357 -10507 0
9357 -11066 0
9357 -11067 0
9357 -11068 0
9357 -11069 0
11070 -10570 -10595 0
-11070 10570 0
-11070 10595 0
11071 -10565 -10531 0
-11071 10565 0
-11071 10531 0
11072 -10565 -10595 0
-11072 10565 0
-11072 10595 0
11073 -10570 -10531 -10605 0
-11073 10570 0
-11073 10531 0
-11073 10605 0
-9925 10555 11070 11071 11072 11073 0
9925 -10555 0
9925 -11070 0
9925 -11071 0
9925 -11072 0
9925 -11073 0
11074 -10570 -10565 0
-11074 10570 0
-11074 10565 0
11075 -10565 -10565 0
-11075 10565 0
-11075 10565 0
11076 -10565 -10570 0
-11076 10565 0
-11076 10570 0
11077 -10570 -10570 -10605 0
-11077 10570 0
-11077 10570 0
-11077 10605 0
-9912 10560 11074 11075 11076 11077 0
9912 -10560 0
9912 -11074 0
9912 -11075 0
9912 -11076 0
9912 -11077 0
11078 -10570 -10610 0
-11078 10570 0
-11078 10610 0
11079 -10565 -10610 0
-11079 10565 0
-11079 10610 0
11080 -10565 -10635 0
-11080 10565 0
-11080 10635 0
11081 -10570 -10635 -10605 0
-11081 10570 0
-11081 10635 0
-11081 10605 0
-9914 10580 11078 11079 11080 11081 0
9914 -10580 0
9914 -11078 0
9914 -11079 0
9914 -11080 0
9914 -11081 0
11082 -10570 -10615 0
-11082 10570 0
-11082 10615 0
11083 -10565 -10620 0
-11083 10565 0
-11083 10620 0
11084 -10565 -10615 0
-11084 10565 0
-11084 10615 0
11085 -10570 -10620 -10605 0
-11085 10570 0
-11085 10620 0
-11085 10605 0
-9919 10585 11082 11083 11084 11085 0
9919 -10585 0
9919 -11082 0
9919 -11083 0
9919 -11084 0
9919 -11085 0
11086 -10575 -10615 0
-11086 10575 0
-11086 10615 0
11087 -10600 -10615 0
-11087 10600 0
-11087 10615 0
11088 -10600 -10620 0
-11088 10600 0
-11088 10620 0
11089 -10575 -10620 -10605 0
-11089 10575 0
-11089 10620 0
-11089 10605 0
-9345 10590 11086 11087 11088 11089 0
9345 -10590 0
9345 -11086 0
9345 -11087 0
9345 -11088 0
9345 -11089 0
11090 -10570 -10514 0
-11090 10570 0
-11090 10514 0
11091 -10565 -10514 0
-11091 10565 0
-11091 10514 0
11092 -10565 -10521 0
-11092 10565 0
-11092 10521 0
11093 -10570 -10521 -10605 0
-11093 10570 0
-11093 10521 0
-11093 10605 0
-9929 10493 11090 11091 11092 11093 0
9929 -10493 0
9929 -11090 0
9929 -11091 0
9929 -11092 0
9929 -11093 0
11094 -10570 -10517 0
-11094 10570 0
-11094 10517 0
11095 -10565 -10523 0
-11095 10565 0
-11095 10523 0
11096 -10565 -10517 0
-11096 10565 0
-11096 10517 0
11097 -10570 -10523 -10605 0
-11097 10570 0
-11097 10523 0
-11097 10605 0
-9934 10496 11094 11095 11096 11097 0
9934 -10496 0
9934 -11094 0
9934 -11095 0
9934 -11096 0
9934 -11097 0
11098 -10575 -10517 0
-11098 10575 0
-11098 10517 0
11099 -10600 -10517 0
-11099 10600 0
-11099 10517 0
11100 -10600 -10523 0
-11100 10600 0
-11100 10523 0
11101 -10575 -10523 -10605 0
-11101 10575 0
-11101 10523 0
-11101 10605 0
-9354 10502 11098 11099 11100 11101 0
9354 -10502 0
9354 -11098 0
9354 -11099 0
9354 -11100 0
9354 -11101 0
11102 -10635 -10595 0
-11102 10635 0
-11102 10595 0
11103 -10610 -10531 0
-11103 10610 0
-11103 10531 0
11104 -10610 -10595 0
-11104 10610 0
-11104 10595 0
11105 -10635 -10531 -10605 0
-11105 10635 0
-11105 10531 0
-11105 10605 0
-9359 10625 11102 11103 11104 11105 0
9359 -10625 0
9359 -11102 0
9359 -11103 0
9359 -11104 0
9359 -11105 0
11106 -10635 -10600 0
-11106 10635 0
-11106 10600 0
11107 -10610 -10575 0
-11107 10610 0
-11107 10575 0
11108 -10610 -10600 0
-11108 10610 0
-11108 10600 0
11109 -10635 -10575 -10605 0
-11109 10635 0
-11109 10575 0
-11109 10605 0
-9342 10630 11106 11107 11108 11109 0
9342 -10630 0
9342 -11106 0
9342 -11107 0
9342 -11108 0
9342 -11109 0
11110 -10635 -10610 0
-11110 10635 0
-11110 10610 0
10879 -10610 -10610 0
-10879 10610 0
-10879 10610 0
11111 -10610 -10635 0
-11111 10610 0
-11111 10635 0
11112 -10635 -10635 -10605 0
-11112 10635 0
-11112 10635 0
-11112 10605 0
-9361 10640 11110 10879 11111 11112 0
9361 -10640 0
9361 -11110 0
9361 -10879 0
9361 -11111 0
9361 -11112 0
11113 -10635 -10514 0
-11113 10635 0
-11113 10514 0
11114 -10610 -10514 0
-11114 10610 0
-11114 10514 0
11115 -10610 -10521 0
-11115 10610 0
-11115 10521 0
11116 -10635 -10521 -10605 0
-11116 10635 0
-11116 10521 0
-11116 10605 0
-9363 10533 11113 11114 11115 11116 0
9363 -10533 0
9363 -11113 0
9363 -11114 0
9363 -11115 0
9363 -11116 0
11117 -10635 -10517 0
-11117 10635 0
-11117 10517 0
11118 -10610 -10523 0
-11118 10610 0
-11118 10523 0
11119 -10610 -10517 0
-11119 10610 0
-11119 10517 0
11120 -10635 -10523 -10605 0
-11120 10635 0
-11120 10523 0
-11120 10605 0
-9365 10536 11117 11118 11119 11120 0
9365 -10536 0
9365 -11117 0
9365 -11118 0
9365 -11119 0
9365 -11120 0
11121 -10620 -10517 0
-11121 10620 0
-11121 10517 0
11122 -10615 -10517 0
-11122 10615 0
-11122 10517 0
11123 -10615 -10523 0
-11123 10615 0
-11123 10523 0
11124 -10620 -10523 -10605 0
-11124 10620 0
-11124 10523 0
-11124 10605 0
-9367 10542 11121 11122 11123 11124 0
9367 -10542 0
9367 -11121 0
9367 -11122 0
9367 -11123 0
9367 -11124 0
11125 -10521 -10595 0
-11125 10521 0
-11125 10595 0
11126 -10514 -10531 0
-11126 10514 0
-11126 10531 0
11127 -10514 -10595 0
-11127 10514 0
-11127 10595 0
11128 -10521 -10531 -10605 0
-11128 10521 0
-11128 10531 0
-11128 10605 0
-9369 10509 11125 11126 11127 11128 0
9369 -10509 0
9369 -11125 0
9369 -11126 0
9369 -11127 0
9369 -11128 0
11129 -10521 -10600 0
-11129 10521 0
-11129 10600 0
11130 -10514 -10575 0
-11130 10514 0
-11130 10575 0
11131 -10514 -10600 0
-11131 10514 0
-11131 10600 0
11132 -10521 -10575 -10605 0
-11132 10521 0
-11132 10575 0
-11132 10605 0
-9351 10500 11129 11130 11131 11132 0
9351 -10500 0
9351 -11129 0
9351 -11130 0
9351 -11131 0
9351 -11132 0
11133 -10521 -10615 0
-11133 10521 0
-11133 10615 0
11134 -10514 -10620 0
-11134 10514 0
-11134 10620 0
11135 -10514 -10615 0
-11135 10514 0
-11135 10615 0
11136 -10521 -10620 -10605 0
-11136 10521 0
-11136 10620 0
-11136 10605 0
-9371 10540 11133 11134 11135 11136 0
9371 -10540 0
9371 -11133 0
9371 -11134 0
9371 -11135 0
9371 -11136 0
11137 -10521 -10514 0
-11137 10521 0
-11137 10514 0
10602 -10514 -10514 0
-10602 10514 0
-10602 10514 0
11138 -10514 -10521 0
-11138 10514 0
-11138 10521 0
11139 -10521 -10521 -10605 0
-11139 10521 0
-11139 10521 0
-11139 10605 0
-9373 10490 11137 10602 11138 11139 0
9373 -10490 0
9373 -11137 0
9373 -10602 0
9373 -11138 0
9373 -11139 0
11140 -11141 -11142 0
-11140 11141 0
-11140 11142 0
11143 -11142 -11142 0
-11143 11142 0
-11143 11142 0
11144 -11142 -11141 0
-11144 11142 0
-11144 11141 0
11145 -11141 -11141 -11146 0
-11145 11141 0
-11145 11141 0
-11145 11146 0
-8402 11147 11140 11143 11144 11145 0
8402 -11147 0
8402 -11140 0
8402 -11143 0
8402 -11144 0
8402 -11145 0
11148 -11141 -11149 0
-11148 11141 0
-11148 11149 0
11150 -11142 -11149 0
-11150 11142 0
-11150 11149 0
11151 -11142 -11152 0
-11151 11142 0
-11151 11152 0
11153 -11141 -11152 -11146 0
-11153 11141 0
-11153 11152 0
-11153 11146 0
-8409 11154 11148 11150 11151 11153 0
8409 -11154 0
8409 -11148 0
8409 -11150 0
8409 -11151 0
8409 -11153 0
11155 -11141 -11156 0
-11155 11141 0
-11155 11156 0
11157 -11142 -11158 0
-11157 11142 0
-11157 11158 0
11159 -11142 -11156 0
-11159 11142 0
-11159 11156 0
11160 -11141 -11158 -11146 0
-11160 11141 0
-11160 11158 0
-11160 11146 0
-8416 11161 11155 11157 11159 11160 0
8416 -11161 0
8416 -11155 0
8416 -11157 0
8416 -11159 0
8416 -11160 0
11162 -11163 -11156 0
-11162 11163 0
-11162 11156 0
11164 -11165 -11156 0
-11164 11165 0
-11164 11156 0
11166 -11165 -11158 0
-11166 11165 0
-11166 11158 0
11167 -11163 -11158 -11146 0
-11167 11163 0
-11167 11158 0
-11167 11146 0
-8423 11168 11162 11164 11166 11167 0
8423 -11168 0
8423 -11162 0
8423 -11164 0
8423 -11166 0
8423 -11167 0
11169 -11141 -11170 0
-11169 11141 0
-11169 11170 0
11171 -11142 -11170 0
-11171 11142 0
-11171 11170 0
11172 -11142 -11173 0
-11172 11142 0
-11172 11173 0
11174 -11141 -11173 -11146 0
-11174 11141 0
-11174 11173 0
-11174 11146 0
-8397 11175 11169 11171 11172 11174 0
8397 -11175 0
8397 -11169 0
8397 -11171 0
8397 -11172 0
8397 -11174 0
11176 -11141 -11177 0
-11176 11141 0
-11176 11177 0
11178 -11142 -11179 0
-11178 11142 0
-11178 11179 0
11180 -11142 -11177 0
-11180 11142 0
-11180 11177 0
11181 -11141 -11179 -11146 0
-11181 11141 0
-11181 11179 0
-11181 11146 0
-8396 11182 11176 11178 11180 11181 0
8396 -11182 0
8396 -11176 0
8396 -11178 0
8396 -11180 0
8396 -11181 0
11183 -11163 -11177 0
-11183 11163 0
-11183 11177 0
11184 -11165 -11177 0
-11184 11165 0
-11184 11177 0
11185 -11165 -11179 0
-11185 11165 0
-11185 11179 0
11186 -11163 -11179 -11146 0
-11186 11163 0
-11186 11179 0
-11186 11146 0
-8418 11187 11183 11184 11185 11186 0
8418 -11187 0
8418 -11183 0
8418 -11184 0
8418 -11185 0
8418 -11186 0
11188 -11141 -11189 0
-11188 11141 0
-11188 11189 0
11190 -11142 -11189 0
-11190 11142 0
-11190 11189 0
11191 -11142 -11192 0
-11191 11142 0
-11191 11192 0
11193 -11141 -11192 -11146 0
-11193 11141 0
-11193 11192 0
-11193 11146 0
-8430 11194 11188 11190 11191 11193 0
8430 -11194 0
8430 -11188 0
8430 -11190 0
8430 -11191 0
8430 -11193 0
11195 -11141 -11196 0
-11195 11141 0
-11195 11196 0
11197 -11142 -11198 0
-11197 11142 0
-11197 11198 0
11199 -11142 -11196 0
-11199 11142 0
-11199 11196 0
11200 -11141 -11198 -11146 0
-11200 11141 0
-11200 11198 0
-11200 11146 0
-8437 11201 11195 11197 11199 11200 0
8437 -11201 0
8437 -11195 0
8437 -11197 0
8437 -11199 0
8437 -11200 0
11202 -11163 -11196 0
-11202 11163 0
-11202 11196 0
11203 -11165 -11196 0
-11203 11165 0
-11203 11196 0
11204 -11165 -11198 0
-11204 11165 0
-11204 11198 0
11205 -11163 -11198 -11146 0
-11205 11163 0
-11205 11198 0
-11205 11146 0
-8442 11206 11202 11203 11204 11205 0
8442 -11206 0
8442 -11202 0
8442 -11203 0
8442 -11204 0
8442 -11205 0
11207 -11152 -11165 0
-11207 11152 0
-11207 11165 0
11208 -11149 -11163 0
-11208 11149 0
-11208 11163 0
11209 -11149 -11165 0
-11209 11149 0
-11209 11165 0
11210 -11152 -11163 -11146 0
-11210 11152 0
-11210 11163 0
-11210 11146 0
-8447 11211 11207 11208 11209 11210 0
8447 -11211 0
8447 -11207 0
8447 -11208 0
8447 -11209 0
8447 -11210 0
11212 -11152 -11149 0
-11212 11152 0
-11212 11149 0
11213 -11149 -11149 0
-11213 11149 0
-11213 11149 0
11214 -11149 -11152 0
-11214 11149 0
-11214 11152 0
11215 -11152 -11152 -11146 0
-11215 11152 0
-11215 11152 0
-11215 11146 0
-8452 11216 11212 11213 11214 11215 0
8452 -11216 0
8452 -11212 0
8452 -11213 0
8452 -11214 0
8452 -11215 0
11217 -11152 -11170 0
-11217 11152 0
-11217 11170 0
11218 -11149 -11170 0
-11218 11149 0
-11218 11170 0
11219 -11149 -11173 0
-11219 11149 0
-11219 11173 0
11220 -11152 -11173 -11146 0
-11220 11152 0
-11220 11173 0
-11220 11146 0
-8404 11221 11217 11218 11219 11220 0
8404 -11221 0
8404 -11217 0
8404 -11218 0
8404 -11219 0
8404 -11220 0
11222 -11152 -11177 0
-11222 11152 0
-11222 11177 0
11223 -11149 -11179 0
-11223 11149 0
-11223 11179 0
11224 -11149 -11177 0
-11224 11149 0
-11224 11177 0
11225 -11152 -11179 -11146 0
-11225 11152 0
-11225 11179 0
-11225 11146 0
-8407 11226 11222 11223 11224 11225 0
8407 -11226 0
8407 -11222 0
8407 -11223 0
8407 -11224 0
8407 -11225 0
11227 -11158 -11177 0
-11227 11158 0
-11227 11177 0
11228 -11156 -11177 0
-11228 11156 0
-11228 11177 0
11229 -11156 -11179 0
-11229 11156 0
-11229 11179 0
11230 -11158 -11179 -11146 0
-11230 11158 0
-11230 11179 0
-11230 11146 0
-8413 11231 11227 11228 11229 11230 0
8413 -11231 0
8413 -11227 0
8413 -11228 0
8413 -11229 0
8413 -11230 0
11232 -11152 -11189 0
-11232 11152 0
-11232 11189 0
11233 -11149 -11189 0
-11233 11149 0
-11233 11189 0
11234 -11149 -11192 0
-11234 11149 0
-11234 11192 0
11235 -11152 -11192 -11146 0
-11235 11152 0
-11235 11192 0
-11235 11146 0
-8457 11236 11232 11233 11234 11235 0
8457 -11236 0
8457 -11232 0
8457 -11233 0
8457 -11234 0
8457 -11235 0
11237 -11152 -11196 0
-11237 11152 0
-11237 11196 0
11238 -11149 -11198 0
-11238 11149 0
-11238 11198 0
11239 -11149 -11196 0
-11239 11149 0
-11239 11196 0
11240 -11152 -11198 -11146 0
-11240 11152 0
-11240 11198 0
-11240 11146 0
-8462 11241 11237 11238 11239 11240 0
8462 -11241 0
8462 -11237 0
8462 -11238 0
8462 -11239 0
8462 -11240 0
11242 -11158 -11196 0
-11242 11158 0
-11242 11196 0
11243 -11156 -11196 0
-11243 11156 0
-11243 11196 0
11244 -11156 -11198 0
-11244 11156 0
-11244 11198 0
11245 -11158 -11198 -11146 0
-11245 11158 0
-11245 11198 0
-11245 11146 0
-8467 11246 11242 11243 11244 11245 0
8467 -11246 0
8467 -11242 0
8467 -11243 0
8467 -11244 0
8467 -11245 0
11247 -11173 -11165 0
-11247 11173 0
-11247 11165 0
11248 -11170 -11163 0
-11248 11170 0
-11248 11163 0
11249 -11170 -11165 0
-11249 11170 0
-11249 11165 0
11250 -11173 -11163 -11146 0
-11250 11173 0
-11250 11163 0
-11250 11146 0
-8420 11251 11247 11248 11249 11250 0
8420 -11251 0
8420 -11247 0
8420 -11248 0
8420 -11249 0
8420 -11250 0
11252 -11173 -11156 0
-11252 11173 0
-11252 11156 0
11253 -11170 -11158 0
-11253 11170 0
-11253 11158 0
11254 -11170 -11156 0
-11254 11170 0
-11254 11156 0
11255 -11173 -11158 -11146 0
-11255 11173 0
-11255 11158 0
-11255 11146 0
-8411 11256 11252 11253 11254 11255 0
8411 -11256 0
8411 -11252 0
8411 -11253 0
8411 -11254 0
8411 -11255 0
11257 -11173 -11170 0
-11257 11173 0
-11257 11170 0
11258 -11170 -11170 0
-11258 11170 0
-11258 11170 0
11259 -11170 -11173 0
-11259 11170 0
-11259 11173 0
11260 -11173 -11173 -11146 0
-11260 11173 0
-11260 11173 0
-11260 11146 0
-8401 11261 11257 11258 11259 11260 0
8401 -11261 0
8401 -11257 0
8401 -11258 0
8401 -11259 0
8401 -11260 0
11262 -11173 -11189 0
-11262 11173 0
-11262 11189 0
11263 -11170 -11189 0
-11263 11170 0
-11263 11189 0
11264 -11170 -11192 0
-11264 11170 0
-11264 11192 0
11265 -11173 -11192 -11146 0
-11265 11173 0
-11265 11192 0
-11265 11146 0
-8425 11266 11262 11263 11264 11265 0
8425 -11266 0
8425 -11262 0
8425 -11263 0
8425 -11264 0
8425 -11265 0
11267 -11173 -11196 0
-11267 11173 0
-11267 11196 0
11268 -11170 -11198 0
-11268 11170 0
-11268 11198 0
11269 -11170 -11196 0
-11269 11170 0
-11269 11196 0
11270 -11173 -11198 -11146 0
-11270 11173 0
-11270 11198 0
-11270 11146 0
-8432 11271 11267 11268 11269 11270 0
8432 -11271 0
8432 -11267 0
8432 -11268 0
8432 -11269 0
8432 -11270 0
11272 -11179 -11196 0
-11272 11179 0
-11272 11196 0
11273 -11177 -11196 0
-11273 11177 0
-11273 11196 0
11274 -11177 -11198 0
-11274 11177 0
-11274 11198 0
11275 -11179 -11198 -11146 0
-11275 11179 0
-11275 11198 0
-11275 11146 0
-8434 11276 11272 11273 11274 11275 0
8434 -11276 0
8434 -11272 0
8434 -11273 0
8434 -11274 0
8434 -11275 0
11277 -11192 -11165 0
-11277 11192 0
-11277 11165 0
11278 -11189 -11163 0
-11278 11189 0
-11278 11163 0
11279 -11189 -11165 0
-11279 11189 0
-11279 11165 0
11280 -11192 -11163 -11146 0
-11280 11192 0
-11280 11163 0
-11280 11146 0
-8472 11281 11277 11278 11279 11280 0
8472 -11281 0
8472 -11277 0
8472 -11278 0
8472 -11279 0
8472 -11280 0
11282 -11192 -11156 0
-11282 11192 0
-11282 11156 0
11283 -11189 -11158 0
-11283 11189 0
-11283 11158 0
11284 -11189 -11156 0
-11284 11189 0
-11284 11156 0
11285 -11192 -11158 -11146 0
-11285 11192 0
-11285 11158 0
-11285 11146 0
-8477 11286 11282 11283 11284 11285 0
8477 -11286 0
8477 -11282 0
8477 -11283 0
8477 -11284 0
8477 -11285 0
11287 -11192 -11177 0
-11287 11192 0
-11287 11177 0
11288 -11189 -11179 0
-11288 11189 0
-11288 11179 0
11289 -11189 -11177 0
-11289 11189 0
-11289 11177 0
11290 -11192 -11179 -11146 0
-11290 11192 0
-11290 11179 0
-11290 11146 0
-8428 11291 11287 11288 11289 11290 0
8428 -11291 0
8428 -11287 0
8428 -11288 0
8428 -11289 0
8428 -11290 0
11292 -11192 -11189 0
-11292 11192 0
-11292 11189 0
11293 -11189 -11189 0
-11293 11189 0
-11293 11189 0
11294 -11189 -11192 0
-11294 11189 0
-11294 11192 0
11295 -11192 -11192 -11146 0
-11295 11192 0
-11295 11192 0
-11295 11146 0
-8482 11296 11292 11293 11294 11295 0
8482 -11296 0
8482 -11292 0
8482 -11293 0
8482 -11294 0
8482 -11295 0
11297 -10421 -10943 0
-11297 10421 0
-11297 10943 0
11298 -10943 -10943 0
-11298 10943 0
-11298 10943 0
11299 -10943 -10421 0
-11299 10943 0
-11299 10421 0
11300 -10421 -10421 -11029 0
-11300 10421 0
-11300 10421 0
-11300 11029 0
-6756 10422 11297 11298 11299 11300 0
6756 -10422 0
6756 -11297 0
6756 -11298 0
6756 -11299 0
6756 -11300 0
11301 -10421 -10976 0
-11301 10421 0
-11301 10976 0
11302 -10943 -10976 0
-11302 10943 0
-11302 10976 0
11303 -10943 -10424 0
-11303 10943 0
-11303 10424 0
11304 -10421 -10424 -11029 0
-11304 10421 0
-11304 10424 0
-11304 11029 0
-6759 10425 11301 11302 11303 11304 0
6759 -10425 0
6759 -11301 0
6759 -11302 0
6759 -11303 0
6759 -11304 0
11305 -10421 -11019 0
-11305 10421 0
-11305 11019 0
11306 -10943 -10427 0
-11306 10943 0
-11306 10427 0
11307 -10943 -11019 0
-11307 10943 0
-11307 11019 0
11308 -10421 -10427 -11029 0
-11308 10421 0
-11308 10427 0
-11308 11029 0
-6762 10428 11305 11306 11307 11308 0
6762 -10428 0
6762 -11305 0
6762 -11306 0
6762 -11307 0
6762 -11308 0
11309 -10430 -11019 0
-11309 10430 0
-11309 11019 0
11310 -11014 -11019 0
-11310 11014 0
-11310 11019 0
11311 -11014 -10427 0
-11311 11014 0
-11311 10427 0
11312 -10430 -10427 -11029 0
-11312 10430 0
-11312 10427 0
-11312 11029 0
-6765 10431 11309 11310 11311 11312 0
6765 -10431 0
6765 -11309 0
6765 -11310 0
6765 -11311 0
6765 -11312 0
11313 -10421 -11001 0
-11313 10421 0
-11313 11001 0
11314 -10943 -11001 0
-11314 10943 0
-11314 11001 0
11315 -10943 -10433 0
-11315 10943 0
-11315 10433 0
11316 -10421 -10433 -11029 0
-11316 10421 0
-11316 10433 0
-11316 11029 0
-8159 10434 11313 11314 11315 11316 0
8159 -10434 0
8159 -11313 0
8159 -11314 0
8159 -11315 0
8159 -11316 0
11317 -10421 -11024 0
-11317 10421 0
-11317 11024 0
11318 -10943 -10436 0
-11318 10943 0
-11318 10436 0
11319 -10943 -11024 0
-11319 10943 0
-11319 11024 0
11320 -10421 -10436 -11029 0
-11320 10421 0
-11320 10436 0
-11320 11029 0
-6755 10437 11317 11318 11319 11320 0
6755 -10437 0
6755 -11317 0
6755 -11318 0
6755 -11319 0
6755 -11320 0
11321 -10430 -11024 0
-11321 10430 0
-11321 11024 0
11322 -11014 -11024 0
-11322 11014 0
-11322 11024 0
11323 -11014 -10436 0
-11323 11014 0
-11323 10436 0
11324 -10430 -10436 -11029 0
-11324 10430 0
-11324 10436 0
-11324 11029 0
-6764 10439 11321 11322 11323 11324 0
6764 -10439 0
6764 -11321 0
6764 -11322 0
6764 -11323 0
6764 -11324 0
11325 -10421 -10938 0
-11325 10421 0
-11325 10938 0
11326 -10943 -10938 0
-11326 10943 0
-11326 10938 0
11327 -10943 -10441 0
-11327 10943 0
-11327 10441 0
11328 -10421 -10441 -11029 0
-11328 10421 0
-11328 10441 0
-11328 11029 0
-6768 10442 11325 11326 11327 11328 0
6768 -10442 0
6768 -11325 0
6768 -11326 0
6768 -11327 0
6768 -11328 0
11329 -10421 -10941 0
-11329 10421 0
-11329 10941 0
11330 -10943 -10444 0
-11330 10943 0
-11330 10444 0
11331 -10943 -10941 0
-11331 10943 0
-11331 10941 0
11332 -10421 -10444 -11029 0
-11332 10421 0
-11332 10444 0
-11332 11029 0
-6771 10445 11329 11330 11331 11332 0
6771 -10445 0
6771 -11329 0
6771 -11330 0
6771 -11331 0
6771 -11332 0
11333 -10430 -10941 0
-11333 10430 0
-11333 10941 0
11334 -11014 -10941 0
-11334 11014 0
-11334 10941 0
11335 -11014 -10444 0
-11335 11014 0
-11335 10444 0
11336 -10430 -10444 -11029 0
-11336 10430 0
-11336 10444 0
-11336 11029 0
-6773 10447 11333 11334 11335 11336 0
6773 -10447 0
6773 -11333 0
6773 -11334 0
6773 -11335 0
6773 -11336 0
11337 -10424 -11014 0
-11337 10424 0
-11337 11014 0
11338 -10976 -10430 0
-11338 10976 0
-11338 10430 0
11339 -10976 -11014 0
-11339 10976 0
-11339 11014 0
11340 -10424 -10430 -11029 0
-11340 10424 0
-11340 10430 0
-11340 11029 0
-6775 10449 11337 11338 11339 11340 0
6775 -10449 0
6775 -11337 0
6775 -11338 0
6775 -11339 0
6775 -11340 0
11341 -10424 -10976 0
-11341 10424 0
-11341 10976 0
11342 -10976 -10976 0
-11342 10976 0
-11342 10976 0
11343 -10976 -10424 0
-11343 10976 0
-11343 10424 0
11344 -10424 -10424 -11029 0
-11344 10424 0
-11344 10424 0
-11344 11029 0
-6777 10451 11341 11342 11343 11344 0
6777 -10451 0
6777 -11341 0
6777 -11342 0
6777 -11343 0
6777 -11344 0
11345 -10424 -11001 0
-11345 10424 0
-11345 11001 0
11346 -10976 -11001 0
-11346 10976 0
-11346 11001 0
11347 -10976 -10433 0
-11347 10976 0
-11347 10433 0
11348 -10424 -10433 -11029 0
-11348 10424 0
-11348 10433 0
-11348 11029 0
-8165 10453 11345 11346 11347 11348 0
8165 -10453 0
8165 -11345 0
8165 -11346 0
8165 -11347 0
8165 -11348 0
11349 -10424 -11024 0
-11349 10424 0
-11349 11024 0
11350 -10976 -10436 0
-11350 10976 0
-11350 10436 0
11351 -10976 -11024 0
-11351 10976 0
-11351 11024 0
11352 -10424 -10436 -11029 0
-11352 10424 0
-11352 10436 0
-11352 11029 0
-6758 10455 11349 11350 11351 11352 0
6758 -10455 0
6758 -11349 0
6758 -11350 0
6758 -11351 0
6758 -11352 0
11353 -10427 -11024 0
-11353 10427 0
-11353 11024 0
11354 -11019 -11024 0
-11354 11019 0
-11354 11024 0
11355 -11019 -10436 0
-11355 11019 0
-11355 10436 0
11356 -10427 -10436 -11029 0
-11356 10427 0
-11356 10436 0
-11356 11029 0
-6761 10457 11353 11354 11355 11356 0
6761 -10457 0
6761 -11353 0
6761 -11354 0
6761 -11355 0
6761 -11356 0
11357 -10424 -10938 0
-11357 10424 0
-11357 10938 0
11358 -10976 -10938 0
-11358 10976 0
-11358 10938 0
11359 -10976 -10441 0
-11359 10976 0
-11359 10441 0
11360 -10424 -10441 -11029 0
-11360 10424 0
-11360 10441 0
-11360 11029 0
-6779 10459 11357 11358 11359 11360 0
6779 -10459 0
6779 -11357 0
6779 -11358 0
6779 -11359 0
6779 -11360 0
11361 -10424 -10941 0
-11361 10424 0
-11361 10941 0
11362 -10976 -10444 0
-11362 10976 0
-11362 10444 0
11363 -10976 -10941 0
-11363 10976 0
-11363 10941 0
11364 -10424 -10444 -11029 0
-11364 10424 0
-11364 10444 0
-11364 11029 0
-6781 10461 11361 11362 11363 11364 0
6781 -10461 0
6781 -11361 0
6781 -11362 0
6781 -11363 0
6781 -11364 0
11365 -10427 -10941 0
-11365 10427 0
-11365 10941 0
11366 -11019 -10941 0
-11366 11019 0
-11366 10941 0
11367 -11019 -10444 0
-11367 11019 0
-11367 10444 0
11368 -10427 -10444 -11029 0
-11368 10427 0
-11368 10444 0
-11368 11029 0
-6783 10463 11365 11366 11367 11368 0
6783 -10463 0
6783 -11365 0
6783 -11366 0
6783 -11367 0
6783 -11368 0
11369 -10433 -11014 0
-11369 10433 0
-11369 11014 0
11370 -11001 -10430 0
-11370 11001 0
-11370 10430 0
11371 -11001 -11014 0
-11371 11001 0
-11371 11014 0
11372 -10433 -10430 -11029 0
-11372 10433 0
-11372 10430 0
-11372 11029 0
-8169 10465 11369 11370 11371 11372 0
8169 -10465 0
8169 -11369 0
8169 -11370 0
8169 -11371 0
8169 -11372 0
11373 -10433 -11019 0
-11373 10433 0
-11373 11019 0
11374 -11001 -10427 0
-11374 11001 0
-11374 10427 0
11375 -11001 -11019 0
-11375 11001 0
-11375 11019 0
11376 -10433 -10427 -11029 0
-11376 10433 0
-11376 10427 0
-11376 11029 0
-8171 10467 11373 11374 11375 11376 0
8171 -10467 0
8171 -11373 0
8171 -11374 0
8171 -11375 0
8171 -11376 0
11377 -10433 -11001 0
-11377 10433 0
-11377 11001 0
11378 -11001 -11001 0
-11378 11001 0
-11378 11001 0
11379 -11001 -10433 0
-11379 11001 0
-11379 10433 0
11380 -10433 -10433 -11029 0
-11380 10433 0
-11380 10433 0
-11380 11029 0
-8173 10469 11377 11378 11379 11380 0
8173 -10469 0
8173 -11377 0
8173 -11378 0
8173 -11379 0
8173 -11380 0
11381 -10433 -10938 0
-11381 10433 0
-11381 10938 0
11382 -11001 -10938 0
-11382 11001 0
-11382 10938 0
11383 -11001 -10441 0
-11383 11001 0
-11383 10441 0
11384 -10433 -10441 -11029 0
-11384 10433 0
-11384 10441 0
-11384 11029 0
-9190 10471 11381 11382 11383 11384 0
9190 -10471 0
9190 -11381 0
9190 -11382 0
9190 -11383 0
9190 -11384 0
11385 -10433 -10941 0
-11385 10433 0
-11385 10941 0
11386 -11001 -10444 0
-11386 11001 0
-11386 10444 0
11387 -11001 -10941 0
-11387 11001 0
-11387 10941 0
11388 -10433 -10444 -11029 0
-11388 10433 0
-11388 10444 0
-11388 11029 0
-8158 10473 11385 11386 11387 11388 0
8158 -10473 0
8158 -11385 0
8158 -11386 0
8158 -11387 0
8158 -11388 0
11389 -10436 -10941 0
-11389 10436 0
-11389 10941 0
11390 -11024 -10941 0
-11390 11024 0
-11390 10941 0
11391 -11024 -10444 0
-11391 11024 0
-11391 10444 0
11392 -10436 -10444 -11029 0
-11392 10436 0
-11392 10444 0
-11392 11029 0
-6770 10475 11389 11390 11391 11392 0
6770 -10475 0
6770 -11389 0
6770 -11390 0
6770 -11391 0
6770 -11392 0
11393 -10441 -11014 0
-11393 10441 0
-11393 11014 0
11394 -10938 -10430 0
-11394 10938 0
-11394 10430 0
11395 -10938 -11014 0
-11395 10938 0
-11395 11014 0
11396 -10441 -10430 -11029 0
-11396 10441 0
-11396 10430 0
-11396 11029 0
-6785 10477 11393 11394 11395 11396 0
6785 -10477 0
6785 -11393 0
6785 -11394 0
6785 -11395 0
6785 -11396 0
11397 -10441 -11019 0
-11397 10441 0
-11397 11019 0
11398 -10938 -10427 0
-11398 10938 0
-11398 10427 0
11399 -10938 -11019 0
-11399 10938 0
-11399 11019 0
11400 -10441 -10427 -11029 0
-11400 10441 0
-11400 10427 0
-11400 11029 0
-6787 10479 11397 11398 11399 11400 0
6787 -10479 0
6787 -11397 0
6787 -11398 0
6787 -11399 0
6787 -11400 0
11401 -10441 -11024 0
-11401 10441 0
-11401 11024 0
11402 -10938 -10436 0
-11402 10938 0
-11402 10436 0
11403 -10938 -11024 0
-11403 10938 0
-11403 11024 0
11404 -10441 -10436 -11029 0
-11404 10441 0
-11404 10436 0
-11404 11029 0
-6767 10481 11401 11402 11403 11404 0
6767 -10481 0
6767 -11401 0
6767 -11402 0
6767 -11403 0
6767 -11404 0
11405 -10441 -10938 0
-11405 10441 0
-11405 10938 0
11026 -10938 -10938 0
-11026 10938 0
-11026 10938 0
11406 -10938 -10441 0
-11406 10938 0
-11406 10441 0
11407 -10441 -10441 -11029 0
-11407 10441 0
-11407 10441 0
-11407 11029 0
-6789 10483 11405 11026 11406 11407 0
6789 -10483 0
6789 -11405 0
6789 -11026 0
6789 -11406 0
6789 -11407 0
11408 -10437 -10437 0
-11408 10437 0
-11408 10437 0
-8013 10422 11408 0
8013 -10422 0
8013 -11408 0
11409 -10437 -10455 0
-11409 10437 0
-11409 10455 0
-8008 10425 11409 0
8008 -10425 0
8008 -11409 0
11410 -10437 -10457 0
-11410 10437 0
-11410 10457 0
-8007 10428 11410 0
8007 -10428 0
8007 -11410 0
11411 -10439 -10457 0
-11411 10439 0
-11411 10457 0
-8029 10431 11411 0
8029 -10431 0
8029 -11411 0
11412 -10437 -10481 0
-11412 10437 0
-11412 10481 0
-8020 10442 11412 0
8020 -10442 0
8020 -11412 0
11413 -10437 -10475 0
-11413 10437 0
-11413 10475 0
-8027 10445 11413 0
8027 -10445 0
8027 -11413 0
11414 -10439 -10475 0
-11414 10439 0
-11414 10475 0
-8034 10447 11414 0
8034 -10447 0
8034 -11414 0
11415 -10437 -11024 0
-11415 10437 0
-11415 11024 0
-8041 10943 11415 0
8041 -10943 0
8041 -11415 0
11416 -10437 -10436 0
-11416 10437 0
-11416 10436 0
-8048 10421 11416 0
8048 -10421 0
8048 -11416 0
11417 -10439 -10436 0
-11417 10439 0
-11417 10436 0
-8053 10430 11417 0
8053 -10430 0
8053 -11417 0
11418 -10455 -10439 0
-11418 10455 0
-11418 10439 0
-8031 10449 11418 0
8031 -10449 0
8031 -11418 0
11419 -10455 -10455 0
-11419 10455 0
-11419 10455 0
-8012 10451 11419 0
8012 -10451 0
8012 -11419 0
11420 -10455 -10481 0
-11420 10455 0
-11420 10481 0
-8015 10459 11420 0
8015 -10459 0
8015 -11420 0
11421 -10455 -10475 0
-11421 10455 0
-11421 10475 0
-8022 10461 11421 0
8022 -10461 0
8022 -11421 0
11422 -10457 -10475 0
-11422 10457 0
-11422 10475 0
-8024 10463 11422 0
8024 -10463 0
8024 -11422 0
11423 -10455 -11024 0
-11423 10455 0
-11423 11024 0
-8036 10976 11423 0
8036 -10976 0
8036 -11423 0
11424 -10455 -10436 0
-11424 10455 0
-11424 10436 0
-8043 10424 11424 0
8043 -10424 0
8043 -11424 0
11425 -10457 -10436 0
-11425 10457 0
-11425 10436 0
-8045 10427 11425 0
8045 -10427 0
8045 -11425 0
11426 -10481 -10439 0
-11426 10481 0
-11426 10439 0
-8058 10477 11426 0
8058 -10477 0
8058 -11426 0
11427 -10481 -10457 0
-11427 10481 0
-11427 10457 0
-8018 10479 11427 0
8018 -10479 0
8018 -11427 0
11428 -10481 -10481 0
-11428 10481 0
-11428 10481 0
-8063 10483 11428 0
8063 -10483 0
8063 -11428 0
11429 -10481 -11024 0
-11429 10481 0
-11429 11024 0
-8068 10938 11429 0
8068 -10938 0
8068 -11429 0
11430 -10481 -10436 0
-11430 10481 0
-11430 10436 0
-8073 10441 11430 0
8073 -10441 0
8073 -11430 0
11431 -10475 -10436 0
-11431 10475 0
-11431 10436 0
-8078 10444 11431 0
8078 -10444 0
8078 -11431 0
11432 -11024 -10439 0
-11432 11024 0
-11432 10439 0
-8083 11014 11432 0
8083 -11014 0
8083 -11432 0
11433 -11024 -10457 0
-11433 11024 0
-11433 10457 0
-8039 11019 11433 0
8039 -11019 0
8039 -11433 0
11434 -11024 -10475 0
-11434 11024 0
-11434 10475 0
-8088 10941 11434 0
8088 -10941 0
8088 -11434 0
11435 -11024 -11024 0
-11435 11024 0
-11435 11024 0
-8093 11029 11435 0
8093 -11029 0
8093 -11435 0
11436 -11141 -11141 0
-11436 11141 0
-11436 11141 0
-7031 11147 11436 0
7031 -11147 0
7031 -11436 0
11437 -11141 -11152 0
-11437 11141 0
-11437 11152 0
-7038 11154 11437 0
7038 -11154 0
7038 -11437 0
11438 -11141 -11158 0
-11438 11141 0
-11438 11158 0
-7045 11161 11438 0
7045 -11161 0
7045 -11438 0
11439 -11163 -11158 0
-11439 11163 0
-11439 11158 0
-7052 11168 11439 0
7052 -11168 0
7052 -11439 0
11440 -11141 -11173 0
-11440 11141 0
-11440 11173 0
-7026 11175 11440 0
7026 -11175 0
7026 -11440 0
11441 -11141 -11179 0
-11441 11141 0
-11441 11179 0
-7025 11182 11441 0
7025 -11182 0
7025 -11441 0
11442 -11163 -11179 0
-11442 11163 0
-11442 11179 0
-7047 11187 11442 0
7047 -11187 0
7047 -11442 0
11443 -11141 -11192 0
-11443 11141 0
-11443 11192 0
-7059 11194 11443 0
7059 -11194 0
7059 -11443 0
11444 -11141 -11198 0
-11444 11141 0
-11444 11198 0
-7066 11201 11444 0
7066 -11201 0
7066 -11444 0
11445 -11163 -11198 0
-11445 11163 0
-11445 11198 0
-7071 11206 11445 0
7071 -11206 0
7071 -11445 0
11446 -11152 -11163 0
-11446 11152 0
-11446 11163 0
-7076 11211 11446 0
7076 -11211 0
7076 -11446 0
11447 -11152 -11152 0
-11447 11152 0
-11447 11152 0
-7081 11216 11447 0
7081 -11216 0
7081 -11447 0
11448 -11152 -11173 0
-11448 11152 0
-11448 11173 0
-7033 11221 11448 0
7033 -11221 0
7033 -11448 0
11449 -11152 -11179 0
-11449 11152 0
-11449 11179 0
-7036 11226 11449 0
7036 -11226 0
7036 -11449 0
11450 -11158 -11179 0
-11450 11158 0
-11450 11179 0
-7042 11231 11450 0
7042 -11231 0
7042 -11450 0
11451 -11152 -11192 0
-11451 11152 0
-11451 11192 0
-7086 11236 11451 0
7086 -11236 0
7086 -11451 0
11452 -11152 -11198 0
-11452 11152 0
-11452 11198 0
-7091 11241 11452 0
7091 -11241 0
7091 -11452 0
11453 -11158 -11198 0
-11453 11158 0
-11453 11198 0
-7096 11246 11453 0
7096 -11246 0
7096 -11453 0
11454 -11173 -11163 0
-11454 11173 0
-11454 11163 0
-7049 11251 11454 0
7049 -11251 0
7049 -11454 0
11455 -11173 -11158 0
-11455 11173 0
-11455 11158 0
-7040 11256 11455 0
7040 -11256 0
7040 -11455 0
11456 -11173 -11173 0
-11456 11173 0
-11456 11173 0
-7030 11261 11456 0
7030 -11261 0
7030 -11456 0
11457 -11173 -11192 0
-11457 11173 0
-11457 11192 0
-7054 11266 11457 0
7054 -11266 0
7054 -11457 0
11458 -11173 -11198 0
-11458 11173 0
-11458 11198 0
-7061 11271 11458 0
7061 -11271 0
7061 -11458 0
11459 -11179 -11198 0
-11459 11179 0
-11459 11198 0
-7063 11276 11459 0
7063 -11276 0
7063 -11459 0
11460 -11192 -11163 0
-11460 11192 0
-11460 11163 0
-7101 11281 11460 0
7101 -11281 0
7101 -11460 0
11461 -11192 -11158 0
-11461 11192 0
-11461 11158 0
-7106 11286 11461 0
7106 -11286 0
7106 -11461 0
11462 -11192 -11179 0
-11462 11192 0
-11462 11179 0
-7057 11291 11462 0
7057 -11291 0
7057 -11462 0
11463 -11192 -11192 0
-11463 11192 0
-11463 11192 0
-7111 11296 11463 0
7111 -11296 0
7111 -11463 0
11464 -11182 -11182 0
-11464 11182 0
-11464 11182 0
-6673 11147 11464 0
6673 -11147 0
6673 -11464 0
11465 -11182 -11226 0
-11465 11182 0
-11465 11226 0
-6668 11154 11465 0
6668 -11154 0
6668 -11465 0
11466 -11182 -11231 0
-11466 11182 0
-11466 11231 0
-6667 11161 11466 0
6667 -11161 0
6667 -11466 0
11467 -11187 -11231 0
-11467 11187 0
-11467 11231 0
-6689 11168 11467 0
6689 -11168 0
6689 -11467 0
11468 -11182 -11177 0
-11468 11182 0
-11468 11177 0
-6680 11142 11468 0
6680 -11142 0
6680 -11468 0
11469 -11182 -11179 0
-11469 11182 0
-11469 11179 0
-6687 11141 11469 0
6687 -11141 0
6687 -11469 0
11470 -11187 -11179 0
-11470 11187 0
-11470 11179 0
-6694 11163 11470 0
6694 -11163 0
6694 -11470 0
11471 -11182 -11291 0
-11471 11182 0
-11471 11291 0
-6701 11194 11471 0
6701 -11194 0
6701 -11471 0
11472 -11182 -11276 0
-11472 11182 0
-11472 11276 0
-6708 11201 11472 0
6708 -11201 0
6708 -11472 0
11473 -11187 -11276 0
-11473 11187 0
-11473 11276 0
-6713 11206 11473 0
6713 -11206 0
6713 -11473 0
11474 -11226 -11187 0
-11474 11226 0
-11474 11187 0
-6691 11211 11474 0
6691 -11211 0
6691 -11474 0
11475 -11226 -11226 0
-11475 11226 0
-11475 11226 0
-6672 11216 11475 0
6672 -11216 0
6672 -11475 0
11476 -11226 -11177 0
-11476 11226 0
-11476 11177 0
-6675 11149 11476 0
6675 -11149 0
6675 -11476 0
11477 -11226 -11179 0
-11477 11226 0
-11477 11179 0
-6682 11152 11477 0
6682 -11152 0
6682 -11477 0
11478 -11231 -11179 0
-11478 11231 0
-11478 11179 0
-6684 11158 11478 0
6684 -11158 0
6684 -11478 0
11479 -11226 -11291 0
-11479 11226 0
-11479 11291 0
-6696 11236 11479 0
6696 -11236 0
6696 -11479 0
11480 -11226 -11276 0
-11480 11226 0
-11480 11276 0
-6703 11241 11480 0
6703 -11241 0
6703 -11480 0
11481 -11231 -11276 0
-11481 11231 0
-11481 11276 0
-6705 11246 11481 0
6705 -11246 0
6705 -11481 0
11482 -11177 -11187 0
-11482 11177 0
-11482 11187 0
-6718 11165 11482 0
6718 -11165 0
6718 -11482 0
11483 -11177 -11231 0
-11483 11177 0
-11483 11231 0
-6678 11156 11483 0
6678 -11156 0
6678 -11483 0
11484 -11177 -11177 0
-11484 11177 0
-11484 11177 0
-6723 11146 11484 0
6723 -11146 0
6723 -11484 0
11485 -11177 -11291 0
-11485 11177 0
-11485 11291 0
-6728 11189 11485 0
6728 -11189 0
6728 -11485 0
11486 -11177 -11276 0
-11486 11177 0
-11486 11276 0
-6733 11196 11486 0
6733 -11196 0
6733 -11486 0
11487 -11179 -11276 0
-11487 11179 0
-11487 11276 0
-6738 11198 11487 0
6738 -11198 0
6738 -11487 0
11488 -11291 -11187 0
-11488 11291 0
-11488 11187 0
-6743 11281 11488 0
6743 -11281 0
6743 -11488 0
11489 -11291 -11231 0
-11489 11291 0
-11489 11231 0
-6699 11286 11489 0
6699 -11286 0
6699 -11489 0
11490 -11291 -11179 0
-11490 11291 0
-11490 11179 0
-6748 11192 11490 0
6748 -11192 0
6748 -11490 0
11491 -11291 -11291 0
-11491 11291 0
-11491 11291 0
-6753 11296 11491 0
6753 -11296 0
6753 -11491 0
11492 -10683 -10676 0
-11492 10683 0
-11492 10676 0
11493 -10676 -10676 0
-11493 10676 0
-11493 10676 0
11494 -10676 -10683 0
-11494 10676 0
-11494 10683 0
11495 -10683 -10683 -10762 0
-11495 10683 0
-11495 10683 0
-11495 10762 0
-8732 10648 11492 11493 11494 11495 0
8732 -10648 0
8732 -11492 0
8732 -11493 0
8732 -11494 0
8732 -11495 0
11496 -10683 -10722 0
-11496 10683 0
-11496 10722 0
11497 -10676 -10722 0
-11497 10676 0
-11497 10722 0
11498 -10676 -10727 0
-11498 10676 0
-11498 10727 0
11499 -10683 -10727 -10762 0
-11499 10683 0
-11499 10727 0
-11499 10762 0
-9405 10655 11496 11497 11498 11499 0
9405 -10655 0
9405 -11496 0
9405 -11497 0
9405 -11498 0
9405 -11499 0
11500 -10683 -10757 0
-11500 10683 0
-11500 10757 0
11501 -10676 -10732 0
-11501 10676 0
-11501 10732 0
11502 -10676 -10757 0
-11502 10676 0
-11502 10757 0
11503 -10683 -10732 -10762 0
-11503 10683 0
-11503 10732 0
-11503 10762 0
-8731 10662 11500 11501 11502 11503 0
8731 -10662 0
8731 -11500 0
8731 -11501 0
8731 -11502 0
8731 -11503 0
11504 -10688 -10757 0
-11504 10688 0
-11504 10757 0
11505 -10752 -10757 0
-11505 10752 0
-11505 10757 0
11506 -10752 -10732 0
-11506 10752 0
-11506 10732 0
11507 -10688 -10732 -10762 0
-11507 10688 0
-11507 10732 0
-11507 10762 0
-8740 10669 11504 11505 11506 11507 0
8740 -10669 0
8740 -11504 0
8740 -11505 0
8740 -11506 0
8740 -11507 0
11508 -10683 -10671 0
-11508 10683 0
-11508 10671 0
11509 -10676 -10671 0
-11509 10676 0
-11509 10671 0
11510 -10676 -10678 0
-11510 10676 0
-11510 10678 0
11511 -10683 -10678 -10762 0
-11511 10683 0
-11511 10678 0
-11511 10762 0
-8735 10643 11508 11509 11510 11511 0
8735 -10643 0
8735 -11508 0
8735 -11509 0
8735 -11510 0
8735 -11511 0
11512 -10683 -10674 0
-11512 10683 0
-11512 10674 0
11513 -10676 -10680 0
-11513 10676 0
-11513 10680 0
11514 -10676 -10674 0
-11514 10676 0
-11514 10674 0
11515 -10683 -10680 -10762 0
-11515 10683 0
-11515 10680 0
-11515 10762 0
-8738 10642 11512 11513 11514 11515 0
8738 -10642 0
8738 -11512 0
8738 -11513 0
8738 -11514 0
8738 -11515 0
11516 -10688 -10674 0
-11516 10688 0
-11516 10674 0
11517 -10752 -10674 0
-11517 10752 0
-11517 10674 0
11518 -10752 -10680 0
-11518 10752 0
-11518 10680 0
11519 -10688 -10680 -10762 0
-11519 10688 0
-11519 10680 0
-11519 10762 0
-8741 10664 11516 11517 11518 11519 0
8741 -10664 0
8741 -11516 0
8741 -11517 0
8741 -11518 0
8741 -11519 0
11520 -10683 -10767 0
-11520 10683 0
-11520 10767 0
11521 -10676 -10767 0
-11521 10676 0
-11521 10767 0
11522 -10676 -10792 0
-11522 10676 0
-11522 10792 0
11523 -10683 -10792 -10762 0
-11523 10683 0
-11523 10792 0
-11523 10762 0
-8744 10695 11520 11521 11522 11523 0
8744 -10695 0
8744 -11520 0
8744 -11521 0
8744 -11522 0
8744 -11523 0
11524 -10683 -10772 0
-11524 10683 0
-11524 10772 0
11525 -10676 -10777 0
-11525 10676 0
-11525 10777 0
11526 -10676 -10772 0
-11526 10676 0
-11526 10772 0
11527 -10683 -10777 -10762 0
-11527 10683 0
-11527 10777 0
-11527 10762 0
-8747 10702 11524 11525 11526 11527 0
8747 -10702 0
8747 -11524 0
8747 -11525 0
8747 -11526 0
8747 -11527 0
11528 -10688 -10772 0
-11528 10688 0
-11528 10772 0
11529 -10752 -10772 0
-11529 10752 0
-11529 10772 0
11530 -10752 -10777 0
-11530 10752 0
-11530 10777 0
11531 -10688 -10777 -10762 0
-11531 10688 0
-11531 10777 0
-11531 10762 0
-8749 10707 11528 11529 11530 11531 0
8749 -10707 0
8749 -11528 0
8749 -11529 0
8749 -11530 0
8749 -11531 0
11532 -10727 -10752 0
-11532 10727 0
-11532 10752 0
11533 -10722 -10688 0
-11533 10722 0
-11533 10688 0
11534 -10722 -10752 0
-11534 10722 0
-11534 10752 0
11535 -10727 -10688 -10762 0
-11535 10727 0
-11535 10688 0
-11535 10762 0
-9422 10712 11532 11533 11534 11535 0
9422 -10712 0
9422 -11532 0
9422 -11533 0
9422 -11534 0
9422 -11535 0
11536 -10727 -10722 0
-11536 10727 0
-11536 10722 0
11537 -10722 -10722 0
-11537 10722 0
-11537 10722 0
11538 -10722 -10727 0
-11538 10722 0
-11538 10727 0
11539 -10727 -10727 -10762 0
-11539 10727 0
-11539 10727 0
-11539 10762 0
-9409 10717 11536 11537 11538 11539 0
9409 -10717 0
9409 -11536 0
9409 -11537 0
9409 -11538 0
9409 -11539 0
11540 -10727 -10671 0
-11540 10727 0
-11540 10671 0
11541 -10722 -10671 0
-11541 10722 0
-11541 10671 0
11542 -10722 -10678 0
-11542 10722 0
-11542 10678 0
11543 -10727 -10678 -10762 0
-11543 10727 0
-11543 10678 0
-11543 10762 0
-9411 10650 11540 11541 11542 11543 0
9411 -10650 0
9411 -11540 0
9411 -11541 0
9411 -11542 0
9411 -11543 0
11544 -10727 -10674 0
-11544 10727 0
-11544 10674 0
11545 -10722 -10680 0
-11545 10722 0
-11545 10680 0
11546 -10722 -10674 0
-11546 10722 0
-11546 10674 0
11547 -10727 -10680 -10762 0
-11547 10727 0
-11547 10680 0
-11547 10762 0
-9416 10653 11544 11545 11546 11547 0
9416 -10653 0
9416 -11544 0
9416 -11545 0
9416 -11546 0
9416 -11547 0
11548 -10732 -10674 0
-11548 10732 0
-11548 10674 0
11549 -10757 -10674 0
-11549 10757 0
-11549 10674 0
11550 -10757 -10680 0
-11550 10757 0
-11550 10680 0
11551 -10732 -10680 -10762 0
-11551 10732 0
-11551 10680 0
-11551 10762 0
-8737 10659 11548 11549 11550 11551 0
8737 -10659 0
8737 -11548 0
8737 -11549 0
8737 -11550 0
8737 -11551 0
11552 -10727 -10767 0
-11552 10727 0
-11552 10767 0
11553 -10722 -10767 0
-11553 10722 0
-11553 10767 0
11554 -10722 -10792 0
-11554 10722 0
-11554 10792 0
11555 -10727 -10792 -10762 0
-11555 10727 0
-11555 10792 0
-11555 10762 0
-9426 10737 11552 11553 11554 11555 0
9426 -10737 0
9426 -11552 0
9426 -11553 0
9426 -11554 0
9426 -11555 0
11556 -10727 -10772 0
-11556 10727 0
-11556 10772 0
11557 -10722 -10777 0
-11557 10722 0
-11557 10777 0
11558 -10722 -10772 0
-11558 10722 0
-11558 10772 0
11559 -10727 -10777 -10762 0
-11559 10727 0
-11559 10777 0
-11559 10762 0
-9431 10742 11556 11557 11558 11559 0
9431 -10742 0
9431 -11556 0
9431 -11557 0
9431 -11558 0
9431 -11559 0
11560 -10732 -10772 0
-11560 10732 0
-11560 10772 0
11561 -10757 -10772 0
-11561 10757 0
-11561 10772 0
11562 -10757 -10777 0
-11562 10757 0
-11562 10777 0
11563 -10732 -10777 -10762 0
-11563 10732 0
-11563 10777 0
-11563 10762 0
-8746 10747 11560 11561 11562 11563 0
8746 -10747 0
8746 -11560 0
8746 -11561 0
8746 -11562 0
8746 -11563 0
11564 -10678 -10752 0
-11564 10678 0
-11564 10752 0
11565 -10671 -10688 0
-11565 10671 0
-11565 10688 0
11566 -10671 -10752 0
-11566 10671 0
-11566 10752 0
11567 -10678 -10688 -10762 0
-11567 10678 0
-11567 10688 0
-11567 10762 0
-8751 10666 11564 11565 11566 11567 0
8751 -10666 0
8751 -11564 0
8751 -11565 0
8751 -11566 0
8751 -11567 0
11568 -10678 -10757 0
-11568 10678 0
-11568 10757 0
11569 -10671 -10732 0
-11569 10671 0
-11569 10732 0
11570 -10671 -10757 0
-11570 10671 0
-11570 10757 0
11571 -10678 -10732 -10762 0
-11571 10678 0
-11571 10732 0
-11571 10762 0
-8734 10657 11568 11569 11570 11571 0
8734 -10657 0
8734 -11568 0
8734 -11569 0
8734 -11570 0
8734 -11571 0
11572 -10678 -10671 0
-11572 10678 0
-11572 10671 0
10759 -10671 -10671 0
-10759 10671 0
-10759 10671 0
11573 -10671 -10678 0
-11573 10671 0
-11573 10678 0
11574 -10678 -10678 -10762 0
-11574 10678 0
-11574 10678 0
-11574 10762 0
-8753 10647 11572 10759 11573 11574 0
8753 -10647 0
8753 -11572 0
8753 -10759 0
8753 -11573 0
8753 -11574 0
11575 -10678 -10767 0
-11575 10678 0
-11575 10767 0
11576 -10671 -10767 0
-11576 10671 0
-11576 10767 0
11577 -10671 -10792 0
-11577 10671 0
-11577 10792 0
11578 -10678 -10792 -10762 0
-11578 10678 0
-11578 10792 0
-11578 10762 0
-8755 10690 11575 11576 11577 11578 0
8755 -10690 0
8755 -11575 0
8755 -11576 0
8755 -11577 0
8755 -11578 0
11579 -10678 -10772 0
-11579 10678 0
-11579 10772 0
11580 -10671 -10777 0
-11580 10671 0
-11580 10777 0
11581 -10671 -10772 0
-11581 10671 0
-11581 10772 0
11582 -10678 -10777 -10762 0
-11582 10678 0
-11582 10777 0
-11582 10762 0
-8757 10697 11579 11580 11581 11582 0
8757 -10697 0
8757 -11579 0
8757 -11580 0
8757 -11581 0
8757 -11582 0
11583 -10680 -10772 0
-11583 10680 0
-11583 10772 0
11584 -10674 -10772 0
-11584 10674 0
-11584 10772 0
11585 -10674 -10777 0
-11585 10674 0
-11585 10777 0
11586 -10680 -10777 -10762 0
-11586 10680 0
-11586 10777 0
-11586 10762 0
-8759 10699 11583 11584 11585 11586 0
8759 -10699 0
8759 -11583 0
8759 -11584 0
8759 -11585 0
8759 -11586 0
11587 -10792 -10752 0
-11587 10792 0
-11587 10752 0
11588 -10767 -10688 0
-11588 10767 0
-11588 10688 0
11589 -10767 -10752 0
-11589 10767 0
-11589 10752 0
11590 -10792 -10688 -10762 0
-11590 10792 0
-11590 10688 0
-11590 10762 0
-8761 10782 11587 11588 11589 11590 0
8761 -10782 0
8761 -11587 0
8761 -11588 0
8761 -11589 0
8761 -11590 0
11591 -10792 -10757 0
-11591 10792 0
-11591 10757 0
11592 -10767 -10732 0
-11592 10767 0
-11592 10732 0
11593 -10767 -10757 0
-11593 10767 0
-11593 10757 0
11594 -10792 -10732 -10762 0
-11594 10792 0
-11594 10732 0
-11594 10762 0
-8743 10787 11591 11592 11593 11594 0
8743 -10787 0
8743 -11591 0
8743 -11592 0
8743 -11593 0
8743 -11594 0
11595 -10792 -10674 0
-11595 10792 0
-11595 10674 0
11596 -10767 -10680 0
-11596 10767 0
-11596 10680 0
11597 -10767 -10674 0
-11597 10767 0
-11597 10674 0
11598 -10792 -10680 -10762 0
-11598 10792 0
-11598 10680 0
-11598 10762 0
-8763 10693 11595 11596 11597 11598 0
8763 -10693 0
8763 -11595 0
8763 -11596 0
8763 -11597 0
8763 -11598 0
11599 -10792 -10767 0
-11599 10792 0
-11599 10767 0
11600 -10767 -10767 0
-11600 10767 0
-11600 10767 0
11601 -10767 -10792 0
-11601 10767 0
-11601 10792 0
11602 -10792 -10792 -10762 0
-11602 10792 0
-11602 10792 0
-11602 10762 0
-8765 10797 11599 11600 11601 11602 0
8765 -10797 0
8765 -11599 0
8765 -11600 0
8765 -11601 0
8765 -11602 0
11603 -10526 -10526 0
-11603 10526 0
-11603 10526 0
-6990 10491 11603 0
6990 -10491 0
6990 -11603 0
11604 -10526 -10570 0
-11604 10526 0
-11604 10570 0
-8767 10498 11604 0
8767 -10498 0
8767 -11604 0
11605 -10526 -10575 0
-11605 10526 0
-11605 10575 0
-6989 10505 11605 0
6989 -10505 0
6989 -11605 0
11606 -10531 -10575 0
-11606 10531 0
-11606 10575 0
-6998 10512 11606 0
6998 -10512 0
6998 -11606 0
11607 -10526 -10635 0
-11607 10526 0
-11607 10635 0
-6993 10538 11607 0
6993 -10538 0
6993 -11607 0
11608 -10526 -10620 0
-11608 10526 0
-11608 10620 0
-6996 10545 11608 0
6996 -10545 0
6996 -11608 0
11609 -10531 -10620 0
-11609 10531 0
-11609 10620 0
-6999 10550 11609 0
6999 -10550 0
6999 -11609 0
11610 -10526 -10521 0
-11610 10526 0
-11610 10521 0
-7002 10486 11610 0
7002 -10486 0
7002 -11610 0
11611 -10526 -10523 0
-11611 10526 0
-11611 10523 0
-7005 10485 11611 0
7005 -10485 0
7005 -11611 0
11612 -10531 -10523 0
-11612 10531 0
-11612 10523 0
-7007 10507 11612 0
7007 -10507 0
7007 -11612 0
11613 -10570 -10531 0
-11613 10570 0
-11613 10531 0
-8784 10555 11613 0
8784 -10555 0
8784 -11613 0
11614 -10570 -10570 0
-11614 10570 0
-11614 10570 0
-8771 10560 11614 0
8771 -10560 0
8771 -11614 0
11615 -10570 -10635 0
-11615 10570 0
-11615 10635 0
-8773 10580 11615 0
8773 -10580 0
8773 -11615 0
11616 -10570 -10620 0
-11616 10570 0
-11616 10620 0
-8778 10585 11616 0
8778 -10585 0
8778 -11616 0
11617 -10575 -10620 0
-11617 10575 0
-11617 10620 0
-6995 10590 11617 0
6995 -10590 0
6995 -11617 0
11618 -10570 -10521 0
-11618 10570 0
-11618 10521 0
-8788 10493 11618 0
8788 -10493 0
8788 -11618 0
11619 -10570 -10523 0
-11619 10570 0
-11619 10523 0
-8793 10496 11619 0
8793 -10496 0
8793 -11619 0
11620 -10575 -10523 0
-11620 10575 0
-11620 10523 0
-7004 10502 11620 0
7004 -10502 0
7004 -11620 0
11621 -10635 -10531 0
-11621 10635 0
-11621 10531 0
-7009 10625 11621 0
7009 -10625 0
7009 -11621 0
11622 -10635 -10575 0
-11622 10635 0
-11622 10575 0
-6992 10630 11622 0
6992 -10630 0
6992 -11622 0
11623 -10635 -10635 0
-11623 10635 0
-11623 10635 0
-7011 10640 11623 0
7011 -10640 0
7011 -11623 0
11624 -10635 -10521 0
-11624 10635 0
-11624 10521 0
-7013 10533 11624 0
7013 -10533 0
7013 -11624 0
11625 -10635 -10523 0
-11625 10635 0
-11625 10523 0
-7015 10536 11625 0
7015 -10536 0
7015 -11625 0
11626 -10620 -10523 0
-11626 10620 0
-11626 10523 0
-7017 10542 11626 0
7017 -10542 0
7017 -11626 0
11627 -10521 -10531 0
-11627 10521 0
-11627 10531 0
-7019 10509 11627 0
7019 -10509 0
7019 -11627 0
11628 -10521 -10575 0
-11628 10521 0
-11628 10575 0
-7001 10500 11628 0
7001 -10500 0
7001 -11628 0
11629 -10521 -10620 0
-11629 10521 0
-11629 10620 0
-7021 10540 11629 0
7021 -10540 0
7021 -11629 0
11630 -10521 -10521 0
-11630 10521 0
-11630 10521 0
-7023 10490 11630 0
7023 -10490 0
7023 -11630 0
11631 -10545 -10545 0
-11631 10545 0
-11631 10545 0
-7763 10491 11631 0
7763 -10491 0
7763 -11631 0
11632 -10545 -10585 0
-11632 10545 0
-11632 10585 0
-7770 10498 11632 0
7770 -10498 0
7770 -11632 0
11633 -10545 -10590 0
-11633 10545 0
-11633 10590 0
-7777 10505 11633 0
7777 -10505 0
7777 -11633 0
11634 -10550 -10590 0
-11634 10550 0
-11634 10590 0
-7784 10512 11634 0
7784 -10512 0
7784 -11634 0
11635 -10545 -10615 0
-11635 10545 0
-11635 10615 0
-7758 10519 11635 0
7758 -10519 0
7758 -11635 0
11636 -10545 -10620 0
-11636 10545 0
-11636 10620 0
-7757 10526 11636 0
7757 -10526 0
7757 -11636 0
11637 -10550 -10620 0
-11637 10550 0
-11637 10620 0
-7779 10531 11637 0
7779 -10531 0
7779 -11637 0
11638 -10545 -10540 0
-11638 10545 0
-11638 10540 0
-7791 10486 11638 0
7791 -10486 0
7791 -11638 0
11639 -10545 -10542 0
-11639 10545 0
-11639 10542 0
-7798 10485 11639 0
7798 -10485 0
7798 -11639 0
11640 -10550 -10542 0
-11640 10550 0
-11640 10542 0
-7803 10507 11640 0
7803 -10507 0
7803 -11640 0
11641 -10585 -10550 0
-11641 10585 0
-11641 10550 0
-7808 10555 11641 0
7808 -10555 0
7808 -11641 0
11642 -10585 -10585 0
-11642 10585 0
-11642 10585 0
-7813 10560 11642 0
7813 -10560 0
7813 -11642 0
11643 -10585 -10615 0
-11643 10585 0
-11643 10615 0
-7765 10565 11643 0
7765 -10565 0
7765 -11643 0
11644 -10585 -10620 0
-11644 10585 0
-11644 10620 0
-7768 10570 11644 0
7768 -10570 0
7768 -11644 0
11645 -10590 -10620 0
-11645 10590 0
-11645 10620 0
-7774 10575 11645 0
7774 -10575 0
7774 -11645 0
11646 -10585 -10540 0
-11646 10585 0
-11646 10540 0
-7818 10493 11646 0
7818 -10493 0
7818 -11646 0
11647 -10585 -10542 0
-11647 10585 0
-11647 10542 0
-7823 10496 11647 0
7823 -10496 0
7823 -11647 0
11648 -10590 -10542 0
-11648 10590 0
-11648 10542 0
-7828 10502 11648 0
7828 -10502 0
7828 -11648 0
11649 -10615 -10550 0
-11649 10615 0
-11649 10550 0
-7781 10595 11649 0
7781 -10595 0
7781 -11649 0
11650 -10615 -10590 0
-11650 10615 0
-11650 10590 0
-7772 10600 11650 0
7772 -10600 0
7772 -11650 0
11651 -10615 -10615 0
-11651 10615 0
-11651 10615 0
-7762 10605 11651 0
7762 -10605 0
7762 -11651 0
11652 -10615 -10540 0
-11652 10615 0
-11652 10540 0
-7786 10514 11652 0
7786 -10514 0
7786 -11652 0
11653 -10615 -10542 0
-11653 10615 0
-11653 10542 0
-7793 10517 11653 0
7793 -10517 0
7793 -11653 0
11654 -10620 -10542 0
-11654 10620 0
-11654 10542 0
-7795 10523 11654 0
7795 -10523 0
7795 -11654 0
11655 -10540 -10550 0
-11655 10540 0
-11655 10550 0
-7833 10509 11655 0
7833 -10509 0
7833 -11655 0
11656 -10540 -10590 0
-11656 10540 0
-11656 10590 0
-7838 10500 11656 0
7838 -10500 0
7838 -11656 0
11657 -10540 -10620 0
-11657 10540 0
-11657 10620 0
-7789 10521 11657 0
7789 -10521 0
7789 -11657 0
11658 -10540 -10540 0
-11658 10540 0
-11658 10540 0
-7843 10490 11658 0
7843 -10490 0
7843 -11658 0
11659 -10642 -10642 0
-11659 10642 0
-11659 10642 0
-6907 10648 11659 0
6907 -10648 0
6907 -11659 0
11660 -10642 -10653 0
-11660 10642 0
-11660 10653 0
-6902 10655 11660 0
6902 -10655 0
6902 -11660 0
11661 -10642 -10659 0
-11661 10642 0
-11661 10659 0
-6901 10662 11661 0
6901 -10662 0
6901 -11661 0
11662 -10664 -10659 0
-11662 10664 0
-11662 10659 0
-6923 10669 11662 0
6923 -10669 0
6923 -11662 0
11663 -10642 -10674 0
-11663 10642 0
-11663 10674 0
-6914 10676 11663 0
6914 -10676 0
6914 -11663 0
11664 -10642 -10680 0
-11664 10642 0
-11664 10680 0
-6921 10683 11664 0
6921 -10683 0
6921 -11664 0
11665 -10664 -10680 0
-11665 10664 0
-11665 10680 0
-6928 10688 11665 0
6928 -10688 0
6928 -11665 0
11666 -10642 -10693 0
-11666 10642 0
-11666 10693 0
-6935 10695 11666 0
6935 -10695 0
6935 -11666 0
11667 -10642 -10699 0
-11667 10642 0
-11667 10699 0
-6942 10702 11667 0
6942 -10702 0
6942 -11667 0
11668 -10664 -10699 0
-11668 10664 0
-11668 10699 0
-6947 10707 11668 0
6947 -10707 0
6947 -11668 0
11669 -10653 -10664 0
-11669 10653 0
-11669 10664 0
-6925 10712 11669 0
6925 -10712 0
6925 -11669 0
11670 -10653 -10653 0
-11670 10653 0
-11670 10653 0
-6906 10717 11670 0
6906 -10717 0
6906 -11670 0
11671 -10653 -10674 0
-11671 10653 0
-11671 10674 0
-6909 10722 11671 0
6909 -10722 0
6909 -11671 0
11672 -10653 -10680 0
-11672 10653 0
-11672 10680 0
-6916 10727 11672 0
6916 -10727 0
6916 -11672 0
11673 -10659 -10680 0
-11673 10659 0
-11673 10680 0
-6918 10732 11673 0
6918 -10732 0
6918 -11673 0
11674 -10653 -10693 0
-11674 10653 0
-11674 10693 0
-6930 10737 11674 0
6930 -10737 0
6930 -11674 0
11675 -10653 -10699 0
-11675 10653 0
-11675 10699 0
-6937 10742 11675 0
6937 -10742 0
6937 -11675 0
11676 -10659 -10699 0
-11676 10659 0
-11676 10699 0
-6939 10747 11676 0
6939 -10747 0
6939 -11676 0
11677 -10674 -10664 0
-11677 10674 0
-11677 10664 0
-6952 10752 11677 0
6952 -10752 0
6952 -11677 0
11678 -10674 -10659 0
-11678 10674 0
-11678 10659 0
-6912 10757 11678 0
6912 -10757 0
6912 -11678 0
11679 -10674 -10674 0
-11679 10674 0
-11679 10674 0
-6957 10762 11679 0
6957 -10762 0
6957 -11679 0
11680 -10674 -10693 0
-11680 10674 0
-11680 10693 0
-6962 10767 11680 0
6962 -10767 0
6962 -11680 0
11681 -10674 -10699 0
-11681 10674 0
-11681 10699 0
-6967 10772 11681 0
6967 -10772 0
6967 -11681 0
11682 -10680 -10699 0
-11682 10680 0
-11682 10699 0
-6972 10777 11682 0
6972 -10777 0
6972 -11682 0
11683 -10693 -10664 0
-11683 10693 0
-11683 10664 0
-6977 10782 11683 0
6977 -10782 0
6977 -11683 0
11684 -10693 -10659 0
-11684 10693 0
-11684 10659 0
-6933 10787 11684 0
6933 -10787 0
6933 -11684 0
11685 -10693 -10680 0
-11685 10693 0
-11685 10680 0
-6982 10792 11685 0
6982 -10792 0
6982 -11685 0
11686 -10693 -10693 0
-11686 10693 0
-11686 10693 0
-6987 10797 11686 0
6987 -10797 0
6987 -11686 0
11687 -10445 -10445 0
-11687 10445 0
-11687 10445 0
-7399 10422 11687 0
7399 -10422 0
7399 -11687 0
11688 -10445 -10461 0
-11688 10445 0
-11688 10461 0
-7443 10425 11688 0
7443 -10425 0
7443 -11688 0
11689 -10445 -10463 0
-11689 10445 0
-11689 10463 0
-7398 10428 11689 0
7398 -10428 0
7398 -11689 0
11690 -10447 -10463 0
-11690 10447 0
-11690 10463 0
-7407 10431 11690 0
7407 -10431 0
7407 -11690 0
11691 -10445 -10473 0
-11691 10445 0
-11691 10473 0
-7402 10434 11691 0
7402 -10434 0
7402 -11691 0
11692 -10445 -10475 0
-11692 10445 0
-11692 10475 0
-7405 10437 11692 0
7405 -10437 0
7405 -11692 0
11693 -10447 -10475 0
-11693 10447 0
-11693 10475 0
-7408 10439 11693 0
7408 -10439 0
7408 -11693 0
11694 -10445 -10941 0
-11694 10445 0
-11694 10941 0
-7411 10943 11694 0
7411 -10943 0
7411 -11694 0
11695 -10445 -10444 0
-11695 10445 0
-11695 10444 0
-7414 10421 11695 0
7414 -10421 0
7414 -11695 0
11696 -10447 -10444 0
-11696 10447 0
-11696 10444 0
-7416 10430 11696 0
7416 -10430 0
7416 -11696 0
11697 -10461 -10447 0
-11697 10461 0
-11697 10447 0
-7468 10449 11697 0
7468 -10449 0
7468 -11697 0
11698 -10461 -10461 0
-11698 10461 0
-11698 10461 0
-7473 10451 11698 0
7473 -10451 0
7473 -11698 0
11699 -10461 -10473 0
-11699 10461 0
-11699 10473 0
-7438 10453 11699 0
7438 -10453 0
7438 -11699 0
11700 -10461 -10475 0
-11700 10461 0
-11700 10475 0
-7441 10455 11700 0
7441 -10455 0
7441 -11700 0
11701 -10463 -10475 0
-11701 10463 0
-11701 10475 0
-7404 10457 11701 0
7404 -10457 0
7404 -11701 0
11702 -10461 -10941 0
-11702 10461 0
-11702 10941 0
-7478 10976 11702 0
7478 -10976 0
7478 -11702 0
11703 -10461 -10444 0
-11703 10461 0
-11703 10444 0
-7483 10424 11703 0
7483 -10424 0
7483 -11703 0
11704 -10463 -10444 0
-11704 10463 0
-11704 10444 0
-7413 10427 11704 0
7413 -10427 0
7413 -11704 0
11705 -10473 -10447 0
-11705 10473 0
-11705 10447 0
-7418 10465 11705 0
7418 -10465 0
7418 -11705 0
11706 -10473 -10463 0
-11706 10473 0
-11706 10463 0
-7401 10467 11706 0
7401 -10467 0
7401 -11706 0
11707 -10473 -10473 0
-11707 10473 0
-11707 10473 0
-7420 10469 11707 0
7420 -10469 0
7420 -11707 0
11708 -10473 -10941 0
-11708 10473 0
-11708 10941 0
-7422 11001 11708 0
7422 -11001 0
7422 -11708 0
11709 -10473 -10444 0
-11709 10473 0
-11709 10444 0
-7424 10433 11709 0
7424 -10433 0
7424 -11709 0
11710 -10475 -10444 0
-11710 10475 0
-11710 10444 0
-7426 10436 11710 0
7426 -10436 0
7426 -11710 0
11711 -10941 -10447 0
-11711 10941 0
-11711 10447 0
-7428 11014 11711 0
7428 -11014 0
7428 -11711 0
11712 -10941 -10463 0
-11712 10941 0
-11712 10463 0
-7410 11019 11712 0
7410 -11019 0
7410 -11712 0
11713 -10941 -10475 0
-11713 10941 0
-11713 10475 0
-7430 11024 11713 0
7430 -11024 0
7430 -11713 0
11714 -10941 -10941 0
-11714 10941 0
-11714 10941 0
-7432 11029 11714 0
7432 -11029 0
7432 -11714 0
11715 -10264 -10264 0
-11715 10264 0
-11715 10264 0
-7129 10270 11715 0
7129 -10270 0
7129 -11715 0
11716 -10264 -10275 0
-11716 10264 0
-11716 10275 0
-9692 10277 11716 0
9692 -10277 0
9692 -11716 0
11717 -10264 -10281 0
-11717 10264 0
-11717 10281 0
-7128 10284 11717 0
7128 -10284 0
7128 -11717 0
11718 -10286 -10281 0
-11718 10286 0
-11718 10281 0
-7137 10291 11718 0
7137 -10291 0
7137 -11718 0
11719 -10264 -10296 0
-11719 10264 0
-11719 10296 0
-7132 10298 11719 0
7132 -10298 0
7132 -11719 0
11720 -10264 -10302 0
-11720 10264 0
-11720 10302 0
-7135 10305 11720 0
7135 -10305 0
7135 -11720 0
11721 -10286 -10302 0
-11721 10286 0
-11721 10302 0
-7138 10310 11721 0
7138 -10310 0
7138 -11721 0
11722 -10264 -10315 0
-11722 10264 0
-11722 10315 0
-7141 10317 11722 0
7141 -10317 0
7141 -11722 0
11723 -10264 -10321 0
-11723 10264 0
-11723 10321 0
-7144 10324 11723 0
7144 -10324 0
7144 -11723 0
11724 -10286 -10321 0
-11724 10286 0
-11724 10321 0
-7146 10329 11724 0
7146 -10329 0
7146 -11724 0
11725 -10275 -10286 0
-11725 10275 0
-11725 10286 0
-9709 10334 11725 0
9709 -10334 0
9709 -11725 0
11726 -10275 -10275 0
-11726 10275 0
-11726 10275 0
-9696 10339 11726 0
9696 -10339 0
9696 -11726 0
11727 -10275 -10296 0
-11727 10275 0
-11727 10296 0
-9698 10344 11727 0
9698 -10344 0
9698 -11727 0
11728 -10275 -10302 0
-11728 10275 0
-11728 10302 0
-9703 10349 11728 0
9703 -10349 0
9703 -11728 0
11729 -10281 -10302 0
-11729 10281 0
-11729 10302 0
-7134 10354 11729 0
7134 -10354 0
7134 -11729 0
11730 -10275 -10315 0
-11730 10275 0
-11730 10315 0
-9713 10359 11730 0
9713 -10359 0
9713 -11730 0
11731 -10275 -10321 0
-11731 10275 0
-11731 10321 0
-9718 10364 11731 0
9718 -10364 0
9718 -11731 0
11732 -10281 -10321 0
-11732 10281 0
-11732 10321 0
-7143 10369 11732 0
7143 -10369 0
7143 -11732 0
11733 -10296 -10286 0
-11733 10296 0
-11733 10286 0
-7148 10374 11733 0
7148 -10374 0
7148 -11733 0
11734 -10296 -10281 0
-11734 10296 0
-11734 10281 0
-7131 10379 11734 0
7131 -10379 0
7131 -11734 0
11735 -10296 -10296 0
-11735 10296 0
-11735 10296 0
-7150 10384 11735 0
7150 -10384 0
7150 -11735 0
11736 -10296 -10315 0
-11736 10296 0
-11736 10315 0
-7152 10389 11736 0
7152 -10389 0
7152 -11736 0
11737 -10296 -10321 0
-11737 10296 0
-11737 10321 0
-7154 10394 11737 0
7154 -10394 0
7154 -11737 0
11738 -10302 -10321 0
-11738 10302 0
-11738 10321 0
-7156 10399 11738 0
7156 -10399 0
7156 -11738 0
11739 -10315 -10286 0
-11739 10315 0
-11739 10286 0
-7158 10404 11739 0
7158 -10404 0
7158 -11739 0
11740 -10315 -10281 0
-11740 10315 0
-11740 10281 0
-7140 10409 11740 0
7140 -10409 0
7140 -11740 0
11741 -10315 -10302 0
-11741 10315 0
-11741 10302 0
-7160 10414 11741 0
7160 -10414 0
7160 -11741 0
11742 -10315 -10315 0
-11742 10315 0
-11742 10315 0
-7162 10419 11742 0
7162 -10419 0
7162 -11742 0
11743 -10485 -10485 0
-11743 10485 0
-11743 10485 0
-6497 10491 11743 0
6497 -10491 0
6497 -11743 0
11744 -10485 -10496 0
-11744 10485 0
-11744 10496 0
-6504 10498 11744 0
6504 -10498 0
6504 -11744 0
11745 -10485 -10502 0
-11745 10485 0
-11745 10502 0
-6511 10505 11745 0
6511 -10505 0
6511 -11745 0
11746 -10507 -10502 0
-11746 10507 0
-11746 10502 0
-6518 10512 11746 0
6518 -10512 0
6518 -11746 0
11747 -10485 -10517 0
-11747 10485 0
-11747 10517 0
-6492 10519 11747 0
6492 -10519 0
6492 -11747 0
11748 -10485 -10523 0
-11748 10485 0
-11748 10523 0
-6491 10526 11748 0
6491 -10526 0
6491 -11748 0
11749 -10507 -10523 0
-11749 10507 0
-11749 10523 0
-6513 10531 11749 0
6513 -10531 0
6513 -11749 0
11750 -10485 -10536 0
-11750 10485 0
-11750 10536 0
-6525 10538 11750 0
6525 -10538 0
6525 -11750 0
11751 -10485 -10542 0
-11751 10485 0
-11751 10542 0
-6532 10545 11751 0
6532 -10545 0
6532 -11751 0
11752 -10507 -10542 0
-11752 10507 0
-11752 10542 0
-6537 10550 11752 0
6537 -10550 0
6537 -11752 0
11753 -10496 -10507 0
-11753 10496 0
-11753 10507 0
-6542 10555 11753 0
6542 -10555 0
6542 -11753 0
11754 -10496 -10496 0
-11754 10496 0
-11754 10496 0
-6547 10560 11754 0
6547 -10560 0
6547 -11754 0
11755 -10496 -10517 0
-11755 10496 0
-11755 10517 0
-6499 10565 11755 0
6499 -10565 0
6499 -11755 0
11756 -10496 -10523 0
-11756 10496 0
-11756 10523 0
-6502 10570 11756 0
6502 -10570 0
6502 -11756 0
11757 -10502 -10523 0
-11757 10502 0
-11757 10523 0
-6508 10575 11757 0
6508 -10575 0
6508 -11757 0
11758 -10496 -10536 0
-11758 10496 0
-11758 10536 0
-6552 10580 11758 0
6552 -10580 0
6552 -11758 0
11759 -10496 -10542 0
-11759 10496 0
-11759 10542 0
-6557 10585 11759 0
6557 -10585 0
6557 -11759 0
11760 -10502 -10542 0
-11760 10502 0
-11760 10542 0
-6562 10590 11760 0
6562 -10590 0
6562 -11760 0
11761 -10517 -10507 0
-11761 10517 0
-11761 10507 0
-6515 10595 11761 0
6515 -10595 0
6515 -11761 0
11762 -10517 -10502 0
-11762 10517 0
-11762 10502 0
-6506 10600 11762 0
6506 -10600 0
6506 -11762 0
11763 -10517 -10517 0
-11763 10517 0
-11763 10517 0
-6496 10605 11763 0
6496 -10605 0
6496 -11763 0
11764 -10517 -10536 0
-11764 10517 0
-11764 10536 0
-6520 10610 11764 0
6520 -10610 0
6520 -11764 0
11765 -10517 -10542 0
-11765 10517 0
-11765 10542 0
-6527 10615 11765 0
6527 -10615 0
6527 -11765 0
11766 -10523 -10542 0
-11766 10523 0
-11766 10542 0
-6529 10620 11766 0
6529 -10620 0
6529 -11766 0
11767 -10536 -10507 0
-11767 10536 0
-11767 10507 0
-6567 10625 11767 0
6567 -10625 0
6567 -11767 0
11768 -10536 -10502 0
-11768 10536 0
-11768 10502 0
-6572 10630 11768 0
6572 -10630 0
6572 -11768 0
11769 -10536 -10523 0
-11769 10536 0
-11769 10523 0
-6523 10635 11769 0
6523 -10635 0
6523 -11769 0
11770 -10536 -10536 0
-11770 10536 0
-11770 10536 0
-6577 10640 11770 0
6577 -10640 0
6577 -11770 0
11771 -11182 -11175 0
-11771 11182 0
-11771 11175 0
11772 -11175 -11175 0
-11772 11175 0
-11772 11175 0
11773 -11175 -11182 0
-11773 11175 0
-11773 11182 0
11774 -11182 -11182 -11261 0
-11774 11182 0
-11774 11182 0
-11774 11261 0
-7312 11147 11771 11772 11773 11774 0
7312 -11147 0
7312 -11771 0
7312 -11772 0
7312 -11773 0
7312 -11774 0
11775 -11182 -11221 0
-11775 11182 0
-11775 11221 0
11776 -11175 -11221 0
-11776 11175 0
-11776 11221 0
11777 -11175 -11226 0
-11777 11175 0
-11777 11226 0
11778 -11182 -11226 -11261 0
-11778 11182 0
-11778 11226 0
-11778 11261 0
-8649 11154 11775 11776 11777 11778 0
8649 -11154 0
8649 -11775 0
8649 -11776 0
8649 -11777 0
8649 -11778 0
11779 -11182 -11256 0
-11779 11182 0
-11779 11256 0
11780 -11175 -11231 0
-11780 11175 0
-11780 11231 0
11781 -11175 -11256 0
-11781 11175 0
-11781 11256 0
11782 -11182 -11231 -11261 0
-11782 11182 0
-11782 11231 0
-11782 11261 0
-7311 11161 11779 11780 11781 11782 0
7311 -11161 0
7311 -11779 0
7311 -11780 0
7311 -11781 0
7311 -11782 0
11783 -11187 -11256 0
-11783 11187 0
-11783 11256 0
11784 -11251 -11256 0
-11784 11251 0
-11784 11256 0
11785 -11251 -11231 0
-11785 11251 0
-11785 11231 0
11786 -11187 -11231 -11261 0
-11786 11187 0
-11786 11231 0
-11786 11261 0
-7320 11168 11783 11784 11785 11786 0
7320 -11168 0
7320 -11783 0
7320 -11784 0
7320 -11785 0
7320 -11786 0
11787 -11182 -11170 0
-11787 11182 0
-11787 11170 0
11788 -11175 -11170 0
-11788 11175 0
-11788 11170 0
11789 -11175 -11177 0
-11789 11175 0
-11789 11177 0
11790 -11182 -11177 -11261 0
-11790 11182 0
-11790 11177 0
-11790 11261 0
-7315 11142 11787 11788 11789 11790 0
7315 -11142 0
7315 -11787 0
7315 -11788 0
7315 -11789 0
7315 -11790 0
11791 -11182 -11173 0
-11791 11182 0
-11791 11173 0
11792 -11175 -11179 0
-11792 11175 0
-11792 11179 0
11793 -11175 -11173 0
-11793 11175 0
-11793 11173 0
11794 -11182 -11179 -11261 0
-11794 11182 0
-11794 11179 0
-11794 11261 0
-7318 11141 11791 11792 11793 11794 0
7318 -11141 0
7318 -11791 0
7318 -11792 0
7318 -11793 0
7318 -11794 0
11795 -11187 -11173 0
-11795 11187 0
-11795 11173 0
11796 -11251 -11173 0
-11796 11251 0
-11796 11173 0
11797 -11251 -11179 0
-11797 11251 0
-11797 11179 0
11798 -11187 -11179 -11261 0
-11798 11187 0
-11798 11179 0
-11798 11261 0
-7321 11163 11795 11796 11797 11798 0
7321 -11163 0
7321 -11795 0
7321 -11796 0
7321 -11797 0
7321 -11798 0
11799 -11182 -11266 0
-11799 11182 0
-11799 11266 0
11800 -11175 -11266 0
-11800 11175 0
-11800 11266 0
11801 -11175 -11291 0
-11801 11175 0
-11801 11291 0
11802 -11182 -11291 -11261 0
-11802 11182 0
-11802 11291 0
-11802 11261 0
-7324 11194 11799 11800 11801 11802 0
7324 -11194 0
7324 -11799 0
7324 -11800 0
7324 -11801 0
7324 -11802 0
11803 -11182 -11271 0
-11803 11182 0
-11803 11271 0
11804 -11175 -11276 0
-11804 11175 0
-11804 11276 0
11805 -11175 -11271 0
-11805 11175 0
-11805 11271 0
11806 -11182 -11276 -11261 0
-11806 11182 0
-11806 11276 0
-11806 11261 0
-7327 11201 11803 11804 11805 11806 0
7327 -11201 0
7327 -11803 0
7327 -11804 0
7327 -11805 0
7327 -11806 0
11807 -11187 -11271 0
-11807 11187 0
-11807 11271 0
11808 -11251 -11271 0
-11808 11251 0
-11808 11271 0
11809 -11251 -11276 0
-11809 11251 0
-11809 11276 0
11810 -11187 -11276 -11261 0
-11810 11187 0
-11810 11276 0
-11810 11261 0
-7329 11206 11807 11808 11809 11810 0
7329 -11206 0
7329 -11807 0
7329 -11808 0
7329 -11809 0
7329 -11810 0
11811 -11226 -11251 0
-11811 11226 0
-11811 11251 0
11812 -11221 -11187 0
-11812 11221 0
-11812 11187 0
11813 -11221 -11251 0
-11813 11221 0
-11813 11251 0
11814 -11226 -11187 -11261 0
-11814 11226 0
-11814 11187 0
-11814 11261 0
-8666 11211 11811 11812 11813 11814 0
8666 -11211 0
8666 -11811 0
8666 -11812 0
8666 -11813 0
8666 -11814 0
11815 -11226 -11221 0
-11815 11226 0
-11815 11221 0
11816 -11221 -11221 0
-11816 11221 0
-11816 11221 0
11817 -11221 -11226 0
-11817 11221 0
-11817 11226 0
11818 -11226 -11226 -11261 0
-11818 11226 0
-11818 11226 0
-11818 11261 0
-8653 11216 11815 11816 11817 11818 0
8653 -11216 0
8653 -11815 0
8653 -11816 0
8653 -11817 0
8653 -11818 0
11819 -11226 -11170 0
-11819 11226 0
-11819 11170 0
11820 -11221 -11170 0
-11820 11221 0
-11820 11170 0
11821 -11221 -11177 0
-11821 11221 0
-11821 11177 0
11822 -11226 -11177 -11261 0
-11822 11226 0
-11822 11177 0
-11822 11261 0
-8655 11149 11819 11820 11821 11822 0
8655 -11149 0
8655 -11819 0
8655 -11820 0
8655 -11821 0
8655 -11822 0
11823 -11226 -11173 0
-11823 11226 0
-11823 11173 0
11824 -11221 -11179 0
-11824 11221 0
-11824 11179 0
11825 -11221 -11173 0
-11825 11221 0
-11825 11173 0
11826 -11226 -11179 -11261 0
-11826 11226 0
-11826 11179 0
-11826 11261 0
-8660 11152 11823 11824 11825 11826 0
8660 -11152 0
8660 -11823 0
8660 -11824 0
8660 -11825 0
8660 -11826 0
11827 -11231 -11173 0
-11827 11231 0
-11827 11173 0
11828 -11256 -11173 0
-11828 11256 0
-11828 11173 0
11829 -11256 -11179 0
-11829 11256 0
-11829 11179 0
11830 -11231 -11179 -11261 0
-11830 11231 0
-11830 11179 0
-11830 11261 0
-7317 11158 11827 11828 11829 11830 0
7317 -11158 0
7317 -11827 0
7317 -11828 0
7317 -11829 0
7317 -11830 0
11831 -11226 -11266 0
-11831 11226 0
-11831 11266 0
11832 -11221 -11266 0
-11832 11221 0
-11832 11266 0
11833 -11221 -11291 0
-11833 11221 0
-11833 11291 0
11834 -11226 -11291 -11261 0
-11834 11226 0
-11834 11291 0
-11834 11261 0
-8670 11236 11831 11832 11833 11834 0
8670 -11236 0
8670 -11831 0
8670 -11832 0
8670 -11833 0
8670 -11834 0
11835 -11226 -11271 0
-11835 11226 0
-11835 11271 0
11836 -11221 -11276 0
-11836 11221 0
-11836 11276 0
11837 -11221 -11271 0
-11837 11221 0
-11837 11271 0
11838 -11226 -11276 -11261 0
-11838 11226 0
-11838 11276 0
-11838 11261 0
-8675 11241 11835 11836 11837 11838 0
8675 -11241 0
8675 -11835 0
8675 -11836 0
8675 -11837 0
8675 -11838 0
11839 -11231 -11271 0
-11839 11231 0
-11839 11271 0
11840 -11256 -11271 0
-11840 11256 0
-11840 11271 0
11841 -11256 -11276 0
-11841 11256 0
-11841 11276 0
11842 -11231 -11276 -11261 0
-11842 11231 0
-11842 11276 0
-11842 11261 0
-7326 11246 11839 11840 11841 11842 0
7326 -11246 0
7326 -11839 0
7326 -11840 0
7326 -11841 0
7326 -11842 0
11843 -11177 -11251 0
-11843 11177 0
-11843 11251 0
11844 -11170 -11187 0
-11844 11170 0
-11844 11187 0
11845 -11170 -11251 0
-11845 11170 0
-11845 11251 0
11846 -11177 -11187 -11261 0
-11846 11177 0
-11846 11187 0
-11846 11261 0
-7331 11165 11843 11844 11845 11846 0
7331 -11165 0
7331 -11843 0
7331 -11844 0
7331 -11845 0
7331 -11846 0
11847 -11177 -11256 0
-11847 11177 0
-11847 11256 0
11848 -11170 -11231 0
-11848 11170 0
-11848 11231 0
11849 -11170 -11256 0
-11849 11170 0
-11849 11256 0
11850 -11177 -11231 -11261 0
-11850 11177 0
-11850 11231 0
-11850 11261 0
-7314 11156 11847 11848 11849 11850 0
7314 -11156 0
7314 -11847 0
7314 -11848 0
7314 -11849 0
7314 -11850 0
11851 -11177 -11170 0
-11851 11177 0
-11851 11170 0
11258 -11170 -11170 0
-11258 11170 0
-11258 11170 0
11852 -11170 -11177 0
-11852 11170 0
-11852 11177 0
11853 -11177 -11177 -11261 0
-11853 11177 0
-11853 11177 0
-11853 11261 0
-7333 11146 11851 11258 11852 11853 0
7333 -11146 0
7333 -11851 0
7333 -11258 0
7333 -11852 0
7333 -11853 0
11854 -11177 -11266 0
-11854 11177 0
-11854 11266 0
11855 -11170 -11266 0
-11855 11170 0
-11855 11266 0
11856 -11170 -11291 0
-11856 11170 0
-11856 11291 0
11857 -11177 -11291 -11261 0
-11857 11177 0
-11857 11291 0
-11857 11261 0
-7335 11189 11854 11855 11856 11857 0
7335 -11189 0
7335 -11854 0
7335 -11855 0
7335 -11856 0
7335 -11857 0
11858 -11177 -11271 0
-11858 11177 0
-11858 11271 0
11859 -11170 -11276 0
-11859 11170 0
-11859 11276 0
11860 -11170 -11271 0
-11860 11170 0
-11860 11271 0
11861 -11177 -11276 -11261 0
-11861 11177 0
-11861 11276 0
-11861 11261 0
-7337 11196 11858 11859 11860 11861 0
7337 -11196 0
7337 -11858 0
7337 -11859 0
7337 -11860 0
7337 -11861 0
11862 -11179 -11271 0
-11862 11179 0
-11862 11271 0
11863 -11173 -11271 0
-11863 11173 0
-11863 11271 0
11864 -11173 -11276 0
-11864 11173 0
-11864 11276 0
11865 -11179 -11276 -11261 0
-11865 11179 0
-11865 11276 0
-11865 11261 0
-7339 11198 11862 11863 11864 11865 0
7339 -11198 0
7339 -11862 0
7339 -11863 0
7339 -11864 0
7339 -11865 0
11866 -11291 -11251 0
-11866 11291 0
-11866 11251 0
11867 -11266 -11187 0
-11867 11266 0
-11867 11187 0
11868 -11266 -11251 0
-11868 11266 0
-11868 11251 0
11869 -11291 -11187 -11261 0
-11869 11291 0
-11869 11187 0
-11869 11261 0
-7341 11281 11866 11867 11868 11869 0
7341 -11281 0
7341 -11866 0
7341 -11867 0
7341 -11868 0
7341 -11869 0
11870 -11291 -11256 0
-11870 11291 0
-11870 11256 0
11871 -11266 -11231 0
-11871 11266 0
-11871 11231 0
11872 -11266 -11256 0
-11872 11266 0
-11872 11256 0
11873 -11291 -11231 -11261 0
-11873 11291 0
-11873 11231 0
-11873 11261 0
-7323 11286 11870 11871 11872 11873 0
7323 -11286 0
7323 -11870 0
7323 -11871 0
7323 -11872 0
7323 -11873 0
11874 -11291 -11173 0
-11874 11291 0
-11874 11173 0
11875 -11266 -11179 0
-11875 11266 0
-11875 11179 0
11876 -11266 -11173 0
-11876 11266 0
-11876 11173 0
11877 -11291 -11179 -11261 0
-11877 11291 0
-11877 11179 0
-11877 11261 0
-7343 11192 11874 11875 11876 11877 0
7343 -11192 0
7343 -11874 0
7343 -11875 0
7343 -11876 0
7343 -11877 0
11878 -11291 -11266 0
-11878 11291 0
-11878 11266 0
11879 -11266 -11266 0
-11879 11266 0
-11879 11266 0
11880 -11266 -11291 0
-11880 11266 0
-11880 11291 0
11881 -11291 -11291 -11261 0
-11881 11291 0
-11881 11291 0
-11881 11261 0
-7345 11296 11878 11879 11880 11881 0
7345 -11296 0
7345 -11878 0
7345 -11879 0
7345 -11880 0
7345 -11881 0
11882 -10437 -10434 0
-11882 10437 0
-11882 10434 0
11883 -10434 -10434 0
-11883 10434 0
-11883 10434 0
11884 -10434 -10437 0
-11884 10434 0
-11884 10437 0
11885 -10437 -10437 -10469 0
-11885 10437 0
-11885 10437 0
-11885 10469 0
-7348 10422 11882 11883 11884 11885 0
7348 -10422 0
7348 -11882 0
7348 -11883 0
7348 -11884 0
7348 -11885 0
11886 -10437 -10453 0
-11886 10437 0
-11886 10453 0
11887 -10434 -10453 0
-11887 10434 0
-11887 10453 0
11888 -10434 -10455 0
-11888 10434 0
-11888 10455 0
11889 -10437 -10455 -10469 0
-11889 10437 0
-11889 10455 0
-11889 10469 0
-8175 10425 11886 11887 11888 11889 0
8175 -10425 0
8175 -11886 0
8175 -11887 0
8175 -11888 0
8175 -11889 0
11890 -10437 -10467 0
-11890 10437 0
-11890 10467 0
11891 -10434 -10457 0
-11891 10434 0
-11891 10457 0
11892 -10434 -10467 0
-11892 10434 0
-11892 10467 0
11893 -10437 -10457 -10469 0
-11893 10437 0
-11893 10457 0
-11893 10469 0
-7347 10428 11890 11891 11892 11893 0
7347 -10428 0
7347 -11890 0
7347 -11891 0
7347 -11892 0
7347 -11893 0
11894 -10439 -10467 0
-11894 10439 0
-11894 10467 0
11895 -10465 -10467 0
-11895 10465 0
-11895 10467 0
11896 -10465 -10457 0
-11896 10465 0
-11896 10457 0
11897 -10439 -10457 -10469 0
-11897 10439 0
-11897 10457 0
-11897 10469 0
-7356 10431 11894 11895 11896 11897 0
7356 -10431 0
7356 -11894 0
7356 -11895 0
7356 -11896 0
7356 -11897 0
11898 -10437 -10471 0
-11898 10437 0
-11898 10471 0
11899 -10434 -10471 0
-11899 10434 0
-11899 10471 0
11900 -10434 -10481 0
-11900 10434 0
-11900 10481 0
11901 -10437 -10481 -10469 0
-11901 10437 0
-11901 10481 0
-11901 10469 0
-7351 10442 11898 11899 11900 11901 0
7351 -10442 0
7351 -11898 0
7351 -11899 0
7351 -11900 0
7351 -11901 0
11902 -10437 -10473 0
-11902 10437 0
-11902 10473 0
11903 -10434 -10475 0
-11903 10434 0
-11903 10475 0
11904 -10434 -10473 0
-11904 10434 0
-11904 10473 0
11905 -10437 -10475 -10469 0
-11905 10437 0
-11905 10475 0
-11905 10469 0
-7354 10445 11902 11903 11904 11905 0
7354 -10445 0
7354 -11902 0
7354 -11903 0
7354 -11904 0
7354 -11905 0
11906 -10439 -10473 0
-11906 10439 0
-11906 10473 0
11907 -10465 -10473 0
-11907 10465 0
-11907 10473 0
11908 -10465 -10475 0
-11908 10465 0
-11908 10475 0
11909 -10439 -10475 -10469 0
-11909 10439 0
-11909 10475 0
-11909 10469 0
-7357 10447 11906 11907 11908 11909 0
7357 -10447 0
7357 -11906 0
7357 -11907 0
7357 -11908 0
7357 -11909 0
11910 -10437 -11001 0
-11910 10437 0
-11910 11001 0
11911 -10434 -11001 0
-11911 10434 0
-11911 11001 0
11912 -10434 -11024 0
-11912 10434 0
-11912 11024 0
11913 -10437 -11024 -10469 0
-11913 10437 0
-11913 11024 0
-11913 10469 0
-7360 10943 11910 11911 11912 11913 0
7360 -10943 0
7360 -11910 0
7360 -11911 0
7360 -11912 0
7360 -11913 0
11914 -10437 -10433 0
-11914 10437 0
-11914 10433 0
11915 -10434 -10436 0
-11915 10434 0
-11915 10436 0
11916 -10434 -10433 0
-11916 10434 0
-11916 10433 0
11917 -10437 -10436 -10469 0
-11917 10437 0
-11917 10436 0
-11917 10469 0
-7363 10421 11914 11915 11916 11917 0
7363 -10421 0
7363 -11914 0
7363 -11915 0
7363 -11916 0
7363 -11917 0
11918 -10439 -10433 0
-11918 10439 0
-11918 10433 0
11919 -10465 -10433 0
-11919 10465 0
-11919 10433 0
11920 -10465 -10436 0
-11920 10465 0
-11920 10436 0
11921 -10439 -10436 -10469 0
-11921 10439 0
-11921 10436 0
-11921 10469 0
-7365 10430 11918 11919 11920 11921 0
7365 -10430 0
7365 -11918 0
7365 -11919 0
7365 -11920 0
7365 -11921 0
11922 -10455 -10465 0
-11922 10455 0
-11922 10465 0
11923 -10453 -10439 0
-11923 10453 0
-11923 10439 0
11924 -10453 -10465 0
-11924 10453 0
-11924 10465 0
11925 -10455 -10439 -10469 0
-11925 10455 0
-11925 10439 0
-11925 10469 0
-8192 10449 11922 11923 11924 11925 0
8192 -10449 0
8192 -11922 0
8192 -11923 0
8192 -11924 0
8192 -11925 0
11926 -10455 -10453 0
-11926 10455 0
-11926 10453 0
11927 -10453 -10453 0
-11927 10453 0
-11927 10453 0
11928 -10453 -10455 0
-11928 10453 0
-11928 10455 0
11929 -10455 -10455 -10469 0
-11929 10455 0
-11929 10455 0
-11929 10469 0
-8179 10451 11926 11927 11928 11929 0
8179 -10451 0
8179 -11926 0
8179 -11927 0
8179 -11928 0
8179 -11929 0
11930 -10455 -10471 0
-11930 10455 0
-11930 10471 0
11931 -10453 -10471 0
-11931 10453 0
-11931 10471 0
11932 -10453 -10481 0
-11932 10453 0
-11932 10481 0
11933 -10455 -10481 -10469 0
-11933 10455 0
-11933 10481 0
-11933 10469 0
-8181 10459 11930 11931 11932 11933 0
8181 -10459 0
8181 -11930 0
8181 -11931 0
8181 -11932 0
8181 -11933 0
11934 -10455 -10473 0
-11934 10455 0
-11934 10473 0
11935 -10453 -10475 0
-11935 10453 0
-11935 10475 0
11936 -10453 -10473 0
-11936 10453 0
-11936 10473 0
11937 -10455 -10475 -10469 0
-11937 10455 0
-11937 10475 0
-11937 10469 0
-8186 10461 11934 11935 11936 11937 0
8186 -10461 0
8186 -11934 0
8186 -11935 0
8186 -11936 0
8186 -11937 0
11938 -10457 -10473 0
-11938 10457 0
-11938 10473 0
11939 -10467 -10473 0
-11939 10467 0
-11939 10473 0
11940 -10467 -10475 0
-11940 10467 0
-11940 10475 0
11941 -10457 -10475 -10469 0
-11941 10457 0
-11941 10475 0
-11941 10469 0
-7353 10463 11938 11939 11940 11941 0
7353 -10463 0
7353 -11938 0
7353 -11939 0
7353 -11940 0
7353 -11941 0
11942 -10455 -11001 0
-11942 10455 0
-11942 11001 0
11943 -10453 -11001 0
-11943 10453 0
-11943 11001 0
11944 -10453 -11024 0
-11944 10453 0
-11944 11024 0
11945 -10455 -11024 -10469 0
-11945 10455 0
-11945 11024 0
-11945 10469 0
-8196 10976 11942 11943 11944 11945 0
8196 -10976 0
8196 -11942 0
8196 -11943 0
8196 -11944 0
8196 -11945 0
11946 -10455 -10433 0
-11946 10455 0
-11946 10433 0
11947 -10453 -10436 0
-11947 10453 0
-11947 10436 0
11948 -10453 -10433 0
-11948 10453 0
-11948 10433 0
11949 -10455 -10436 -10469 0
-11949 10455 0
-11949 10436 0
-11949 10469 0
-8201 10424 11946 11947 11948 11949 0
8201 -10424 0
8201 -11946 0
8201 -11947 0
8201 -11948 0
8201 -11949 0
11950 -10457 -10433 0
-11950 10457 0
-11950 10433 0
11951 -10467 -10433 0
-11951 10467 0
-11951 10433 0
11952 -10467 -10436 0
-11952 10467 0
-11952 10436 0
11953 -10457 -10436 -10469 0
-11953 10457 0
-11953 10436 0
-11953 10469 0
-7362 10427 11950 11951 11952 11953 0
7362 -10427 0
7362 -11950 0
7362 -11951 0
7362 -11952 0
7362 -11953 0
11954 -10481 -10465 0
-11954 10481 0
-11954 10465 0
11955 -10471 -10439 0
-11955 10471 0
-11955 10439 0
11956 -10471 -10465 0
-11956 10471 0
-11956 10465 0
11957 -10481 -10439 -10469 0
-11957 10481 0
-11957 10439 0
-11957 10469 0
-7367 10477 11954 11955 11956 11957 0
7367 -10477 0
7367 -11954 0
7367 -11955 0
7367 -11956 0
7367 -11957 0
11958 -10481 -10467 0
-11958 10481 0
-11958 10467 0
11959 -10471 -10457 0
-11959 10471 0
-11959 10457 0
11960 -10471 -10467 0
-11960 10471 0
-11960 10467 0
11961 -10481 -10457 -10469 0
-11961 10481 0
-11961 10457 0
-11961 10469 0
-7350 10479 11958 11959 11960 11961 0
7350 -10479 0
7350 -11958 0
7350 -11959 0
7350 -11960 0
7350 -11961 0
11962 -10481 -10471 0
-11962 10481 0
-11962 10471 0
10994 -10471 -10471 0
-10994 10471 0
-10994 10471 0
11963 -10471 -10481 0
-11963 10471 0
-11963 10481 0
11964 -10481 -10481 -10469 0
-11964 10481 0
-11964 10481 0
-11964 10469 0
-7369 10483 11962 10994 11963 11964 0
7369 -10483 0
7369 -11962 0
7369 -10994 0
7369 -11963 0
7369 -11964 0
11965 -10481 -11001 0
-11965 10481 0
-11965 11001 0
11966 -10471 -11001 0
-11966 10471 0
-11966 11001 0
11967 -10471 -11024 0
-11967 10471 0
-11967 11024 0
11968 -10481 -11024 -10469 0
-11968 10481 0
-11968 11024 0
-11968 10469 0
-7371 10938 11965 11966 11967 11968 0
7371 -10938 0
7371 -11965 0
7371 -11966 0
7371 -11967 0
7371 -11968 0
11969 -10481 -10433 0
-11969 10481 0
-11969 10433 0
11970 -10471 -10436 0
-11970 10471 0
-11970 10436 0
11971 -10471 -10433 0
-11971 10471 0
-11971 10433 0
11972 -10481 -10436 -10469 0
-11972 10481 0
-11972 10436 0
-11972 10469 0
-7373 10441 11969 11970 11971 11972 0
7373 -10441 0
7373 -11969 0
7373 -11970 0
7373 -11971 0
7373 -11972 0
11973 -10475 -10433 0
-11973 10475 0
-11973 10433 0
11974 -10473 -10433 0
-11974 10473 0
-11974 10433 0
11975 -10473 -10436 0
-11975 10473 0
-11975 10436 0
11976 -10475 -10436 -10469 0
-11976 10475 0
-11976 10436 0
-11976 10469 0
-7375 10444 11973 11974 11975 11976 0
7375 -10444 0
7375 -11973 0
7375 -11974 0
7375 -11975 0
7375 -11976 0
11977 -11024 -10465 0
-11977 11024 0
-11977 10465 0
11978 -11001 -10439 0
-11978 11001 0
-11978 10439 0
11979 -11001 -10465 0
-11979 11001 0
-11979 10465 0
11980 -11024 -10439 -10469 0
-11980 11024 0
-11980 10439 0
-11980 10469 0
-7377 11014 11977 11978 11979 11980 0
7377 -11014 0
7377 -11977 0
7377 -11978 0
7377 -11979 0
7377 -11980 0
11981 -11024 -10467 0
-11981 11024 0
-11981 10467 0
11982 -11001 -10457 0
-11982 11001 0
-11982 10457 0
11983 -11001 -10467 0
-11983 11001 0
-11983 10467 0
11984 -11024 -10457 -10469 0
-11984 11024 0
-11984 10457 0
-11984 10469 0
-7359 11019 11981 11982 11983 11984 0
7359 -11019 0
7359 -11981 0
7359 -11982 0
7359 -11983 0
7359 -11984 0
11985 -11024 -10473 0
-11985 11024 0
-11985 10473 0
11986 -11001 -10475 0
-11986 11001 0
-11986 10475 0
11987 -11001 -10473 0
-11987 11001 0
-11987 10473 0
11988 -11024 -10475 -10469 0
-11988 11024 0
-11988 10475 0
-11988 10469 0
-7379 10941 11985 11986 11987 11988 0
7379 -10941 0
7379 -11985 0
7379 -11986 0
7379 -11987 0
7379 -11988 0
11989 -11024 -11001 0
-11989 11024 0
-11989 11001 0
11378 -11001 -11001 0
-11378 11001 0
-11378 11001 0
11990 -11001 -11024 0
-11990 11001 0
-11990 11024 0
11991 -11024 -11024 -10469 0
-11991 11024 0
-11991 11024 0
-11991 10469 0
-7381 11029 11989 11378 11990 11991 0
7381 -11029 0
7381 -11989 0
7381 -11378 0
7381 -11990 0
7381 -11991 0
11992 -10107 -10107 0
-11992 10107 0
-11992 10107 0
-7851 10113 11992 0
7851 -10113 0
7851 -11992 0
11993 -10107 -10118 0
-11993 10107 0
-11993 10118 0
-7846 10120 11993 0
7846 -10120 0
7846 -11993 0
11994 -10107 -10124 0
-11994 10107 0
-11994 10124 0
-7845 10127 11994 0
7845 -10127 0
7845 -11994 0
11995 -10129 -10124 0
-11995 10129 0
-11995 10124 0
-7867 10134 11995 0
7867 -10134 0
7867 -11995 0
11996 -10107 -10139 0
-11996 10107 0
-11996 10139 0
-7858 10141 11996 0
7858 -10141 0
7858 -11996 0
11997 -10107 -10145 0
-11997 10107 0
-11997 10145 0
-7865 10148 11997 0
7865 -10148 0
7865 -11997 0
11998 -10129 -10145 0
-11998 10129 0
-11998 10145 0
-7872 10153 11998 0
7872 -10153 0
7872 -11998 0
11999 -10107 -10158 0
-11999 10107 0
-11999 10158 0
-7879 10160 11999 0
7879 -10160 0
7879 -11999 0
12000 -10107 -10164 0
-12000 10107 0
-12000 10164 0
-7886 10167 12000 0
7886 -10167 0
7886 -12000 0
12001 -10129 -10164 0
-12001 10129 0
-12001 10164 0
-7891 10172 12001 0
7891 -10172 0
7891 -12001 0
12002 -10118 -10129 0
-12002 10118 0
-12002 10129 0
-7869 10177 12002 0
7869 -10177 0
7869 -12002 0
12003 -10118 -10118 0
-12003 10118 0
-12003 10118 0
-7850 10182 12003 0
7850 -10182 0
7850 -12003 0
12004 -10118 -10139 0
-12004 10118 0
-12004 10139 0
-7853 10187 12004 0
7853 -10187 0
7853 -12004 0
12005 -10118 -10145 0
-12005 10118 0
-12005 10145 0
-7860 10192 12005 0
7860 -10192 0
7860 -12005 0
12006 -10124 -10145 0
-12006 10124 0
-12006 10145 0
-7862 10197 12006 0
7862 -10197 0
7862 -12006 0
12007 -10118 -10158 0
-12007 10118 0
-12007 10158 0
-7874 10202 12007 0
7874 -10202 0
7874 -12007 0
12008 -10118 -10164 0
-12008 10118 0
-12008 10164 0
-7881 10207 12008 0
7881 -10207 0
7881 -12008 0
12009 -10124 -10164 0
-12009 10124 0
-12009 10164 0
-7883 10212 12009 0
7883 -10212 0
7883 -12009 0
12010 -10139 -10129 0
-12010 10139 0
-12010 10129 0
-7896 10217 12010 0
7896 -10217 0
7896 -12010 0
12011 -10139 -10124 0
-12011 10139 0
-12011 10124 0
-7856 10222 12011 0
7856 -10222 0
7856 -12011 0
12012 -10139 -10139 0
-12012 10139 0
-12012 10139 0
-7901 10227 12012 0
7901 -10227 0
7901 -12012 0
12013 -10139 -10158 0
-12013 10139 0
-12013 10158 0
-7906 10232 12013 0
7906 -10232 0
7906 -12013 0
12014 -10139 -10164 0
-12014 10139 0
-12014 10164 0
-7911 10237 12014 0
7911 -10237 0
7911 -12014 0
12015 -10145 -10164 0
-12015 10145 0
-12015 10164 0
-7916 10242 12015 0
7916 -10242 0
7916 -12015 0
12016 -10158 -10129 0
-12016 10158 0
-12016 10129 0
-7921 10247 12016 0
7921 -10247 0
7921 -12016 0
12017 -10158 -10124 0
-12017 10158 0
-12017 10124 0
-7877 10252 12017 0
7877 -10252 0
7877 -12017 0
12018 -10158 -10145 0
-12018 10158 0
-12018 10145 0
-7926 10257 12018 0
7926 -10257 0
7926 -12018 0
12019 -10158 -10158 0
-12019 10158 0
-12019 10158 0
-7931 10262 12019 0
7931 -10262 0
7931 -12019 0
12020 -10683 -10683 0
-12020 10683 0
-12020 10683 0
-7575 10648 12020 0
7575 -10648 0
7575 -12020 0
12021 -10683 -10727 0
-12021 10683 0
-12021 10727 0
-8834 10655 12021 0
8834 -10655 0
8834 -12021 0
12022 -10683 -10732 0
-12022 10683 0
-12022 10732 0
-7574 10662 12022 0
7574 -10662 0
7574 -12022 0
12023 -10688 -10732 0
-12023 10688 0
-12023 10732 0
-7583 10669 12023 0
7583 -10669 0
7583 -12023 0
12024 -10683 -10678 0
-12024 10683 0
-12024 10678 0
-7578 10643 12024 0
7578 -10643 0
7578 -12024 0
12025 -10683 -10680 0
-12025 10683 0
-12025 10680 0
-7581 10642 12025 0
7581 -10642 0
7581 -12025 0
12026 -10688 -10680 0
-12026 10688 0
-12026 10680 0
-7584 10664 12026 0
7584 -10664 0
7584 -12026 0
12027 -10683 -10792 0
-12027 10683 0
-12027 10792 0
-7587 10695 12027 0
7587 -10695 0
7587 -12027 0
12028 -10683 -10777 0
-12028 10683 0
-12028 10777 0
-7590 10702 12028 0
7590 -10702 0
7590 -12028 0
12029 -10688 -10777 0
-12029 10688 0
-12029 10777 0
-7592 10707 12029 0
7592 -10707 0
7592 -12029 0
12030 -10727 -10688 0
-12030 10727 0
-12030 10688 0
-8851 10712 12030 0
8851 -10712 0
8851 -12030 0
12031 -10727 -10727 0
-12031 10727 0
-12031 10727 0
-8838 10717 12031 0
8838 -10717 0
8838 -12031 0
12032 -10727 -10678 0
-12032 10727 0
-12032 10678 0
-8840 10650 12032 0
8840 -10650 0
8840 -12032 0
12033 -10727 -10680 0
-12033 10727 0
-12033 10680 0
-8845 10653 12033 0
8845 -10653 0
8845 -12033 0
12034 -10732 -10680 0
-12034 10732 0
-12034 10680 0
-7580 10659 12034 0
7580 -10659 0
7580 -12034 0
12035 -10727 -10792 0
-12035 10727 0
-12035 10792 0
-8855 10737 12035 0
8855 -10737 0
8855 -12035 0
12036 -10727 -10777 0
-12036 10727 0
-12036 10777 0
-8860 10742 12036 0
8860 -10742 0
8860 -12036 0
12037 -10732 -10777 0
-12037 10732 0
-12037 10777 0
-7589 10747 12037 0
7589 -10747 0
7589 -12037 0
12038 -10678 -10688 0
-12038 10678 0
-12038 10688 0
-7594 10666 12038 0
7594 -10666 0
7594 -12038 0
12039 -10678 -10732 0
-12039 10678 0
-12039 10732 0
-7577 10657 12039 0
7577 -10657 0
7577 -12039 0
12040 -10678 -10678 0
-12040 10678 0
-12040 10678 0
-7596 10647 12040 0
7596 -10647 0
7596 -12040 0
12041 -10678 -10792 0
-12041 10678 0
-12041 10792 0
-7598 10690 12041 0
7598 -10690 0
7598 -12041 0
12042 -10678 -10777 0
-12042 10678 0
-12042 10777 0
-7600 10697 12042 0
7600 -10697 0
7600 -12042 0
12043 -10680 -10777 0
-12043 10680 0
-12043 10777 0
-7602 10699 12043 0
7602 -10699 0
7602 -12043 0
12044 -10792 -10688 0
-12044 10792 0
-12044 10688 0
-7604 10782 12044 0
7604 -10782 0
7604 -12044 0
12045 -10792 -10732 0
-12045 10792 0
-12045 10732 0
-7586 10787 12045 0
7586 -10787 0
7586 -12045 0
12046 -10792 -10680 0
-12046 10792 0
-12046 10680 0
-7606 10693 12046 0
7606 -10693 0
7606 -12046 0
12047 -10792 -10792 0
-12047 10792 0
-12047 10792 0
-7608 10797 12047 0
7608 -10797 0
7608 -12047 0
12048 -12049 -12049 0
-12048 12049 0
-12048 12049 0
-10422 1201 12048 0
10422 -1201 0
10422 -12048 0
12050 -12049 -12051 0
-12050 12049 0
-12050 12051 0
-10425 1202 12050 0
10425 -1202 0
10425 -12050 0
12052 -12049 -12053 0
-12052 12049 0
-12052 12053 0
-10428 12054 12052 0
10428 -12054 0
10428 -12052 0
12055 -12056 -12053 0
-12055 12056 0
-12055 12053 0
-10431 12057 12055 0
10431 -12057 0
10431 -12055 0
12058 -12049 -12059 0
-12058 12049 0
-12058 12059 0
-10434 1204 12058 0
10434 -1204 0
10434 -12058 0
12060 -12049 -12061 0
-12060 12049 0
-12060 12061 0
-10437 12062 12060 0
10437 -12062 0
10437 -12060 0
12063 -12056 -12061 0
-12063 12056 0
-12063 12061 0
-10439 12064 12063 0
10439 -12064 0
10439 -12063 0
12065 -12049 -12066 0
-12065 12049 0
-12065 12066 0
-10442 1207 12065 0
10442 -1207 0
10442 -12065 0
12067 -12049 -12068 0
-12067 12049 0
-12067 12068 0
-10445 12069 12067 0
10445 -12069 0
10445 -12067 0
12070 -12056 -12068 0
-12070 12056 0
-12070 12068 0
-10447 12071 12070 0
10447 -12071 0
10447 -12070 0
12072 -12049 -12073 0
-12072 12049 0
-12072 12073 0
-10943 1211 12072 0
10943 -1211 0
10943 -12072 0
12074 -12049 -12075 0
-12074 12049 0
-12074 12075 0
-10421 12076 12074 0
10421 -12076 0
10421 -12074 0
12077 -12056 -12075 0
-12077 12056 0
-12077 12075 0
-10430 12078 12077 0
10430 -12078 0
10430 -12077 0
12079 -12051 -12056 0
-12079 12051 0
-12079 12056 0
-10449 12080 12079 0
10449 -12080 0
10449 -12079 0
12081 -12051 -12051 0
-12081 12051 0
-12081 12051 0
-10451 1203 12081 0
10451 -1203 0
10451 -12081 0
12082 -12051 -12059 0
-12082 12051 0
-12082 12059 0
-10453 1205 12082 0
10453 -1205 0
10453 -12082 0
12083 -12051 -12061 0
-12083 12051 0
-12083 12061 0
-10455 12084 12083 0
10455 -12084 0
10455 -12083 0
12085 -12053 -12061 0
-12085 12053 0
-12085 12061 0
-10457 12086 12085 0
10457 -12086 0
10457 -12085 0
12087 -12051 -12066 0
-12087 12051 0
-12087 12066 0
-10459 1208 12087 0
10459 -1208 0
10459 -12087 0
12088 -12051 -12068 0
-12088 12051 0
-12088 12068 0
-10461 12089 12088 0
10461 -12089 0
10461 -12088 0
12090 -12053 -12068 0
-12090 12053 0
-12090 12068 0
-10463 12091 12090 0
10463 -12091 0
10463 -12090 0
12092 -12051 -12073 0
-12092 12051 0
-12092 12073 0
-10976 1212 12092 0
10976 -1212 0
10976 -12092 0
12093 -12051 -12075 0
-12093 12051 0
-12093 12075 0
-10424 12094 12093 0
10424 -12094 0
10424 -12093 0
12095 -12053 -12075 0
-12095 12053 0
-12095 12075 0
-10427 12096 12095 0
10427 -12096 0
10427 -12095 0
12097 -12059 -12056 0
-12097 12059 0
-12097 12056 0
-10465 12098 12097 0
10465 -12098 0
10465 -12097 0
12099 -12059 -12053 0
-12099 12059 0
-12099 12053 0
-10467 12100 12099 0
10467 -12100 0
10467 -12099 0
12101 -12059 -12059 0
-12101 12059 0
-12101 12059 0
-10469 1206 12101 0
10469 -1206 0
10469 -12101 0
12102 -12059 -12066 0
-12102 12059 0
-12102 12066 0
-10471 1209 12102 0
10471 -1209 0
10471 -12102 0
12103 -12059 -12068 0
-12103 12059 0
-12103 12068 0
-10473 12104 12103 0
10473 -12104 0
10473 -12103 0
12105 -12061 -12068 0
-12105 12061 0
-12105 12068 0
-10475 12106 12105 0
10475 -12106 0
10475 -12105 0
12107 -12059 -12073 0
-12107 12059 0
-12107 12073 0
-11001 1213 12107 0
11001 -1213 0
11001 -12107 0
12108 -12059 -12075 0
-12108 12059 0
-12108 12075 0
-10433 12109 12108 0
10433 -12109 0
10433 -12108 0
12110 -12061 -12075 0
-12110 12061 0
-12110 12075 0
-10436 12111 12110 0
10436 -12111 0
10436 -12110 0
12112 -12066 -12056 0
-12112 12066 0
-12112 12056 0
-10477 12113 12112 0
10477 -12113 0
10477 -12112 0
12114 -12066 -12053 0
-12114 12066 0
-12114 12053 0
-10479 12115 12114 0
10479 -12115 0
10479 -12114 0
12116 -12066 -12061 0
-12116 12066 0
-12116 12061 0
-10481 12117 12116 0
10481 -12117 0
10481 -12116 0
12118 -12066 -12066 0
-12118 12066 0
-12118 12066 0
-10483 1210 12118 0
10483 -1210 0
10483 -12118 0
12119 -12066 -12073 0
-12119 12066 0
-12119 12073 0
-10938 1214 12119 0
10938 -1214 0
10938 -12119 0
12120 -12066 -12075 0
-12120 12066 0
-12120 12075 0
-10441 12121 12120 0
10441 -12121 0
10441 -12120 0
12122 -12068 -12075 0
-12122 12068 0
-12122 12075 0
-10444 12123 12122 0
10444 -12123 0
10444 -12122 0
12124 -12073 -12056 0
-12124 12073 0
-12124 12056 0
-11014 12125 12124 0
11014 -12125 0
11014 -12124 0
12126 -12073 -12053 0
-12126 12073 0
-12126 12053 0
-11019 12127 12126 0
11019 -12127 0
11019 -12126 0
12128 -12073 -12061 0
-12128 12073 0
-12128 12061 0
-11024 12129 12128 0
11024 -12129 0
11024 -12128 0
12130 -12073 -12068 0
-12130 12073 0
-12130 12068 0
-10941 12131 12130 0
10941 -12131 0
10941 -12130 0
12132 -12073 -12073 0
-12132 12073 0
-12132 12073 0
-11029 1215 12132 0
11029 -1215 0
11029 -12132 0
12133 -12076 -12076 0
-12133 12076 0
-12133 12076 0
-10648 1201 12133 0
10648 -1201 0
10648 -12133 0
12134 -12076 -12094 0
-12134 12076 0
-12134 12094 0
-10655 1202 12134 0
10655 -1202 0
10655 -12134 0
12135 -12076 -12096 0
-12135 12076 0
-12135 12096 0
-10662 12054 12135 0
10662 -12054 0
10662 -12135 0
12136 -12078 -12096 0
-12136 12078 0
-12136 12096 0
-10669 12057 12136 0
10669 -12057 0
10669 -12136 0
12137 -12076 -12109 0
-12137 12076 0
-12137 12109 0
-10676 1204 12137 0
10676 -1204 0
10676 -12137 0
12138 -12076 -12111 0
-12138 12076 0
-12138 12111 0
-10683 12062 12138 0
10683 -12062 0
10683 -12138 0
12139 -12078 -12111 0
-12139 12078 0
-12139 12111 0
-10688 12064 12139 0
10688 -12064 0
10688 -12139 0
12140 -12076 -12121 0
-12140 12076 0
-12140 12121 0
-10643 1207 12140 0
10643 -1207 0
10643 -12140 0
12141 -12076 -12123 0
-12141 12076 0
-12141 12123 0
-10642 12069 12141 0
10642 -12069 0
10642 -12141 0
12142 -12078 -12123 0
-12142 12078 0
-12142 12123 0
-10664 12071 12142 0
10664 -12071 0
10664 -12142 0
12143 -12076 -12144 0
-12143 12076 0
-12143 12144 0
-10695 1216 12143 0
10695 -1216 0
10695 -12143 0
12145 -12076 -12075 0
-12145 12076 0
-12145 12075 0
-10702 12049 12145 0
10702 -12049 0
10702 -12145 0
12146 -12078 -12075 0
-12146 12078 0
-12146 12075 0
-10707 12056 12146 0
10707 -12056 0
10707 -12146 0
12147 -12094 -12078 0
-12147 12094 0
-12147 12078 0
-10712 12080 12147 0
10712 -12080 0
10712 -12147 0
12148 -12094 -12094 0
-12148 12094 0
-12148 12094 0
-10717 1203 12148 0
10717 -1203 0
10717 -12148 0
12149 -12094 -12109 0
-12149 12094 0
-12149 12109 0
-10722 1205 12149 0
10722 -1205 0
10722 -12149 0
12150 -12094 -12111 0
-12150 12094 0
-12150 12111 0
-10727 12084 12150 0
10727 -12084 0
10727 -12150 0
12151 -12096 -12111 0
-12151 12096 0
-12151 12111 0
-10732 12086 12151 0
10732 -12086 0
10732 -12151 0
12152 -12094 -12121 0
-12152 12094 0
-12152 12121 0
-10650 1208 12152 0
10650 -1208 0
10650 -12152 0
12153 -12094 -12123 0
-12153 12094 0
-12153 12123 0
-10653 12089 12153 0
10653 -12089 0
10653 -12153 0
12154 -12096 -12123 0
-12154 12096 0
-12154 12123 0
-10659 12091 12154 0
10659 -12091 0
10659 -12154 0
12155 -12094 -12144 0
-12155 12094 0
-12155 12144 0
-10737 1217 12155 0
10737 -1217 0
10737 -12155 0
12156 -12094 -12075 0
-12156 12094 0
-12156 12075 0
-10742 12051 12156 0
10742 -12051 0
10742 -12156 0
12157 -12096 -12075 0
-12157 12096 0
-12157 12075 0
-10747 12053 12157 0
10747 -12053 0
10747 -12157 0
12158 -12109 -12078 0
-12158 12109 0
-12158 12078 0
-10752 12098 12158 0
10752 -12098 0
10752 -12158 0
12159 -12109 -12096 0
-12159 12109 0
-12159 12096 0
-10757 12100 12159 0
10757 -12100 0
10757 -12159 0
12160 -12109 -12109 0
-12160 12109 0
-12160 12109 0
-10762 1206 12160 0
10762 -1206 0
10762 -12160 0
12161 -12109 -12121 0
-12161 12109 0
-12161 12121 0
-10671 1209 12161 0
10671 -1209 0
10671 -12161 0
12162 -12109 -12123 0
-12162 12109 0
-12162 12123 0
-10674 12104 12162 0
10674 -12104 0
10674 -12162 0
12163 -12111 -12123 0
-12163 12111 0
-12163 12123 0
-10680 12106 12163 0
10680 -12106 0
10680 -12163 0
12164 -12109 -12144 0
-12164 12109 0
-12164 12144 0
-10767 1218 12164 0
10767 -1218 0
10767 -12164 0
12165 -12109 -12075 0
-12165 12109 0
-12165 12075 0
-10772 12059 12165 0
10772 -12059 0
10772 -12165 0
12166 -12111 -12075 0
-12166 12111 0
-12166 12075 0
-10777 12061 12166 0
10777 -12061 0
10777 -12166 0
12167 -12121 -12078 0
-12167 12121 0
-12167 12078 0
-10666 12113 12167 0
10666 -12113 0
10666 -12167 0
12168 -12121 -12096 0
-12168 12121 0
-12168 12096 0
-10657 12115 12168 0
10657 -12115 0
10657 -12168 0
12169 -12121 -12111 0
-12169 12121 0
-12169 12111 0
-10678 12117 12169 0
10678 -12117 0
10678 -12169 0
12170 -12121 -12121 0
-12170 12121 0
-12170 12121 0
-10647 1210 12170 0
10647 -1210 0
10647 -12170 0
12171 -12121 -12144 0
-12171 12121 0
-12171 12144 0
-10690 1219 12171 0
10690 -1219 0
10690 -12171 0
12172 -12121 -12075 0
-12172 12121 0
-12172 12075 0
-10697 12066 12172 0
10697 -12066 0
10697 -12172 0
12173 -12123 -12075 0
-12173 12123 0
-12173 12075 0
-10699 12068 12173 0
10699 -12068 0
10699 -12173 0
12174 -12144 -12078 0
-12174 12144 0
-12174 12078 0
-10782 12175 12174 0
10782 -12175 0
10782 -12174 0
12176 -12144 -12096 0
-12176 12144 0
-12176 12096 0
-10787 12177 12176 0
10787 -12177 0
10787 -12176 0
12178 -12144 -12111 0
-12178 12144 0
-12178 12111 0
-10792 12179 12178 0
10792 -12179 0
10792 -12178 0
12180 -12144 -12123 0
-12180 12144 0
-12180 12123 0
-10693 12181 12180 0
10693 -12181 0
10693 -12180 0
12182 -12144 -12144 0
-12182 12144 0
-12182 12144 0
-10797 1221 12182 0
10797 -1221 0
10797 -12182 0
12183 -12069 -1207 0
-12183 12069 0
-12183 1207 0
12184 -1207 -1207 0
-12184 1207 0
-12184 1207 0
12185 -1207 -12069 0
-12185 1207 0
-12185 12069 0
12186 -12069 -12069 -1210 0
-12186 12069 0
-12186 12069 0
-12186 1210 0
-10270 1201 12183 12184 12185 12186 0
10270 -1201 0
10270 -12183 0
10270 -12184 0
10270 -12185 0
10270 -12186 0
12187 -12069 -1208 0
-12187 12069 0
-12187 1208 0
12188 -1207 -1208 0
-12188 1207 0
-12188 1208 0
12189 -1207 -12089 0
-12189 1207 0
-12189 12089 0
12190 -12069 -12089 -1210 0
-12190 12069 0
-12190 12089 0
-12190 1210 0
-10277 1202 12187 12188 12189 12190 0
10277 -1202 0
10277 -12187 0
10277 -12188 0
10277 -12189 0
10277 -12190 0
12191 -12069 -12115 0
-12191 12069 0
-12191 12115 0
12192 -1207 -12091 0
-12192 1207 0
-12192 12091 0
12193 -1207 -12115 0
-12193 1207 0
-12193 12115 0
12194 -12069 -12091 -1210 0
-12194 12069 0
-12194 12091 0
-12194 1210 0
-10284 12054 12191 12192 12193 12194 0
10284 -12054 0
10284 -12191 0
10284 -12192 0
10284 -12193 0
10284 -12194 0
12195 -12071 -12115 0
-12195 12071 0
-12195 12115 0
12196 -12113 -12115 0
-12196 12113 0
-12196 12115 0
12197 -12113 -12091 0
-12197 12113 0
-12197 12091 0
12198 -12071 -12091 -1210 0
-12198 12071 0
-12198 12091 0
-12198 1210 0
-10291 12057 12195 12196 12197 12198 0
10291 -12057 0
10291 -12195 0
10291 -12196 0
10291 -12197 0
10291 -12198 0
12199 -12069 -1209 0
-12199 12069 0
-12199 1209 0
12200 -1207 -1209 0
-12200 1207 0
-12200 1209 0
12201 -1207 -12104 0
-12201 1207 0
-12201 12104 0
12202 -12069 -12104 -1210 0
-12202 12069 0
-12202 12104 0
-12202 1210 0
-10265 1204 12199 12200 12201 12202 0
10265 -1204 0
10265 -12199 0
10265 -12200 0
10265 -12201 0
10265 -12202 0
12203 -12069 -12117 0
-12203 12069 0
-12203 12117 0
12204 -1207 -12106 0
-12204 1207 0
-12204 12106 0
12205 -1207 -12117 0
-12205 1207 0
-12205 12117 0
12206 -12069 -12106 -1210 0
-12206 12069 0
-12206 12106 0
-12206 1210 0
-10264 12062 12203 12204 12205 12206 0
10264 -12062 0
10264 -12203 0
10264 -12204 0
10264 -12205 0
10264 -12206 0
12207 -12071 -12117 0
-12207 12071 0
-12207 12117 0
12208 -12113 -12117 0
-12208 12113 0
-12208 12117 0
12209 -12113 -12106 0
-12209 12113 0
-12209 12106 0
12210 -12071 -12106 -1210 0
-12210 12071 0
-12210 12106 0
-12210 1210 0
-10286 12064 12207 12208 12209 12210 0
10286 -12064 0
10286 -12207 0
10286 -12208 0
10286 -12209 0
10286 -12210 0
12211 -12069 -1214 0
-12211 12069 0
-12211 1214 0
12212 -1207 -1214 0
-12212 1207 0
-12212 1214 0
12213 -1207 -12131 0
-12213 1207 0
-12213 12131 0
12214 -12069 -12131 -1210 0
-12214 12069 0
-12214 12131 0
-12214 1210 0
-10298 1211 12211 12212 12213 12214 0
10298 -1211 0
10298 -12211 0
10298 -12212 0
10298 -12213 0
10298 -12214 0
12215 -12069 -12121 0
-12215 12069 0
-12215 12121 0
12216 -1207 -12123 0
-12216 1207 0
-12216 12123 0
12217 -1207 -12121 0
-12217 1207 0
-12217 12121 0
12218 -12069 -12123 -1210 0
-12218 12069 0
-12218 12123 0
-12218 1210 0
-10305 12076 12215 12216 12217 12218 0
10305 -12076 0
10305 -12215 0
10305 -12216 0
10305 -12217 0
10305 -12218 0
12219 -12071 -12121 0
-12219 12071 0
-12219 12121 0
12220 -12113 -12121 0
-12220 12113 0
-12220 12121 0
12221 -12113 -12123 0
-12221 12113 0
-12221 12123 0
12222 -12071 -12123 -1210 0
-12222 12071 0
-12222 12123 0
-12222 1210 0
-10310 12078 12219 12220 12221 12222 0
10310 -12078 0
10310 -12219 0
10310 -12220 0
10310 -12221 0
10310 -12222 0
12223 -12069 -1219 0
-12223 12069 0
-12223 1219 0
12224 -1207 -1219 0
-12224 1207 0
-12224 1219 0
12225 -1207 -12181 0
-12225 1207 0
-12225 12181 0
12226 -12069 -12181 -1210 0
-12226 12069 0
-12226 12181 0
-12226 1210 0
-10317 1216 12223 12224 12225 12226 0
10317 -1216 0
10317 -12223 0
10317 -12224 0
10317 -12225 0
10317 -12226 0
12227 -12069 -12066 0
-12227 12069 0
-12227 12066 0
12228 -1207 -12068 0
-12228 1207 0
-12228 12068 0
12229 -1207 -12066 0
-12229 1207 0
-12229 12066 0
12230 -12069 -12068 -1210 0
-12230 12069 0
-12230 12068 0
-12230 1210 0
-10324 12049 12227 12228 12229 12230 0
10324 -12049 0
10324 -12227 0
10324 -12228 0
10324 -12229 0
10324 -12230 0
12231 -12071 -12066 0
-12231 12071 0
-12231 12066 0
12232 -12113 -12066 0
-12232 12113 0
-12232 12066 0
12233 -12113 -12068 0
-12233 12113 0
-12233 12068 0
12234 -12071 -12068 -1210 0
-12234 12071 0
-12234 12068 0
-12234 1210 0
-10329 12056 12231 12232 12233 12234 0
10329 -12056 0
10329 -12231 0
10329 -12232 0
10329 -12233 0
10329 -12234 0
12235 -12089 -12113 0
-12235 12089 0
-12235 12113 0
12236 -1208 -12071 0
-12236 1208 0
-12236 12071 0
12237 -1208 -12113 0
-12237 1208 0
-12237 12113 0
12238 -12089 -12071 -1210 0
-12238 12089 0
-12238 12071 0
-12238 1210 0
-10334 12080 12235 12236 12237 12238 0
10334 -12080 0
10334 -12235 0
10334 -12236 0
10334 -12237 0
10334 -12238 0
12239 -12089 -1208 0
-12239 12089 0
-12239 1208 0
12240 -1208 -1208 0
-12240 1208 0
-12240 1208 0
12241 -1208 -12089 0
-12241 1208 0
-12241 12089 0
12242 -12089 -12089 -1210 0
-12242 12089 0
-12242 12089 0
-12242 1210 0
-10339 1203 12239 12240 12241 12242 0
10339 -1203 0
10339 -12239 0
10339 -12240 0
10339 -12241 0
10339 -12242 0
12243 -12089 -1209 0
-12243 12089 0
-12243 1209 0
12244 -1208 -1209 0
-12244 1208 0
-12244 1209 0
12245 -1208 -12104 0
-12245 1208 0
-12245 12104 0
12246 -12089 -12104 -1210 0
-12246 12089 0
-12246 12104 0
-12246 1210 0
-10272 1205 12243 12244 12245 12246 0
10272 -1205 0
10272 -12243 0
10272 -12244 0
10272 -12245 0
10272 -12246 0
12247 -12089 -12117 0
-12247 12089 0
-12247 12117 0
12248 -1208 -12106 0
-12248 1208 0
-12248 12106 0
12249 -1208 -12117 0
-12249 1208 0
-12249 12117 0
12250 -12089 -12106 -1210 0
-12250 12089 0
-12250 12106 0
-12250 1210 0
-10275 12084 12247 12248 12249 12250 0
10275 -12084 0
10275 -12247 0
10275 -12248 0
10275 -12249 0
10275 -12250 0
12251 -12091 -12117 0
-12251 12091 0
-12251 12117 0
12252 -12115 -12117 0
-12252 12115 0
-12252 12117 0
12253 -12115 -12106 0
-12253 12115 0
-12253 12106 0
12254 -12091 -12106 -1210 0
-12254 12091 0
-12254 12106 0
-12254 1210 0
-10281 12086 12251 12252 12253 12254 0
10281 -12086 0
10281 -12251 0
10281 -12252 0
10281 -12253 0
10281 -12254 0
12255 -12089 -1214 0
-12255 12089 0
-12255 1214 0
12256 -1208 -1214 0
-12256 1208 0
-12256 1214 0
12257 -1208 -12131 0
-12257 1208 0
-12257 12131 0
12258 -12089 -12131 -1210 0
-12258 12089 0
-12258 12131 0
-12258 1210 0
-10344 1212 12255 12256 12257 12258 0
10344 -1212 0
10344 -12255 0
10344 -12256 0
10344 -12257 0
10344 -12258 0
12259 -12089 -12121 0
-12259 12089 0
-12259 12121 0
12260 -1208 -12123 0
-12260 1208 0
-12260 12123 0
12261 -1208 -12121 0
-12261 1208 0
-12261 12121 0
12262 -12089 -12123 -1210 0
-12262 12089 0
-12262 12123 0
-12262 1210 0
-10349 12094 12259 12260 12261 12262 0
10349 -12094 0
10349 -12259 0
10349 -12260 0
10349 -12261 0
10349 -12262 0
12263 -12091 -12121 0
-12263 12091 0
-12263 12121 0
12264 -12115 -12121 0
-12264 12115 0
-12264 12121 0
12265 -12115 -12123 0
-12265 12115 0
-12265 12123 0
12266 -12091 -12123 -1210 0
-12266 12091 0
-12266 12123 0
-12266 1210 0
-10354 12096 12263 12264 12265 12266 0
10354 -12096 0
10354 -12263 0
10354 -12264 0
10354 -12265 0
10354 -12266 0
12267 -12089 -1219 0
-12267 12089 0
-12267 1219 0
12268 -1208 -1219 0
-12268 1208 0
-12268 1219 0
12269 -1208 -12181 0
-12269 1208 0
-12269 12181 0
12270 -12089 -12181 -1210 0
-12270 12089 0
-12270 12181 0
-12270 1210 0
-10359 1217 12267 12268 12269 12270 0
10359 -1217 0
10359 -12267 0
10359 -12268 0
10359 -12269 0
10359 -12270 0
12271 -12089 -12066 0
-12271 12089 0
-12271 12066 0
12272 -1208 -12068 0
-12272 1208 0
-12272 12068 0
12273 -1208 -12066 0
-12273 1208 0
-12273 12066 0
12274 -12089 -12068 -1210 0
-12274 12089 0
-12274 12068 0
-12274 1210 0
-10364 12051 12271 12272 12273 12274 0
10364 -12051 0
10364 -12271 0
10364 -12272 0
10364 -12273 0
10364 -12274 0
12275 -12091 -12066 0
-12275 12091 0
-12275 12066 0
12276 -12115 -12066 0
-12276 12115 0
-12276 12066 0
12277 -12115 -12068 0
-12277 12115 0
-12277 12068 0
12278 -12091 -12068 -1210 0
-12278 12091 0
-12278 12068 0
-12278 1210 0
-10369 12053 12275 12276 12277 12278 0
10369 -12053 0
10369 -12275 0
10369 -12276 0
10369 -12277 0
10369 -12278 0
12279 -12104 -12113 0
-12279 12104 0
-12279 12113 0
12280 -1209 -12071 0
-12280 1209 0
-12280 12071 0
12281 -1209 -12113 0
-12281 1209 0
-12281 12113 0
12282 -12104 -12071 -1210 0
-12282 12104 0
-12282 12071 0
-12282 1210 0
-10288 12098 12279 12280 12281 12282 0
10288 -12098 0
10288 -12279 0
10288 -12280 0
10288 -12281 0
10288 -12282 0
12283 -12104 -12115 0
-12283 12104 0
-12283 12115 0
12284 -1209 -12091 0
-12284 1209 0
-12284 12091 0
12285 -1209 -12115 0
-12285 1209 0
-12285 12115 0
12286 -12104 -12091 -1210 0
-12286 12104 0
-12286 12091 0
-12286 1210 0
-10279 12100 12283 12284 12285 12286 0
10279 -12100 0
10279 -12283 0
10279 -12284 0
10279 -12285 0
10279 -12286 0
12287 -12104 -1209 0
-12287 12104 0
-12287 1209 0
12288 -1209 -1209 0
-12288 1209 0
-12288 1209 0
12289 -1209 -12104 0
-12289 1209 0
-12289 12104 0
12290 -12104 -12104 -1210 0
-12290 12104 0
-12290 12104 0
-12290 1210 0
-10269 1206 12287 12288 12289 12290 0
10269 -1206 0
10269 -12287 0
10269 -12288 0
10269 -12289 0
10269 -12290 0
12291 -12104 -1214 0
-12291 12104 0
-12291 1214 0
12292 -1209 -1214 0
-12292 1209 0
-12292 1214 0
12293 -1209 -12131 0
-12293 1209 0
-12293 12131 0
12294 -12104 -12131 -1210 0
-12294 12104 0
-12294 12131 0
-12294 1210 0
-10293 1213 12291 12292 12293 12294 0
10293 -1213 0
10293 -12291 0
10293 -12292 0
10293 -12293 0
10293 -12294 0
12295 -12104 -12121 0
-12295 12104 0
-12295 12121 0
12296 -1209 -12123 0
-12296 1209 0
-12296 12123 0
12297 -1209 -12121 0
-12297 1209 0
-12297 12121 0
12298 -12104 -12123 -1210 0
-12298 12104 0
-12298 12123 0
-12298 1210 0
-10300 12109 12295 12296 12297 12298 0
10300 -12109 0
10300 -12295 0
10300 -12296 0
10300 -12297 0
10300 -12298 0
12299 -12106 -12121 0
-12299 12106 0
-12299 12121 0
12300 -12117 -12121 0
-12300 12117 0
-12300 12121 0
12301 -12117 -12123 0
-12301 12117 0
-12301 12123 0
12302 -12106 -12123 -1210 0
-12302 12106 0
-12302 12123 0
-12302 1210 0
-10302 12111 12299 12300 12301 12302 0
10302 -12111 0
10302 -12299 0
10302 -12300 0
10302 -12301 0
10302 -12302 0
12303 -12104 -1219 0
-12303 12104 0
-12303 1219 0
12304 -1209 -1219 0
-12304 1209 0
-12304 1219 0
12305 -1209 -12181 0
-12305 1209 0
-12305 12181 0
12306 -12104 -12181 -1210 0
-12306 12104 0
-12306 12181 0
-12306 1210 0
-10312 1218 12303 12304 12305 12306 0
10312 -1218 0
10312 -12303 0
10312 -12304 0
10312 -12305 0
10312 -12306 0
12307 -12104 -12066 0
-12307 12104 0
-12307 12066 0
12308 -1209 -12068 0
-12308 1209 0
-12308 12068 0
12309 -1209 -12066 0
-12309 1209 0
-12309 12066 0
12310 -12104 -12068 -1210 0
-12310 12104 0
-12310 12068 0
-12310 1210 0
-10319 12059 12307 12308 12309 12310 0
10319 -12059 0
10319 -12307 0
10319 -12308 0
10319 -12309 0
10319 -12310 0
12311 -12106 -12066 0
-12311 12106 0
-12311 12066 0
12312 -12117 -12066 0
-12312 12117 0
-12312 12066 0
12313 -12117 -12068 0
-12313 12117 0
-12313 12068 0
12314 -12106 -12068 -1210 0
-12314 12106 0
-12314 12068 0
-12314 1210 0
-10321 12061 12311 12312 12313 12314 0
10321 -12061 0
10321 -12311 0
10321 -12312 0
10321 -12313 0
10321 -12314 0
12315 -12131 -12113 0
-12315 12131 0
-12315 12113 0
12316 -1214 -12071 0
-12316 1214 0
-12316 12071 0
12317 -1214 -12113 0
-12317 1214 0
-12317 12113 0
12318 -12131 -12071 -1210 0
-12318 12131 0
-12318 12071 0
-12318 1210 0
-10374 12125 12315 12316 12317 12318 0
10374 -12125 0
10374 -12315 0
10374 -12316 0
10374 -12317 0
10374 -12318 0
12319 -12131 -12115 0
-12319 12131 0
-12319 12115 0
12320 -1214 -12091 0
-12320 1214 0
-12320 12091 0
12321 -1214 -12115 0
-12321 1214 0
-12321 12115 0
12322 -12131 -12091 -1210 0
-12322 12131 0
-12322 12091 0
-12322 1210 0
-10379 12127 12319 12320 12321 12322 0
10379 -12127 0
10379 -12319 0
10379 -12320 0
10379 -12321 0
10379 -12322 0
12323 -12131 -12117 0
-12323 12131 0
-12323 12117 0
12324 -1214 -12106 0
-12324 1214 0
-12324 12106 0
12325 -1214 -12117 0
-12325 1214 0
-12325 12117 0
12326 -12131 -12106 -1210 0
-12326 12131 0
-12326 12106 0
-12326 1210 0
-10296 12129 12323 12324 12325 12326 0
10296 -12129 0
10296 -12323 0
10296 -12324 0
10296 -12325 0
10296 -12326 0
12327 -12131 -1214 0
-12327 12131 0
-12327 1214 0
12328 -1214 -1214 0
-12328 1214 0
-12328 1214 0
12329 -1214 -12131 0
-12329 1214 0
-12329 12131 0
12330 -12131 -12131 -1210 0
-12330 12131 0
-12330 12131 0
-12330 1210 0
-10384 1215 12327 12328 12329 12330 0
10384 -1215 0
10384 -12327 0
10384 -12328 0
10384 -12329 0
10384 -12330 0
12331 -12131 -1219 0
-12331 12131 0
-12331 1219 0
12332 -1214 -1219 0
-12332 1214 0
-12332 1219 0
12333 -1214 -12181 0
-12333 1214 0
-12333 12181 0
12334 -12131 -12181 -1210 0
-12334 12131 0
-12334 12181 0
-12334 1210 0
-10389 1220 12331 12332 12333 12334 0
10389 -1220 0
10389 -12331 0
10389 -12332 0
10389 -12333 0
10389 -12334 0
12335 -12131 -12066 0
-12335 12131 0
-12335 12066 0
12336 -1214 -12068 0
-12336 1214 0
-12336 12068 0
12337 -1214 -12066 0
-12337 1214 0
-12337 12066 0
12338 -12131 -12068 -1210 0
-12338 12131 0
-12338 12068 0
-12338 1210 0
-10394 12073 12335 12336 12337 12338 0
10394 -12073 0
10394 -12335 0
10394 -12336 0
10394 -12337 0
10394 -12338 0
12339 -12123 -12066 0
-12339 12123 0
-12339 12066 0
12340 -12121 -12066 0
-12340 12121 0
-12340 12066 0
12341 -12121 -12068 0
-12341 12121 0
-12341 12068 0
12342 -12123 -12068 -1210 0
-12342 12123 0
-12342 12068 0
-12342 1210 0
-10399 12075 12339 12340 12341 12342 0
10399 -12075 0
10399 -12339 0
10399 -12340 0
10399 -12341 0
10399 -12342 0
12343 -12181 -12113 0
-12343 12181 0
-12343 12113 0
12344 -1219 -12071 0
-12344 1219 0
-12344 12071 0
12345 -1219 -12113 0
-12345 1219 0
-12345 12113 0
12346 -12181 -12071 -1210 0
-12346 12181 0
-12346 12071 0
-12346 1210 0
-10404 12175 12343 12344 12345 12346 0
10404 -12175 0
10404 -12343 0
10404 -12344 0
10404 -12345 0
10404 -12346 0
12347 -12181 -12115 0
-12347 12181 0
-12347 12115 0
12348 -1219 -12091 0
-12348 1219 0
-12348 12091 0
12349 -1219 -12115 0
-12349 1219 0
-12349 12115 0
12350 -12181 -12091 -1210 0
-12350 12181 0
-12350 12091 0
-12350 1210 0
-10409 12177 12347 12348 12349 12350 0
10409 -12177 0
10409 -12347 0
10409 -12348 0
10409 -12349 0
10409 -12350 0
12351 -12181 -12117 0
-12351 12181 0
-12351 12117 0
12352 -1219 -12106 0
-12352 1219 0
-12352 12106 0
12353 -1219 -12117 0
-12353 1219 0
-12353 12117 0
12354 -12181 -12106 -1210 0
-12354 12181 0
-12354 12106 0
-12354 1210 0
-10315 12179 12351 12352 12353 12354 0
10315 -12179 0
10315 -12351 0
10315 -12352 0
10315 -12353 0
10315 -12354 0
12355 -12181 -12121 0
-12355 12181 0
-12355 12121 0
12356 -1219 -12123 0
-12356 1219 0
-12356 12123 0
12357 -1219 -12121 0
-12357 1219 0
-12357 12121 0
12358 -12181 -12123 -1210 0
-12358 12181 0
-12358 12123 0
-12358 1210 0
-10414 12144 12355 12356 12357 12358 0
10414 -12144 0
10414 -12355 0
10414 -12356 0
10414 -12357 0
10414 -12358 0
12359 -12181 -1219 0
-12359 12181 0
-12359 1219 0
12360 -1219 -1219 0
-12360 1219 0
-12360 1219 0
12361 -1219 -12181 0
-12361 1219 0
-12361 12181 0
12362 -12181 -12181 -1210 0
-12362 12181 0
-12362 12181 0
-12362 1210 0
-10419 1221 12359 12360 12361 12362 0
10419 -1221 0
10419 -12359 0
10419 -12360 0
10419 -12361 0
10419 -12362 0
12363 -12069 -12069 0
-12363 12069 0
-12363 12069 0
-10113 1201 12363 0
10113 -1201 0
10113 -12363 0
12364 -12069 -12089 0
-12364 12069 0
-12364 12089 0
-10120 1202 12364 0
10120 -1202 0
10120 -12364 0
12365 -12069 -12091 0
-12365 12069 0
-12365 12091 0
-10127 12054 12365 0
10127 -12054 0
10127 -12365 0
12366 -12071 -12091 0
-12366 12071 0
-12366 12091 0
-10134 12057 12366 0
10134 -12057 0
10134 -12366 0
12367 -12069 -12104 0
-12367 12069 0
-12367 12104 0
-10108 1204 12367 0
10108 -1204 0
10108 -12367 0
12368 -12069 -12106 0
-12368 12069 0
-12368 12106 0
-10107 12062 12368 0
10107 -12062 0
10107 -12368 0
12369 -12071 -12106 0
-12369 12071 0
-12369 12106 0
-10129 12064 12369 0
10129 -12064 0
10129 -12369 0
12370 -12069 -12131 0
-12370 12069 0
-12370 12131 0
-10141 1211 12370 0
10141 -1211 0
10141 -12370 0
12371 -12069 -12123 0
-12371 12069 0
-12371 12123 0
-10148 12076 12371 0
10148 -12076 0
10148 -12371 0
12372 -12071 -12123 0
-12372 12071 0
-12372 12123 0
-10153 12078 12372 0
10153 -12078 0
10153 -12372 0
12373 -12069 -12181 0
-12373 12069 0
-12373 12181 0
-10160 1216 12373 0
10160 -1216 0
10160 -12373 0
12374 -12069 -12068 0
-12374 12069 0
-12374 12068 0
-10167 12049 12374 0
10167 -12049 0
10167 -12374 0
12375 -12071 -12068 0
-12375 12071 0
-12375 12068 0
-10172 12056 12375 0
10172 -12056 0
10172 -12375 0
12376 -12089 -12071 0
-12376 12089 0
-12376 12071 0
-10177 12080 12376 0
10177 -12080 0
10177 -12376 0
12377 -12089 -12089 0
-12377 12089 0
-12377 12089 0
-10182 1203 12377 0
10182 -1203 0
10182 -12377 0
12378 -12089 -12104 0
-12378 12089 0
-12378 12104 0
-10115 1205 12378 0
10115 -1205 0
10115 -12378 0
12379 -12089 -12106 0
-12379 12089 0
-12379 12106 0
-10118 12084 12379 0
10118 -12084 0
10118 -12379 0
12380 -12091 -12106 0
-12380 12091 0
-12380 12106 0
-10124 12086 12380 0
10124 -12086 0
10124 -12380 0
12381 -12089 -12131 0
-12381 12089 0
-12381 12131 0
-10187 1212 12381 0
10187 -1212 0
10187 -12381 0
12382 -12089 -12123 0
-12382 12089 0
-12382 12123 0
-10192 12094 12382 0
10192 -12094 0
10192 -12382 0
12383 -12091 -12123 0
-12383 12091 0
-12383 12123 0
-10197 12096 12383 0
10197 -12096 0
10197 -12383 0
12384 -12089 -12181 0
-12384 12089 0
-12384 12181 0
-10202 1217 12384 0
10202 -1217 0
10202 -12384 0
12385 -12089 -12068 0
-12385 12089 0
-12385 12068 0
-10207 12051 12385 0
10207 -12051 0
10207 -12385 0
12386 -12091 -12068 0
-12386 12091 0
-12386 12068 0
-10212 12053 12386 0
10212 -12053 0
10212 -12386 0
12387 -12104 -12071 0
-12387 12104 0
-12387 12071 0
-10131 12098 12387 0
10131 -12098 0
10131 -12387 0
12388 -12104 -12091 0
-12388 12104 0
-12388 12091 0
-10122 12100 12388 0
10122 -12100 0
10122 -12388 0
12389 -12104 -12104 0
-12389 12104 0
-12389 12104 0
-10112 1206 12389 0
10112 -1206 0
10112 -12389 0
12390 -12104 -12131 0
-12390 12104 0
-12390 12131 0
-10136 1213 12390 0
10136 -1213 0
10136 -12390 0
12391 -12104 -12123 0
-12391 12104 0
-12391 12123 0
-10143 12109 12391 0
10143 -12109 0
10143 -12391 0
12392 -12106 -12123 0
-12392 12106 0
-12392 12123 0
-10145 12111 12392 0
10145 -12111 0
10145 -12392 0
12393 -12104 -12181 0
-12393 12104 0
-12393 12181 0
-10155 1218 12393 0
10155 -1218 0
10155 -12393 0
12394 -12104 -12068 0
-12394 12104 0
-12394 12068 0
-10162 12059 12394 0
10162 -12059 0
10162 -12394 0
12395 -12106 -12068 0
-12395 12106 0
-12395 12068 0
-10164 12061 12395 0
10164 -12061 0
10164 -12395 0
12396 -12131 -12071 0
-12396 12131 0
-12396 12071 0
-10217 12125 12396 0
10217 -12125 0
10217 -12396 0
12397 -12131 -12091 0
-12397 12131 0
-12397 12091 0
-10222 12127 12397 0
10222 -12127 0
10222 -12397 0
12398 -12131 -12106 0
-12398 12131 0
-12398 12106 0
-10139 12129 12398 0
10139 -12129 0
10139 -12398 0
12399 -12131 -12131 0
-12399 12131 0
-12399 12131 0
-10227 1215 12399 0
10227 -1215 0
10227 -12399 0
12400 -12131 -12181 0
-12400 12131 0
-12400 12181 0
-10232 1220 12400 0
10232 -1220 0
10232 -12400 0
12401 -12131 -12068 0
-12401 12131 0
-12401 12068 0
-10237 12073 12401 0
10237 -12073 0
10237 -12401 0
12402 -12123 -12068 0
-12402 12123 0
-12402 12068 0
-10242 12075 12402 0
10242 -12075 0
10242 -12402 0
12403 -12181 -12071 0
-12403 12181 0
-12403 12071 0
-10247 12175 12403 0
10247 -12175 0
10247 -12403 0
12404 -12181 -12091 0
-12404 12181 0
-12404 12091 0
-10252 12177 12404 0
10252 -12177 0
10252 -12404 0
12405 -12181 -12106 0
-12405 12181 0
-12405 12106 0
-10158 12179 12405 0
10158 -12179 0
10158 -12405 0
12406 -12181 -12123 0
-12406 12181 0
-12406 12123 0
-10257 12144 12406 0
10257 -12144 0
10257 -12406 0
12407 -12181 -12181 0
-12407 12181 0
-12407 12181 0
-10262 1221 12407 0
10262 -1221 0
10262 -12407 0
12408 -12049 -1216 0
-12408 12049 0
-12408 1216 0
12409 -1216 -1216 0
-12409 1216 0
-12409 1216 0
12410 -1216 -12049 0
-12410 1216 0
-12410 12049 0
12411 -12049 -12049 -1221 0
-12411 12049 0
-12411 12049 0
-12411 1221 0
-10491 1201 12408 12409 12410 12411 0
10491 -1201 0
10491 -12408 0
10491 -12409 0
10491 -12410 0
10491 -12411 0
12412 -12049 -1217 0
-12412 12049 0
-12412 1217 0
12413 -1216 -1217 0
-12413 1216 0
-12413 1217 0
12414 -1216 -12051 0
-12414 1216 0
-12414 12051 0
12415 -12049 -12051 -1221 0
-12415 12049 0
-12415 12051 0
-12415 1221 0
-10498 1202 12412 12413 12414 12415 0
10498 -1202 0
10498 -12412 0
10498 -12413 0
10498 -12414 0
10498 -12415 0
12416 -12049 -12177 0
-12416 12049 0
-12416 12177 0
12417 -1216 -12053 0
-12417 1216 0
-12417 12053 0
12418 -1216 -12177 0
-12418 1216 0
-12418 12177 0
12419 -12049 -12053 -1221 0
-12419 12049 0
-12419 12053 0
-12419 1221 0
-10505 12054 12416 12417 12418 12419 0
10505 -12054 0
10505 -12416 0
10505 -12417 0
10505 -12418 0
10505 -12419 0
12420 -12056 -12177 0
-12420 12056 0
-12420 12177 0
12421 -12175 -12177 0
-12421 12175 0
-12421 12177 0
12422 -12175 -12053 0
-12422 12175 0
-12422 12053 0
12423 -12056 -12053 -1221 0
-12423 12056 0
-12423 12053 0
-12423 1221 0
-10512 12057 12420 12421 12422 12423 0
10512 -12057 0
10512 -12420 0
10512 -12421 0
10512 -12422 0
10512 -12423 0
12424 -12049 -1218 0
-12424 12049 0
-12424 1218 0
12425 -1216 -1218 0
-12425 1216 0
-12425 1218 0
12426 -1216 -12059 0
-12426 1216 0
-12426 12059 0
12427 -12049 -12059 -1221 0
-12427 12049 0
-12427 12059 0
-12427 1221 0
-10519 1204 12424 12425 12426 12427 0
10519 -1204 0
10519 -12424 0
10519 -12425 0
10519 -12426 0
10519 -12427 0
12428 -12049 -12179 0
-12428 12049 0
-12428 12179 0
12429 -1216 -12061 0
-12429 1216 0
-12429 12061 0
12430 -1216 -12179 0
-12430 1216 0
-12430 12179 0
12431 -12049 -12061 -1221 0
-12431 12049 0
-12431 12061 0
-12431 1221 0
-10526 12062 12428 12429 12430 12431 0
10526 -12062 0
10526 -12428 0
10526 -12429 0
10526 -12430 0
10526 -12431 0
12432 -12056 -12179 0
-12432 12056 0
-12432 12179 0
12433 -12175 -12179 0
-12433 12175 0
-12433 12179 0
12434 -12175 -12061 0
-12434 12175 0
-12434 12061 0
12435 -12056 -12061 -1221 0
-12435 12056 0
-12435 12061 0
-12435 1221 0
-10531 12064 12432 12433 12434 12435 0
10531 -12064 0
10531 -12432 0
10531 -12433 0
10531 -12434 0
10531 -12435 0
12436 -12049 -1219 0
-12436 12049 0
-12436 1219 0
12437 -1216 -1219 0
-12437 1216 0
-12437 1219 0
12438 -1216 -12066 0
-12438 1216 0
-12438 12066 0
12439 -12049 -12066 -1221 0
-12439 12049 0
-12439 12066 0
-12439 1221 0
-10538 1207 12436 12437 12438 12439 0
10538 -1207 0
10538 -12436 0
10538 -12437 0
10538 -12438 0
10538 -12439 0
12440 -12049 -12181 0
-12440 12049 0
-12440 12181 0
12441 -1216 -12068 0
-12441 1216 0
-12441 12068 0
12442 -1216 -12181 0
-12442 1216 0
-12442 12181 0
12443 -12049 -12068 -1221 0
-12443 12049 0
-12443 12068 0
-12443 1221 0
-10545 12069 12440 12441 12442 12443 0
10545 -12069 0
10545 -12440 0
10545 -12441 0
10545 -12442 0
10545 -12443 0
12444 -12056 -12181 0
-12444 12056 0
-12444 12181 0
12445 -12175 -12181 0
-12445 12175 0
-12445 12181 0
12446 -12175 -12068 0
-12446 12175 0
-12446 12068 0
12447 -12056 -12068 -1221 0
-12447 12056 0
-12447 12068 0
-12447 1221 0
-10550 12071 12444 12445 12446 12447 0
10550 -12071 0
10550 -12444 0
10550 -12445 0
10550 -12446 0
10550 -12447 0
12448 -12049 -1220 0
-12448 12049 0
-12448 1220 0
12449 -1216 -1220 0
-12449 1216 0
-12449 1220 0
12450 -1216 -12073 0
-12450 1216 0
-12450 12073 0
12451 -12049 -12073 -1221 0
-12451 12049 0
-12451 12073 0
-12451 1221 0
-10486 1211 12448 12449 12450 12451 0
10486 -1211 0
10486 -12448 0
10486 -12449 0
10486 -12450 0
10486 -12451 0
12452 -12049 -12144 0
-12452 12049 0
-12452 12144 0
12453 -1216 -12075 0
-12453 1216 0
-12453 12075 0
12454 -1216 -12144 0
-12454 1216 0
-12454 12144 0
12455 -12049 -12075 -1221 0
-12455 12049 0
-12455 12075 0
-12455 1221 0
-10485 12076 12452 12453 12454 12455 0
10485 -12076 0
10485 -12452 0
10485 -12453 0
10485 -12454 0
10485 -12455 0
12456 -12056 -12144 0
-12456 12056 0
-12456 12144 0
12457 -12175 -12144 0
-12457 12175 0
-12457 12144 0
12458 -12175 -12075 0
-12458 12175 0
-12458 12075 0
12459 -12056 -12075 -1221 0
-12459 12056 0
-12459 12075 0
-12459 1221 0
-10507 12078 12456 12457 12458 12459 0
10507 -12078 0
10507 -12456 0
10507 -12457 0
10507 -12458 0
10507 -12459 0
12460 -12051 -12175 0
-12460 12051 0
-12460 12175 0
12461 -1217 -12056 0
-12461 1217 0
-12461 12056 0
12462 -1217 -12175 0
-12462 1217 0
-12462 12175 0
12463 -12051 -12056 -1221 0
-12463 12051 0
-12463 12056 0
-12463 1221 0
-10555 12080 12460 12461 12462 12463 0
10555 -12080 0
10555 -12460 0
10555 -12461 0
10555 -12462 0
10555 -12463 0
12464 -12051 -1217 0
-12464 12051 0
-12464 1217 0
12465 -1217 -1217 0
-12465 1217 0
-12465 1217 0
12466 -1217 -12051 0
-12466 1217 0
-12466 12051 0
12467 -12051 -12051 -1221 0
-12467 12051 0
-12467 12051 0
-12467 1221 0
-10560 1203 12464 12465 12466 12467 0
10560 -1203 0
10560 -12464 0
10560 -12465 0
10560 -12466 0
10560 -12467 0
12468 -12051 -1218 0
-12468 12051 0
-12468 1218 0
12469 -1217 -1218 0
-12469 1217 0
-12469 1218 0
12470 -1217 -12059 0
-12470 1217 0
-12470 12059 0
12471 -12051 -12059 -1221 0
-12471 12051 0
-12471 12059 0
-12471 1221 0
-10565 1205 12468 12469 12470 12471 0
10565 -1205 0
10565 -12468 0
10565 -12469 0
10565 -12470 0
10565 -12471 0
12472 -12051 -12179 0
-12472 12051 0
-12472 12179 0
12473 -1217 -12061 0
-12473 1217 0
-12473 12061 0
12474 -1217 -12179 0
-12474 1217 0
-12474 12179 0
12475 -12051 -12061 -1221 0
-12475 12051 0
-12475 12061 0
-12475 1221 0
-10570 12084 12472 12473 12474 12475 0
10570 -12084 0
10570 -12472 0
10570 -12473 0
10570 -12474 0
10570 -12475 0
12476 -12053 -12179 0
-12476 12053 0
-12476 12179 0
12477 -12177 -12179 0
-12477 12177 0
-12477 12179 0
12478 -12177 -12061 0
-12478 12177 0
-12478 12061 0
12479 -12053 -12061 -1221 0
-12479 12053 0
-12479 12061 0
-12479 1221 0
-10575 12086 12476 12477 12478 12479 0
10575 -12086 0
10575 -12476 0
10575 -12477 0
10575 -12478 0
10575 -12479 0
12480 -12051 -1219 0
-12480 12051 0
-12480 1219 0
12481 -1217 -1219 0
-12481 1217 0
-12481 1219 0
12482 -1217 -12066 0
-12482 1217 0
-12482 12066 0
12483 -12051 -12066 -1221 0
-12483 12051 0
-12483 12066 0
-12483 1221 0
-10580 1208 12480 12481 12482 12483 0
10580 -1208 0
10580 -12480 0
10580 -12481 0
10580 -12482 0
10580 -12483 0
12484 -12051 -12181 0
-12484 12051 0
-12484 12181 0
12485 -1217 -12068 0
-12485 1217 0
-12485 12068 0
12486 -1217 -12181 0
-12486 1217 0
-12486 12181 0
12487 -12051 -12068 -1221 0
-12487 12051 0
-12487 12068 0
-12487 1221 0
-10585 12089 12484 12485 12486 12487 0
10585 -12089 0
10585 -12484 0
10585 -12485 0
10585 -12486 0
10585 -12487 0
12488 -12053 -12181 0
-12488 12053 0
-12488 12181 0
12489 -12177 -12181 0
-12489 12177 0
-12489 12181 0
12490 -12177 -12068 0
-12490 12177 0
-12490 12068 0
12491 -12053 -12068 -1221 0
-12491 12053 0
-12491 12068 0
-12491 1221 0
-10590 12091 12488 12489 12490 12491 0
10590 -12091 0
10590 -12488 0
10590 -12489 0
10590 -12490 0
10590 -12491 0
12492 -12051 -1220 0
-12492 12051 0
-12492 1220 0
12493 -1217 -1220 0
-12493 1217 0
-12493 1220 0
12494 -1217 -12073 0
-12494 1217 0
-12494 12073 0
12495 -12051 -12073 -1221 0
-12495 12051 0
-12495 12073 0
-12495 1221 0
-10493 1212 12492 12493 12494 12495 0
10493 -1212 0
10493 -12492 0
10493 -12493 0
10493 -12494 0
10493 -12495 0
12496 -12051 -12144 0
-12496 12051 0
-12496 12144 0
12497 -1217 -12075 0
-12497 1217 0
-12497 12075 0
12498 -1217 -12144 0
-12498 1217 0
-12498 12144 0
12499 -12051 -12075 -1221 0
-12499 12051 0
-12499 12075 0
-12499 1221 0
-10496 12094 12496 12497 12498 12499 0
10496 -12094 0
10496 -12496 0
10496 -12497 0
10496 -12498 0
10496 -12499 0
12500 -12053 -12144 0
-12500 12053 0
-12500 12144 0
12501 -12177 -12144 0
-12501 12177 0
-12501 12144 0
12502 -12177 -12075 0
-12502 12177 0
-12502 12075 0
12503 -12053 -12075 -1221 0
-12503 12053 0
-12503 12075 0
-12503 1221 0
-10502 12096 12500 12501 12502 12503 0
10502 -12096 0
10502 -12500 0
10502 -12501 0
10502 -12502 0
10502 -12503 0
12504 -12059 -12175 0
-12504 12059 0
-12504 12175 0
12505 -1218 -12056 0
-12505 1218 0
-12505 12056 0
12506 -1218 -12175 0
-12506 1218 0
-12506 12175 0
12507 -12059 -12056 -1221 0
-12507 12059 0
-12507 12056 0
-12507 1221 0
-10595 12098 12504 12505 12506 12507 0
10595 -12098 0
10595 -12504 0
10595 -12505 0
10595 -12506 0
10595 -12507 0
12508 -12059 -12177 0
-12508 12059 0
-12508 12177 0
12509 -1218 -12053 0
-12509 1218 0
-12509 12053 0
12510 -1218 -12177 0
-12510 1218 0
-12510 12177 0
12511 -12059 -12053 -1221 0
-12511 12059 0
-12511 12053 0
-12511 1221 0
-10600 12100 12508 12509 12510 12511 0
10600 -12100 0
10600 -12508 0
10600 -12509 0
10600 -12510 0
10600 -12511 0
12512 -12059 -1218 0
-12512 12059 0
-12512 1218 0
12513 -1218 -1218 0
-12513 1218 0
-12513 1218 0
12514 -1218 -12059 0
-12514 1218 0
-12514 12059 0
12515 -12059 -12059 -1221 0
-12515 12059 0
-12515 12059 0
-12515 1221 0
-10605 1206 12512 12513 12514 12515 0
10605 -1206 0
10605 -12512 0
10605 -12513 0
10605 -12514 0
10605 -12515 0
12516 -12059 -1219 0
-12516 12059 0
-12516 1219 0
12517 -1218 -1219 0
-12517 1218 0
-12517 1219 0
12518 -1218 -12066 0
-12518 1218 0
-12518 12066 0
12519 -12059 -12066 -1221 0
-12519 12059 0
-12519 12066 0
-12519 1221 0
-10610 1209 12516 12517 12518 12519 0
10610 -1209 0
10610 -12516 0
10610 -12517 0
10610 -12518 0
10610 -12519 0
12520 -12059 -12181 0
-12520 12059 0
-12520 12181 0
12521 -1218 -12068 0
-12521 1218 0
-12521 12068 0
12522 -1218 -12181 0
-12522 1218 0
-12522 12181 0
12523 -12059 -12068 -1221 0
-12523 12059 0
-12523 12068 0
-12523 1221 0
-10615 12104 12520 12521 12522 12523 0
10615 -12104 0
10615 -12520 0
10615 -12521 0
10615 -12522 0
10615 -12523 0
12524 -12061 -12181 0
-12524 12061 0
-12524 12181 0
12525 -12179 -12181 0
-12525 12179 0
-12525 12181 0
12526 -12179 -12068 0
-12526 12179 0
-12526 12068 0
12527 -12061 -12068 -1221 0
-12527 12061 0
-12527 12068 0
-12527 1221 0
-10620 12106 12524 12525 12526 12527 0
10620 -12106 0
10620 -12524 0
10620 -12525 0
10620 -12526 0
10620 -12527 0
12528 -12059 -1220 0
-12528 12059 0
-12528 1220 0
12529 -1218 -1220 0
-12529 1218 0
-12529 1220 0
12530 -1218 -12073 0
-12530 1218 0
-12530 12073 0
12531 -12059 -12073 -1221 0
-12531 12059 0
-12531 12073 0
-12531 1221 0
-10514 1213 12528 12529 12530 12531 0
10514 -1213 0
10514 -12528 0
10514 -12529 0
10514 -12530 0
10514 -12531 0
12532 -12059 -12144 0
-12532 12059 0
-12532 12144 0
12533 -1218 -12075 0
-12533 1218 0
-12533 12075 0
12534 -1218 -12144 0
-12534 1218 0
-12534 12144 0
12535 -12059 -12075 -1221 0
-12535 12059 0
-12535 12075 0
-12535 1221 0
-10517 12109 12532 12533 12534 12535 0
10517 -12109 0
10517 -12532 0
10517 -12533 0
10517 -12534 0
10517 -12535 0
12536 -12061 -12144 0
-12536 12061 0
-12536 12144 0
12537 -12179 -12144 0
-12537 12179 0
-12537 12144 0
12538 -12179 -12075 0
-12538 12179 0
-12538 12075 0
12539 -12061 -12075 -1221 0
-12539 12061 0
-12539 12075 0
-12539 1221 0
-10523 12111 12536 12537 12538 12539 0
10523 -12111 0
10523 -12536 0
10523 -12537 0
10523 -12538 0
10523 -12539 0
12540 -12066 -12175 0
-12540 12066 0
-12540 12175 0
12541 -1219 -12056 0
-12541 1219 0
-12541 12056 0
12542 -1219 -12175 0
-12542 1219 0
-12542 12175 0
12543 -12066 -12056 -1221 0
-12543 12066 0
-12543 12056 0
-12543 1221 0
-10625 12113 12540 12541 12542 12543 0
10625 -12113 0
10625 -12540 0
10625 -12541 0
10625 -12542 0
10625 -12543 0
12544 -12066 -12177 0
-12544 12066 0
-12544 12177 0
12545 -1219 -12053 0
-12545 1219 0
-12545 12053 0
12546 -1219 -12177 0
-12546 1219 0
-12546 12177 0
12547 -12066 -12053 -1221 0
-12547 12066 0
-12547 12053 0
-12547 1221 0
-10630 12115 12544 12545 12546 12547 0
10630 -12115 0
10630 -12544 0
10630 -12545 0
10630 -12546 0
10630 -12547 0
12548 -12066 -12179 0
-12548 12066 0
-12548 12179 0
12549 -1219 -12061 0
-12549 1219 0
-12549 12061 0
12550 -1219 -12179 0
-12550 1219 0
-12550 12179 0
12551 -12066 -12061 -1221 0
-12551 12066 0
-12551 12061 0
-12551 1221 0
-10635 12117 12548 12549 12550 12551 0
10635 -12117 0
10635 -12548 0
10635 -12549 0
10635 -12550 0
10635 -12551 0
12552 -12066 -1219 0
-12552 12066 0
-12552 1219 0
12360 -1219 -1219 0
-12360 1219 0
-12360 1219 0
12553 -1219 -12066 0
-12553 1219 0
-12553 12066 0
12554 -12066 -12066 -1221 0
-12554 12066 0
-12554 12066 0
-12554 1221 0
-10640 1210 12552 12360 12553 12554 0
10640 -1210 0
10640 -12552 0
10640 -12360 0
10640 -12553 0
10640 -12554 0
12555 -12066 -1220 0
-12555 12066 0
-12555 1220 0
12556 -1219 -1220 0
-12556 1219 0
-12556 1220 0
12557 -1219 -12073 0
-12557 1219 0
-12557 12073 0
12558 -12066 -12073 -1221 0
-12558 12066 0
-12558 12073 0
-12558 1221 0
-10533 1214 12555 12556 12557 12558 0
10533 -1214 0
10533 -12555 0
10533 -12556 0
10533 -12557 0
10533 -12558 0
12559 -12066 -12144 0
-12559 12066 0
-12559 12144 0
12560 -1219 -12075 0
-12560 1219 0
-12560 12075 0
12561 -1219 -12144 0
-12561 1219 0
-12561 12144 0
12562 -12066 -12075 -1221 0
-12562 12066 0
-12562 12075 0
-12562 1221 0
-10536 12121 12559 12560 12561 12562 0
10536 -12121 0
10536 -12559 0
10536 -12560 0
10536 -12561 0
10536 -12562 0
12563 -12068 -12144 0
-12563 12068 0
-12563 12144 0
12564 -12181 -12144 0
-12564 12181 0
-12564 12144 0
12565 -12181 -12075 0
-12565 12181 0
-12565 12075 0
12566 -12068 -12075 -1221 0
-12566 12068 0
-12566 12075 0
-12566 1221 0
-10542 12123 12563 12564 12565 12566 0
10542 -12123 0
10542 -12563 0
10542 -12564 0
10542 -12565 0
10542 -12566 0
12567 -12073 -12175 0
-12567 12073 0
-12567 12175 0
12568 -1220 -12056 0
-12568 1220 0
-12568 12056 0
12569 -1220 -12175 0
-12569 1220 0
-12569 12175 0
12570 -12073 -12056 -1221 0
-12570 12073 0
-12570 12056 0
-12570 1221 0
-10509 12125 12567 12568 12569 12570 0
10509 -12125 0
10509 -12567 0
10509 -12568 0
10509 -12569 0
10509 -12570 0
12571 -12073 -12177 0
-12571 12073 0
-12571 12177 0
12572 -1220 -12053 0
-12572 1220 0
-12572 12053 0
12573 -1220 -12177 0
-12573 1220 0
-12573 12177 0
12574 -12073 -12053 -1221 0
-12574 12073 0
-12574 12053 0
-12574 1221 0
-10500 12127 12571 12572 12573 12574 0
10500 -12127 0
10500 -12571 0
10500 -12572 0
10500 -12573 0
10500 -12574 0
12575 -12073 -12179 0
-12575 12073 0
-12575 12179 0
12576 -1220 -12061 0
-12576 1220 0
-12576 12061 0
12577 -1220 -12179 0
-12577 1220 0
-12577 12179 0
12578 -12073 -12061 -1221 0
-12578 12073 0
-12578 12061 0
-12578 1221 0
-10521 12129 12575 12576 12577 12578 0
10521 -12129 0
10521 -12575 0
10521 -12576 0
10521 -12577 0
10521 -12578 0
12579 -12073 -12181 0
-12579 12073 0
-12579 12181 0
12580 -1220 -12068 0
-12580 1220 0
-12580 12068 0
12581 -1220 -12181 0
-12581 1220 0
-12581 12181 0
12582 -12073 -12068 -1221 0
-12582 12073 0
-12582 12068 0
-12582 1221 0
-10540 12131 12579 12580 12581 12582 0
10540 -12131 0
10540 -12579 0
10540 -12580 0
10540 -12581 0
10540 -12582 0
12583 -12073 -1220 0
-12583 12073 0
-12583 1220 0
12584 -1220 -1220 0
-12584 1220 0
-12584 1220 0
12585 -1220 -12073 0
-12585 1220 0
-12585 12073 0
12586 -12073 -12073 -1221 0
-12586 12073 0
-12586 12073 0
-12586 1221 0
-10490 1215 12583 12584 12585 12586 0
10490 -1215 0
10490 -12583 0
10490 -12584 0
10490 -12585 0
10490 -12586 0
12587 -12076 -1211 0
-12587 12076 0
-12587 1211 0
12588 -1211 -1211 0
-12588 1211 0
-12588 1211 0
12589 -1211 -12076 0
-12589 1211 0
-12589 12076 0
12590 -12076 -12076 -1215 0
-12590 12076 0
-12590 12076 0
-12590 1215 0
-11147 1201 12587 12588 12589 12590 0
11147 -1201 0
11147 -12587 0
11147 -12588 0
11147 -12589 0
11147 -12590 0
12591 -12076 -1212 0
-12591 12076 0
-12591 1212 0
12592 -1211 -1212 0
-12592 1211 0
-12592 1212 0
12593 -1211 -12094 0
-12593 1211 0
-12593 12094 0
12594 -12076 -12094 -1215 0
-12594 12076 0
-12594 12094 0
-12594 1215 0
-11154 1202 12591 12592 12593 12594 0
11154 -1202 0
11154 -12591 0
11154 -12592 0
11154 -12593 0
11154 -12594 0
12595 -12076 -12127 0
-12595 12076 0
-12595 12127 0
12596 -1211 -12096 0
-12596 1211 0
-12596 12096 0
12597 -1211 -12127 0
-12597 1211 0
-12597 12127 0
12598 -12076 -12096 -1215 0
-12598 12076 0
-12598 12096 0
-12598 1215 0
-11161 12054 12595 12596 12597 12598 0
11161 -12054 0
11161 -12595 0
11161 -12596 0
11161 -12597 0
11161 -12598 0
12599 -12078 -12127 0
-12599 12078 0
-12599 12127 0
12600 -12125 -12127 0
-12600 12125 0
-12600 12127 0
12601 -12125 -12096 0
-12601 12125 0
-12601 12096 0
12602 -12078 -12096 -1215 0
-12602 12078 0
-12602 12096 0
-12602 1215 0
-11168 12057 12599 12600 12601 12602 0
11168 -12057 0
11168 -12599 0
11168 -12600 0
11168 -12601 0
11168 -12602 0
12603 -12076 -1213 0
-12603 12076 0
-12603 1213 0
12604 -1211 -1213 0
-12604 1211 0
-12604 1213 0
12605 -1211 -12109 0
-12605 1211 0
-12605 12109 0
12606 -12076 -12109 -1215 0
-12606 12076 0
-12606 12109 0
-12606 1215 0
-11175 1204 12603 12604 12605 12606 0
11175 -1204 0
11175 -12603 0
11175 -12604 0
11175 -12605 0
11175 -12606 0
12607 -12076 -12129 0
-12607 12076 0
-12607 12129 0
12608 -1211 -12111 0
-12608 1211 0
-12608 12111 0
12609 -1211 -12129 0
-12609 1211 0
-12609 12129 0
12610 -12076 -12111 -1215 0
-12610 12076 0
-12610 12111 0
-12610 1215 0
-11182 12062 12607 12608 12609 12610 0
11182 -12062 0
11182 -12607 0
11182 -12608 0
11182 -12609 0
11182 -12610 0
12611 -12078 -12129 0
-12611 12078 0
-12611 12129 0
12612 -12125 -12129 0
-12612 12125 0
-12612 12129 0
12613 -12125 -12111 0
-12613 12125 0
-12613 12111 0
12614 -12078 -12111 -1215 0
-12614 12078 0
-12614 12111 0
-12614 1215 0
-11187 12064 12611 12612 12613 12614 0
11187 -12064 0
11187 -12611 0
11187 -12612 0
11187 -12613 0
11187 -12614 0
12615 -12076 -1214 0
-12615 12076 0
-12615 1214 0
12616 -1211 -1214 0
-12616 1211 0
-12616 1214 0
12617 -1211 -12121 0
-12617 1211 0
-12617 12121 0
12618 -12076 -12121 -1215 0
-12618 12076 0
-12618 12121 0
-12618 1215 0
-11142 1207 12615 12616 12617 12618 0
11142 -1207 0
11142 -12615 0
11142 -12616 0
11142 -12617 0
11142 -12618 0
12619 -12076 -12131 0
-12619 12076 0
-12619 12131 0
12620 -1211 -12123 0
-12620 1211 0
-12620 12123 0
12621 -1211 -12131 0
-12621 1211 0
-12621 12131 0
12622 -12076 -12123 -1215 0
-12622 12076 0
-12622 12123 0
-12622 1215 0
-11141 12069 12619 12620 12621 12622 0
11141 -12069 0
11141 -12619 0
11141 -12620 0
11141 -12621 0
11141 -12622 0
12623 -12078 -12131 0
-12623 12078 0
-12623 12131 0
12624 -12125 -12131 0
-12624 12125 0
-12624 12131 0
12625 -12125 -12123 0
-12625 12125 0
-12625 12123 0
12626 -12078 -12123 -1215 0
-12626 12078 0
-12626 12123 0
-12626 1215 0
-11163 12071 12623 12624 12625 12626 0
11163 -12071 0
11163 -12623 0
11163 -12624 0
11163 -12625 0
11163 -12626 0
12627 -12076 -1220 0
-12627 12076 0
-12627 1220 0
12628 -1211 -1220 0
-12628 1211 0
-12628 1220 0
12629 -1211 -12144 0
-12629 1211 0
-12629 12144 0
12630 -12076 -12144 -1215 0
-12630 12076 0
-12630 12144 0
-12630 1215 0
-11194 1216 12627 12628 12629 12630 0
11194 -1216 0
11194 -12627 0
11194 -12628 0
11194 -12629 0
11194 -12630 0
12631 -12076 -12073 0
-12631 12076 0
-12631 12073 0
12632 -1211 -12075 0
-12632 1211 0
-12632 12075 0
12633 -1211 -12073 0
-12633 1211 0
-12633 12073 0
12634 -12076 -12075 -1215 0
-12634 12076 0
-12634 12075 0
-12634 1215 0
-11201 12049 12631 12632 12633 12634 0
11201 -12049 0
11201 -12631 0
11201 -12632 0
11201 -12633 0
11201 -12634 0
12635 -12078 -12073 0
-12635 12078 0
-12635 12073 0
12636 -12125 -12073 0
-12636 12125 0
-12636 12073 0
12637 -12125 -12075 0
-12637 12125 0
-12637 12075 0
12638 -12078 -12075 -1215 0
-12638 12078 0
-12638 12075 0
-12638 1215 0
-11206 12056 12635 12636 12637 12638 0
11206 -12056 0
11206 -12635 0
11206 -12636 0
11206 -12637 0
11206 -12638 0
12639 -12094 -12125 0
-12639 12094 0
-12639 12125 0
12640 -1212 -12078 0
-12640 1212 0
-12640 12078 0
12641 -1212 -12125 0
-12641 1212 0
-12641 12125 0
12642 -12094 -12078 -1215 0
-12642 12094 0
-12642 12078 0
-12642 1215 0
-11211 12080 12639 12640 12641 12642 0
11211 -12080 0
11211 -12639 0
11211 -12640 0
11211 -12641 0
11211 -12642 0
12643 -12094 -1212 0
-12643 12094 0
-12643 1212 0
12644 -1212 -1212 0
-12644 1212 0
-12644 1212 0
12645 -1212 -12094 0
-12645 1212 0
-12645 12094 0
12646 -12094 -12094 -1215 0
-12646 12094 0
-12646 12094 0
-12646 1215 0
-11216 1203 12643 12644 12645 12646 0
11216 -1203 0
11216 -12643 0
11216 -12644 0
11216 -12645 0
11216 -12646 0
12647 -12094 -1213 0
-12647 12094 0
-12647 1213 0
12648 -1212 -1213 0
-12648 1212 0
-12648 1213 0
12649 -1212 -12109 0
-12649 1212 0
-12649 12109 0
12650 -12094 -12109 -1215 0
-12650 12094 0
-12650 12109 0
-12650 1215 0
-11221 1205 12647 12648 12649 12650 0
11221 -1205 0
11221 -12647 0
11221 -12648 0
11221 -12649 0
11221 -12650 0
12651 -12094 -12129 0
-12651 12094 0
-12651 12129 0
12652 -1212 -12111 0
-12652 1212 0
-12652 12111 0
12653 -1212 -12129 0
-12653 1212 0
-12653 12129 0
12654 -12094 -12111 -1215 0
-12654 12094 0
-12654 12111 0
-12654 1215 0
-11226 12084 12651 12652 12653 12654 0
11226 -12084 0
11226 -12651 0
11226 -12652 0
11226 -12653 0
11226 -12654 0
12655 -12096 -12129 0
-12655 12096 0
-12655 12129 0
12656 -12127 -12129 0
-12656 12127 0
-12656 12129 0
12657 -12127 -12111 0
-12657 12127 0
-12657 12111 0
12658 -12096 -12111 -1215 0
-12658 12096 0
-12658 12111 0
-12658 1215 0
-11231 12086 12655 12656 12657 12658 0
11231 -12086 0
11231 -12655 0
11231 -12656 0
11231 -12657 0
11231 -12658 0
12659 -12094 -1214 0
-12659 12094 0
-12659 1214 0
12660 -1212 -1214 0
-12660 1212 0
-12660 1214 0
12661 -1212 -12121 0
-12661 1212 0
-12661 12121 0
12662 -12094 -12121 -1215 0
-12662 12094 0
-12662 12121 0
-12662 1215 0
-11149 1208 12659 12660 12661 12662 0
11149 -1208 0
11149 -12659 0
11149 -12660 0
11149 -12661 0
11149 -12662 0
12663 -12094 -12131 0
-12663 12094 0
-12663 12131 0
12664 -1212 -12123 0
-12664 1212 0
-12664 12123 0
12665 -1212 -12131 0
-12665 1212 0
-12665 12131 0
12666 -12094 -12123 -1215 0
-12666 12094 0
-12666 12123 0
-12666 1215 0
-11152 12089 12663 12664 12665 12666 0
11152 -12089 0
11152 -12663 0
11152 -12664 0
11152 -12665 0
11152 -12666 0
12667 -12096 -12131 0
-12667 12096 0
-12667 12131 0
12668 -12127 -12131 0
-12668 12127 0
-12668 12131 0
12669 -12127 -12123 0
-12669 12127 0
-12669 12123 0
12670 -12096 -12123 -1215 0
-12670 12096 0
-12670 12123 0
-12670 1215 0
-11158 12091 12667 12668 12669 12670 0
11158 -12091 0
11158 -12667 0
11158 -12668 0
11158 -12669 0
11158 -12670 0
12671 -12094 -1220 0
-12671 12094 0
-12671 1220 0
12672 -1212 -1220 0
-12672 1212 0
-12672 1220 0
12673 -1212 -12144 0
-12673 1212 0
-12673 12144 0
12674 -12094 -12144 -1215 0
-12674 12094 0
-12674 12144 0
-12674 1215 0
-11236 1217 12671 12672 12673 12674 0
11236 -1217 0
11236 -12671 0
11236 -12672 0
11236 -12673 0
11236 -12674 0
12675 -12094 -12073 0
-12675 12094 0
-12675 12073 0
12676 -1212 -12075 0
-12676 1212 0
-12676 12075 0
12677 -1212 -12073 0
-12677 1212 0
-12677 12073 0
12678 -12094 -12075 -1215 0
-12678 12094 0
-12678 12075 0
-12678 1215 0
-11241 12051 12675 12676 12677 12678 0
11241 -12051 0
11241 -12675 0
11241 -12676 0
11241 -12677 0
11241 -12678 0
12679 -12096 -12073 0
-12679 12096 0
-12679 12073 0
12680 -12127 -12073 0
-12680 12127 0
-12680 12073 0
12681 -12127 -12075 0
-12681 12127 0
-12681 12075 0
12682 -12096 -12075 -1215 0
-12682 12096 0
-12682 12075 0
-12682 1215 0
-11246 12053 12679 12680 12681 12682 0
11246 -12053 0
11246 -12679 0
11246 -12680 0
11246 -12681 0
11246 -12682 0
12683 -12109 -12125 0
-12683 12109 0
-12683 12125 0
12684 -1213 -12078 0
-12684 1213 0
-12684 12078 0
12685 -1213 -12125 0
-12685 1213 0
-12685 12125 0
12686 -12109 -12078 -1215 0
-12686 12109 0
-12686 12078 0
-12686 1215 0
-11251 12098 12683 12684 12685 12686 0
11251 -12098 0
11251 -12683 0
11251 -12684 0
11251 -12685 0
11251 -12686 0
12687 -12109 -12127 0
-12687 12109 0
-12687 12127 0
12688 -1213 -12096 0
-12688 1213 0
-12688 12096 0
12689 -1213 -12127 0
-12689 1213 0
-12689 12127 0
12690 -12109 -12096 -1215 0
-12690 12109 0
-12690 12096 0
-12690 1215 0
-11256 12100 12687 12688 12689 12690 0
11256 -12100 0
11256 -12687 0
11256 -12688 0
11256 -12689 0
11256 -12690 0
12691 -12109 -1213 0
-12691 12109 0
-12691 1213 0
12692 -1213 -1213 0
-12692 1213 0
-12692 1213 0
12693 -1213 -12109 0
-12693 1213 0
-12693 12109 0
12694 -12109 -12109 -1215 0
-12694 12109 0
-12694 12109 0
-12694 1215 0
-11261 1206 12691 12692 12693 12694 0
11261 -1206 0
11261 -12691 0
11261 -12692 0
11261 -12693 0
11261 -12694 0
12695 -12109 -1214 0
-12695 12109 0
-12695 1214 0
12696 -1213 -1214 0
-12696 1213 0
-12696 1214 0
12697 -1213 -12121 0
-12697 1213 0
-12697 12121 0
12698 -12109 -12121 -1215 0
-12698 12109 0
-12698 12121 0
-12698 1215 0
-11170 1209 12695 12696 12697 12698 0
11170 -1209 0
11170 -12695 0
11170 -12696 0
11170 -12697 0
11170 -12698 0
12699 -12109 -12131 0
-12699 12109 0
-12699 12131 0
12700 -1213 -12123 0
-12700 1213 0
-12700 12123 0
12701 -1213 -12131 0
-12701 1213 0
-12701 12131 0
12702 -12109 -12123 -1215 0
-12702 12109 0
-12702 12123 0
-12702 1215 0
-11173 12104 12699 12700 12701 12702 0
11173 -12104 0
11173 -12699 0
11173 -12700 0
11173 -12701 0
11173 -12702 0
12703 -12111 -12131 0
-12703 12111 0
-12703 12131 0
12704 -12129 -12131 0
-12704 12129 0
-12704 12131 0
12705 -12129 -12123 0
-12705 12129 0
-12705 12123 0
12706 -12111 -12123 -1215 0
-12706 12111 0
-12706 12123 0
-12706 1215 0
-11179 12106 12703 12704 12705 12706 0
11179 -12106 0
11179 -12703 0
11179 -12704 0
11179 -12705 0
11179 -12706 0
12707 -12109 -1220 0
-12707 12109 0
-12707 1220 0
12708 -1213 -1220 0
-12708 1213 0
-12708 1220 0
12709 -1213 -12144 0
-12709 1213 0
-12709 12144 0
12710 -12109 -12144 -1215 0
-12710 12109 0
-12710 12144 0
-12710 1215 0
-11266 1218 12707 12708 12709 12710 0
11266 -1218 0
11266 -12707 0
11266 -12708 0
11266 -12709 0
11266 -12710 0
12711 -12109 -12073 0
-12711 12109 0
-12711 12073 0
12712 -1213 -12075 0
-12712 1213 0
-12712 12075 0
12713 -1213 -12073 0
-12713 1213 0
-12713 12073 0
12714 -12109 -12075 -1215 0
-12714 12109 0
-12714 12075 0
-12714 1215 0
-11271 12059 12711 12712 12713 12714 0
11271 -12059 0
11271 -12711 0
11271 -12712 0
11271 -12713 0
11271 -12714 0
12715 -12111 -12073 0
-12715 12111 0
-12715 12073 0
12716 -12129 -12073 0
-12716 12129 0
-12716 12073 0
12717 -12129 -12075 0
-12717 12129 0
-12717 12075 0
12718 -12111 -12075 -1215 0
-12718 12111 0
-12718 12075 0
-12718 1215 0
-11276 12061 12715 12716 12717 12718 0
11276 -12061 0
11276 -12715 0
11276 -12716 0
11276 -12717 0
11276 -12718 0
12719 -12121 -12125 0
-12719 12121 0
-12719 12125 0
12720 -1214 -12078 0
-12720 1214 0
-12720 12078 0
12721 -1214 -12125 0
-12721 1214 0
-12721 12125 0
12722 -12121 -12078 -1215 0
-12722 12121 0
-12722 12078 0
-12722 1215 0
-11165 12113 12719 12720 12721 12722 0
11165 -12113 0
11165 -12719 0
11165 -12720 0
11165 -12721 0
11165 -12722 0
12723 -12121 -12127 0
-12723 12121 0
-12723 12127 0
12724 -1214 -12096 0
-12724 1214 0
-12724 12096 0
12725 -1214 -12127 0
-12725 1214 0
-12725 12127 0
12726 -12121 -12096 -1215 0
-12726 12121 0
-12726 12096 0
-12726 1215 0
-11156 12115 12723 12724 12725 12726 0
11156 -12115 0
11156 -12723 0
11156 -12724 0
11156 -12725 0
11156 -12726 0
12727 -12121 -12129 0
-12727 12121 0
-12727 12129 0
12728 -1214 -12111 0
-12728 1214 0
-12728 12111 0
12729 -1214 -12129 0
-12729 1214 0
-12729 12129 0
12730 -12121 -12111 -1215 0
-12730 12121 0
-12730 12111 0
-12730 1215 0
-11177 12117 12727 12728 12729 12730 0
11177 -12117 0
11177 -12727 0
11177 -12728 0
11177 -12729 0
11177 -12730 0
12731 -12121 -1214 0
-12731 12121 0
-12731 1214 0
12328 -1214 -1214 0
-12328 1214 0
-12328 1214 0
12732 -1214 -12121 0
-12732 1214 0
-12732 12121 0
12733 -12121 -12121 -1215 0
-12733 12121 0
-12733 12121 0
-12733 1215 0
-11146 1210 12731 12328 12732 12733 0
11146 -1210 0
11146 -12731 0
11146 -12328 0
11146 -12732 0
11146 -12733 0
12734 -12121 -1220 0
-12734 12121 0
-12734 1220 0
12735 -1214 -1220 0
-12735 1214 0
-12735 1220 0
12736 -1214 -12144 0
-12736 1214 0
-12736 12144 0
12737 -12121 -12144 -1215 0
-12737 12121 0
-12737 12144 0
-12737 1215 0
-11189 1219 12734 12735 12736 12737 0
11189 -1219 0
11189 -12734 0
11189 -12735 0
11189 -12736 0
11189 -12737 0
12738 -12121 -12073 0
-12738 12121 0
-12738 12073 0
12739 -1214 -12075 0
-12739 1214 0
-12739 12075 0
12740 -1214 -12073 0
-12740 1214 0
-12740 12073 0
12741 -12121 -12075 -1215 0
-12741 12121 0
-12741 12075 0
-12741 1215 0
-11196 12066 12738 12739 12740 12741 0
11196 -12066 0
11196 -12738 0
11196 -12739 0
11196 -12740 0
11196 -12741 0
12742 -12123 -12073 0
-12742 12123 0
-12742 12073 0
12743 -12131 -12073 0
-12743 12131 0
-12743 12073 0
12744 -12131 -12075 0
-12744 12131 0
-12744 12075 0
12745 -12123 -12075 -1215 0
-12745 12123 0
-12745 12075 0
-12745 1215 0
-11198 12068 12742 12743 12744 12745 0
11198 -12068 0
11198 -12742 0
11198 -12743 0
11198 -12744 0
11198 -12745 0
12746 -12144 -12125 0
-12746 12144 0
-12746 12125 0
12747 -1220 -12078 0
-12747 1220 0
-12747 12078 0
12748 -1220 -12125 0
-12748 1220 0
-12748 12125 0
12749 -12144 -12078 -1215 0
-12749 12144 0
-12749 12078 0
-12749 1215 0
-11281 12175 12746 12747 12748 12749 0
11281 -12175 0
11281 -12746 0
11281 -12747 0
11281 -12748 0
11281 -12749 0
12750 -12144 -12127 0
-12750 12144 0
-12750 12127 0
12751 -1220 -12096 0
-12751 1220 0
-12751 12096 0
12752 -1220 -12127 0
-12752 1220 0
-12752 12127 0
12753 -12144 -12096 -1215 0
-12753 12144 0
-12753 12096 0
-12753 1215 0
-11286 12177 12750 12751 12752 12753 0
11286 -12177 0
11286 -12750 0
11286 -12751 0
11286 -12752 0
11286 -12753 0
12754 -12144 -12129 0
-12754 12144 0
-12754 12129 0
12755 -1220 -12111 0
-12755 1220 0
-12755 12111 0
12756 -1220 -12129 0
-12756 1220 0
-12756 12129 0
12757 -12144 -12111 -1215 0
-12757 12144 0
-12757 12111 0
-12757 1215 0
-11291 12179 12754 12755 12756 12757 0
11291 -12179 0
11291 -12754 0
11291 -12755 0
11291 -12756 0
11291 -12757 0
12758 -12144 -12131 0
-12758 12144 0
-12758 12131 0
12759 -1220 -12123 0
-12759 1220 0
-12759 12123 0
12760 -1220 -12131 0
-12760 1220 0
-12760 12131 0
12761 -12144 -12123 -1215 0
-12761 12144 0
-12761 12123 0
-12761 1215 0
-11192 12181 12758 12759 12760 12761 0
11192 -12181 0
11192 -12758 0
11192 -12759 0
11192 -12760 0
11192 -12761 0
12762 -12144 -1220 0
-12762 12144 0
-12762 1220 0
12584 -1220 -1220 0
-12584 1220 0
-12584 1220 0
12763 -1220 -12144 0
-12763 1220 0
-12763 12144 0
12764 -12144 -12144 -1215 0
-12764 12144 0
-12764 12144 0
-12764 1215 0
-11296 1221 12762 12584 12763 12764 0
11296 -1221 0
11296 -12762 0
11296 -12584 0
11296 -12763 0
11296 -12764 0
