c Standarized MaxSat Instance
c{
c "sha1sum": "c8175234e56407359f6b84a4fcac88327545e633",
c "nvars": 12764,
c "ncls": 46236,
c "total_lits": 112632,
c "nhards": 45996,
c "nhard_nlits": 112392,
c "nhard_len_stats":
c    { "min": 1,
c      "max": 6,
c      "ave": 2.4435,
c      "stddev": 0.9078 },
c "nsofts": 240,
c "nsoft_nlits": 240,
c "nsoft_len_stats":
c    { "min": 1,
c      "max": 1,
c      "ave": 1.0000,
c      "stddev": 0.0000 },
c "nsoft_wts": 1,
c "soft_wt_stats":
c    { "min": 1,
c      "max": 1,
c      "ave": 1.0000,
c      "stddev": 0.0000 }
c}
p cnf 12764 46236
-1 0
-1 2 3 4 5 0
1 -2 0
1 -3 0
1 -4 0
1 -5 0
-6 0
-6 7 8 9 10 0
6 -7 0
6 -8 0
6 -9 0
6 -10 0
-11 0
-11 12 13 14 15 0
11 -12 0
11 -13 0
11 -14 0
11 -15 0
16 0
-16 17 18 19 20 0
16 -17 0
16 -18 0
16 -19 0
16 -20 0
-21 0
-21 22 23 24 25 0
21 -22 0
21 -23 0
21 -24 0
21 -25 0
26 0
-26 27 28 29 30 0
26 -27 0
26 -28 0
26 -29 0
26 -30 0
-31 0
-31 32 33 34 35 0
31 -32 0
31 -33 0
31 -34 0
31 -35 0
36 0
-36 37 38 39 40 0
36 -37 0
36 -38 0
36 -39 0
36 -40 0
41 0
-41 42 43 44 45 0
41 -42 0
41 -43 0
41 -44 0
41 -45 0
46 0
-46 47 48 49 50 0
46 -47 0
46 -48 0
46 -49 0
46 -50 0
51 0
-51 52 53 54 55 0
51 -52 0
51 -53 0
51 -54 0
51 -55 0
56 0
-56 57 58 59 60 0
56 -57 0
56 -58 0
56 -59 0
56 -60 0
-61 0
-61 62 63 64 65 0
61 -62 0
61 -63 0
61 -64 0
61 -65 0
66 0
-66 67 68 69 70 0
66 -67 0
66 -68 0
66 -69 0
66 -70 0
71 0
-71 72 73 74 75 0
71 -72 0
71 -73 0
71 -74 0
71 -75 0
-76 0
-76 77 78 79 80 0
76 -77 0
76 -78 0
76 -79 0
76 -80 0
-81 0
-81 82 83 84 85 0
81 -82 0
81 -83 0
81 -84 0
81 -85 0
86 0
-86 87 88 89 90 0
86 -87 0
86 -88 0
86 -89 0
86 -90 0
-91 0
-91 92 93 94 95 0
91 -92 0
91 -93 0
91 -94 0
91 -95 0
-96 0
-96 97 98 99 100 0
96 -97 0
96 -98 0
96 -99 0
96 -100 0
-101 0
-101 102 103 104 105 0
101 -102 0
101 -103 0
101 -104 0
101 -105 0
-106 0
-106 107 108 109 110 0
106 -107 0
106 -108 0
106 -109 0
106 -110 0
-111 0
-111 112 113 114 115 0
111 -112 0
111 -113 0
111 -114 0
111 -115 0
-116 0
-116 117 118 119 120 0
116 -117 0
116 -118 0
116 -119 0
116 -120 0
-121 0
-121 122 123 124 125 0
121 -122 0
121 -123 0
121 -124 0
121 -125 0
-126 0
-126 127 128 129 130 0
126 -127 0
126 -128 0
126 -129 0
126 -130 0
-131 0
-131 132 133 134 135 0
131 -132 0
131 -133 0
131 -134 0
131 -135 0
136 0
-136 137 138 139 140 0
136 -137 0
136 -138 0
136 -139 0
136 -140 0
141 0
-141 142 143 144 145 0
141 -142 0
141 -143 0
141 -144 0
141 -145 0
146 0
-146 147 148 149 150 0
146 -147 0
146 -148 0
146 -149 0
146 -150 0
151 0
-151 152 153 154 155 0
151 -152 0
151 -153 0
151 -154 0
151 -155 0
-156 0
-156 157 158 159 160 0
156 -157 0
156 -158 0
156 -159 0
156 -160 0
-161 0
-161 162 163 164 165 0
161 -162 0
161 -163 0
161 -164 0
161 -165 0
-166 0
-166 167 168 169 170 0
166 -167 0
166 -168 0
166 -169 0
166 -170 0
-171 0
-171 172 173 174 175 0
171 -172 0
171 -173 0
171 -174 0
171 -175 0
176 0
-176 177 178 179 180 0
176 -177 0
176 -178 0
176 -179 0
176 -180 0
181 0
-181 182 183 184 185 0
181 -182 0
181 -183 0
181 -184 0
181 -185 0
-186 0
-186 187 188 189 190 0
186 -187 0
186 -188 0
186 -189 0
186 -190 0
-191 0
-191 192 193 194 195 0
191 -192 0
191 -193 0
191 -194 0
191 -195 0
-196 0
-196 197 198 199 200 0
196 -197 0
196 -198 0
196 -199 0
196 -200 0
-201 0
-201 202 203 204 205 0
201 -202 0
201 -203 0
201 -204 0
201 -205 0
-206 0
-206 207 208 209 210 0
206 -207 0
206 -208 0
206 -209 0
206 -210 0
-211 0
-211 212 213 214 215 0
211 -212 0
211 -213 0
211 -214 0
211 -215 0
216 0
-216 217 218 219 220 0
216 -217 0
216 -218 0
216 -219 0
216 -220 0
221 0
-221 222 223 224 225 0
221 -222 0
221 -223 0
221 -224 0
221 -225 0
226 0
-226 227 228 229 230 0
226 -227 0
226 -228 0
226 -229 0
226 -230 0
231 0
-231 232 233 234 235 0
231 -232 0
231 -233 0
231 -234 0
231 -235 0
236 0
-236 237 238 239 240 0
236 -237 0
236 -238 0
236 -239 0
236 -240 0
241 0
-241 242 243 244 245 0
241 -242 0
241 -243 0
241 -244 0
241 -245 0
246 0
-246 247 248 249 250 0
246 -247 0
246 -248 0
246 -249 0
246 -250 0
-251 0
-251 252 253 254 255 0
251 -252 0
251 -253 0
251 -254 0
251 -255 0
256 0
-256 257 258 259 260 0
256 -257 0
256 -258 0
256 -259 0
256 -260 0
261 0
-261 262 263 264 265 0
261 -262 0
261 -263 0
261 -264 0
261 -265 0
266 0
-266 267 268 269 270 0
266 -267 0
266 -268 0
266 -269 0
266 -270 0
271 0
-271 272 273 274 275 0
271 -272 0
271 -273 0
271 -274 0
271 -275 0
276 0
-276 277 278 279 280 0
276 -277 0
276 -278 0
276 -279 0
276 -280 0
281 0
-281 282 283 284 285 0
281 -282 0
281 -283 0
281 -284 0
281 -285 0
286 0
-286 287 288 289 290 0
286 -287 0
286 -288 0
286 -289 0
286 -290 0
-291 0
-291 292 293 294 295 0
291 -292 0
291 -293 0
291 -294 0
291 -295 0
296 0
-296 297 298 299 300 0
296 -297 0
296 -298 0
296 -299 0
296 -300 0
301 0
-301 302 303 304 305 0
301 -302 0
301 -303 0
301 -304 0
301 -305 0
306 0
-306 307 308 309 310 0
306 -307 0
306 -308 0
306 -309 0
306 -310 0
311 0
-311 312 313 314 315 0
311 -312 0
311 -313 0
311 -314 0
311 -315 0
-316 0
-316 317 318 319 320 0
316 -317 0
316 -318 0
316 -319 0
316 -320 0
-321 0
-321 322 323 324 325 0
321 -322 0
321 -323 0
321 -324 0
321 -325 0
-326 0
-326 327 328 329 330 0
326 -327 0
326 -328 0
326 -329 0
326 -330 0
-331 0
-331 332 333 334 335 0
331 -332 0
331 -333 0
331 -334 0
331 -335 0
336 0
-336 337 338 339 340 0
336 -337 0
336 -338 0
336 -339 0
336 -340 0
341 0
-341 342 343 344 345 0
341 -342 0
341 -343 0
341 -344 0
341 -345 0
-346 0
-346 347 348 349 350 0
346 -347 0
346 -348 0
346 -349 0
346 -350 0
351 0
-351 352 353 354 355 0
351 -352 0
351 -353 0
351 -354 0
351 -355 0
356 0
-356 357 358 359 360 0
356 -357 0
356 -358 0
356 -359 0
356 -360 0
361 0
-361 362 363 364 365 0
361 -362 0
361 -363 0
361 -364 0
361 -365 0
366 0
-366 367 368 369 370 0
366 -367 0
366 -368 0
366 -369 0
366 -370 0
371 0
-371 372 373 374 375 0
371 -372 0
371 -373 0
371 -374 0
371 -375 0
-376 0
-376 377 378 379 380 0
376 -377 0
376 -378 0
376 -379 0
376 -380 0
-381 0
-381 382 383 384 385 0
381 -382 0
381 -383 0
381 -384 0
381 -385 0
386 0
-386 387 388 389 390 0
386 -387 0
386 -388 0
386 -389 0
386 -390 0
-391 0
-391 392 393 394 395 0
391 -392 0
391 -393 0
391 -394 0
391 -395 0
-396 0
-396 397 398 399 400 0
396 -397 0
396 -398 0
396 -399 0
396 -400 0
401 0
-401 402 403 404 405 0
401 -402 0
401 -403 0
401 -404 0
401 -405 0
-406 0
-406 407 408 409 410 0
406 -407 0
406 -408 0
406 -409 0
406 -410 0
-411 0
-411 412 413 414 415 0
411 -412 0
411 -413 0
411 -414 0
411 -415 0
-416 0
-416 417 418 419 420 0
416 -417 0
416 -418 0
416 -419 0
416 -420 0
-421 0
-421 422 423 424 425 0
421 -422 0
421 -423 0
421 -424 0
421 -425 0
-426 0
-426 427 428 429 430 0
426 -427 0
426 -428 0
426 -429 0
426 -430 0
-431 0
-431 432 433 434 435 0
431 -432 0
431 -433 0
431 -434 0
431 -435 0
-436 0
-436 437 438 439 440 0
436 -437 0
436 -438 0
436 -439 0
436 -440 0
-441 0
-441 442 443 444 445 0
441 -442 0
441 -443 0
441 -444 0
441 -445 0
-446 0
-446 447 448 449 450 0
446 -447 0
446 -448 0
446 -449 0
446 -450 0
-451 0
-451 452 453 454 455 0
451 -452 0
451 -453 0
451 -454 0
451 -455 0
-456 0
-456 457 458 459 460 0
456 -457 0
456 -458 0
456 -459 0
456 -460 0
-461 0
-461 462 463 464 465 0
461 -462 0
461 -463 0
461 -464 0
461 -465 0
466 0
-466 467 468 469 470 0
466 -467 0
466 -468 0
466 -469 0
466 -470 0
471 0
-471 472 473 474 475 0
471 -472 0
471 -473 0
471 -474 0
471 -475 0
476 0
-476 477 478 479 480 0
476 -477 0
476 -478 0
476 -479 0
476 -480 0
481 0
-481 482 483 484 485 0
481 -482 0
481 -483 0
481 -484 0
481 -485 0
486 0
-486 487 488 489 490 0
486 -487 0
486 -488 0
486 -489 0
486 -490 0
491 0
-491 492 493 494 495 0
491 -492 0
491 -493 0
491 -494 0
491 -495 0
-496 0
-496 497 498 499 500 0
496 -497 0
496 -498 0
496 -499 0
496 -500 0
-501 0
-501 502 503 504 505 0
501 -502 0
501 -503 0
501 -504 0
501 -505 0
-506 0
-506 507 508 509 510 0
506 -507 0
506 -508 0
506 -509 0
506 -510 0
-511 0
-511 512 513 514 515 0
511 -512 0
511 -513 0
511 -514 0
511 -515 0
-516 0
-516 517 518 519 520 0
516 -517 0
516 -518 0
516 -519 0
516 -520 0
-521 0
-521 522 523 524 525 0
521 -522 0
521 -523 0
521 -524 0
521 -525 0
526 0
-526 527 528 529 530 0
526 -527 0
526 -528 0
526 -529 0
526 -530 0
-531 0
-531 532 533 534 535 0
531 -532 0
531 -533 0
531 -534 0
531 -535 0
-536 0
-536 537 538 539 540 0
536 -537 0
536 -538 0
536 -539 0
536 -540 0
-541 0
-541 542 543 544 545 0
541 -542 0
541 -543 0
541 -544 0
541 -545 0
-546 0
-546 547 548 549 550 0
546 -547 0
546 -548 0
546 -549 0
546 -550 0
-551 0
-551 552 553 554 555 0
551 -552 0
551 -553 0
551 -554 0
551 -555 0
-556 0
-556 557 558 559 560 0
556 -557 0
556 -558 0
556 -559 0
556 -560 0
-561 0
-561 562 563 564 565 0
561 -562 0
561 -563 0
561 -564 0
561 -565 0
-566 0
-566 567 568 569 570 0
566 -567 0
566 -568 0
566 -569 0
566 -570 0
-571 0
-571 572 573 574 575 0
571 -572 0
571 -573 0
571 -574 0
571 -575 0
-576 0
-576 577 578 579 580 0
576 -577 0
576 -578 0
576 -579 0
576 -580 0
-581 0
-581 582 583 584 585 0
581 -582 0
581 -583 0
581 -584 0
581 -585 0
586 0
-586 587 588 589 590 0
586 -587 0
586 -588 0
586 -589 0
586 -590 0
591 0
-591 592 593 594 595 0
591 -592 0
591 -593 0
591 -594 0
591 -595 0
596 0
-596 597 598 599 600 0
596 -597 0
596 -598 0
596 -599 0
596 -600 0
601 0
-601 602 603 604 605 0
601 -602 0
601 -603 0
601 -604 0
601 -605 0
606 0
-606 607 608 609 610 0
606 -607 0
606 -608 0
606 -609 0
606 -610 0
611 0
-611 612 613 614 615 0
611 -612 0
611 -613 0
611 -614 0
611 -615 0
616 0
-616 617 618 619 620 0
616 -617 0
616 -618 0
616 -619 0
616 -620 0
621 0
-621 622 623 624 625 0
621 -622 0
621 -623 0
621 -624 0
621 -625 0
626 0
-626 627 628 629 630 0
626 -627 0
626 -628 0
626 -629 0
626 -630 0
-631 0
-631 632 633 634 635 0
631 -632 0
631 -633 0
631 -634 0
631 -635 0
-636 0
-636 637 638 639 640 0
636 -637 0
636 -638 0
636 -639 0
636 -640 0
-641 0
-641 642 643 644 645 0
641 -642 0
641 -643 0
641 -644 0
641 -645 0
646 0
-646 647 648 649 650 0
646 -647 0
646 -648 0
646 -649 0
646 -650 0
651 0
-651 652 653 654 655 0
651 -652 0
651 -653 0
651 -654 0
651 -655 0
656 0
-656 657 658 659 660 0
656 -657 0
656 -658 0
656 -659 0
656 -660 0
661 0
-661 662 663 664 665 0
661 -662 0
661 -663 0
661 -664 0
661 -665 0
666 0
-666 667 668 669 670 0
666 -667 0
666 -668 0
666 -669 0
666 -670 0
671 0
-671 672 673 674 675 0
671 -672 0
671 -673 0
671 -674 0
671 -675 0
676 0
-676 677 678 679 680 0
676 -677 0
676 -678 0
676 -679 0
676 -680 0
681 0
-681 682 683 684 685 0
681 -682 0
681 -683 0
681 -684 0
681 -685 0
686 0
-686 687 688 689 690 0
686 -687 0
686 -688 0
686 -689 0
686 -690 0
-691 0
-691 692 693 694 695 0
691 -692 0
691 -693 0
691 -694 0
691 -695 0
-696 0
-696 697 698 699 700 0
696 -697 0
696 -698 0
696 -699 0
696 -700 0
-701 0
-701 702 703 704 705 0
701 -702 0
701 -703 0
701 -704 0
701 -705 0
706 0
-706 707 708 709 710 0
706 -707 0
706 -708 0
706 -709 0
706 -710 0
711 0
-711 712 713 714 715 0
711 -712 0
711 -713 0
711 -714 0
711 -715 0
716 0
-716 717 718 719 720 0
716 -717 0
716 -718 0
716 -719 0
716 -720 0
721 0
-721 722 723 724 725 0
721 -722 0
721 -723 0
721 -724 0
721 -725 0
726 0
-726 727 728 729 730 0
726 -727 0
726 -728 0
726 -729 0
726 -730 0
731 0
-731 732 733 734 735 0
731 -732 0
731 -733 0
731 -734 0
731 -735 0
-736 0
-736 737 738 739 740 0
736 -737 0
736 -738 0
736 -739 0
736 -740 0
-741 0
-741 742 743 744 745 0
741 -742 0
741 -743 0
741 -744 0
741 -745 0
-746 0
-746 747 748 749 750 0
746 -747 0
746 -748 0
746 -749 0
746 -750 0
-751 0
-751 752 753 754 755 0
751 -752 0
751 -753 0
751 -754 0
751 -755 0
-756 0
-756 757 758 759 760 0
756 -757 0
756 -758 0
756 -759 0
756 -760 0
-761 0
-761 762 763 764 765 0
761 -762 0
761 -763 0
761 -764 0
761 -765 0
766 0
-766 767 768 769 770 0
766 -767 0
766 -768 0
766 -769 0
766 -770 0
-771 0
-771 772 773 774 775 0
771 -772 0
771 -773 0
771 -774 0
771 -775 0
-776 0
-776 777 778 779 780 0
776 -777 0
776 -778 0
776 -779 0
776 -780 0
781 0
-781 782 783 784 785 0
781 -782 0
781 -783 0
781 -784 0
781 -785 0
786 0
-786 787 788 789 790 0
786 -787 0
786 -788 0
786 -789 0
786 -790 0
-791 0
-791 792 793 794 795 0
791 -792 0
791 -793 0
791 -794 0
791 -795 0
796 0
-796 797 798 799 800 0
796 -797 0
796 -798 0
796 -799 0
796 -800 0
801 0
-801 802 803 804 805 0
801 -802 0
801 -803 0
801 -804 0
801 -805 0
806 0
-806 807 808 809 810 0
806 -807 0
806 -808 0
806 -809 0
806 -810 0
811 0
-811 812 813 814 815 0
811 -812 0
811 -813 0
811 -814 0
811 -815 0
816 0
-816 817 818 819 820 0
816 -817 0
816 -818 0
816 -819 0
816 -820 0
821 0
-821 822 823 824 825 0
821 -822 0
821 -823 0
821 -824 0
821 -825 0
-826 0
-826 827 828 829 830 0
826 -827 0
826 -828 0
826 -829 0
826 -830 0
-831 0
-831 832 833 834 835 0
831 -832 0
831 -833 0
831 -834 0
831 -835 0
-836 0
-836 837 838 839 840 0
836 -837 0
836 -838 0
836 -839 0
836 -840 0
841 0
-841 842 843 844 845 0
841 -842 0
841 -843 0
841 -844 0
841 -845 0
-846 0
-846 847 848 849 850 0
846 -847 0
846 -848 0
846 -849 0
846 -850 0
-851 0
-851 852 853 854 855 0
851 -852 0
851 -853 0
851 -854 0
851 -855 0
-856 0
-856 857 858 859 860 0
856 -857 0
856 -858 0
856 -859 0
856 -860 0
-861 0
-861 862 863 864 865 0
861 -862 0
861 -863 0
861 -864 0
861 -865 0
-866 0
-866 867 868 869 870 0
866 -867 0
866 -868 0
866 -869 0
866 -870 0
-871 0
-871 872 873 874 875 0
871 -872 0
871 -873 0
871 -874 0
871 -875 0
-876 0
-876 877 878 879 880 0
876 -877 0
876 -878 0
876 -879 0
876 -880 0
-881 0
-881 882 883 884 885 0
881 -882 0
881 -883 0
881 -884 0
881 -885 0
886 0
-886 887 888 889 890 0
886 -887 0
886 -888 0
886 -889 0
886 -890 0
891 0
-891 892 893 894 895 0
891 -892 0
891 -893 0
891 -894 0
891 -895 0
896 0
-896 897 898 899 900 0
896 -897 0
896 -898 0
896 -899 0
896 -900 0
901 0
-901 902 903 904 905 0
901 -902 0
901 -903 0
901 -904 0
901 -905 0
-906 0
-906 907 908 909 910 0
906 -907 0
906 -908 0
906 -909 0
906 -910 0
-911 0
-911 912 913 914 915 0
911 -912 0
911 -913 0
911 -914 0
911 -915 0
-916 0
-916 917 918 919 920 0
916 -917 0
916 -918 0
916 -919 0
916 -920 0
-921 0
-921 922 923 924 925 0
921 -922 0
921 -923 0
921 -924 0
921 -925 0
-926 0
-926 927 928 929 930 0
926 -927 0
926 -928 0
926 -929 0
926 -930 0
-931 0
-931 932 933 934 935 0
931 -932 0
931 -933 0
931 -934 0
931 -935 0
-936 0
-936 937 938 939 940 0
936 -937 0
936 -938 0
936 -939 0
936 -940 0
-941 0
-941 942 943 944 945 0
941 -942 0
941 -943 0
941 -944 0
941 -945 0
-946 0
-946 947 948 949 950 0
946 -947 0
946 -948 0
946 -949 0
946 -950 0
-951 0
-951 952 953 954 955 0
951 -952 0
951 -953 0
951 -954 0
951 -955 0
-956 0
-956 957 958 959 960 0
956 -957 0
956 -958 0
956 -959 0
956 -960 0
-961 0
-961 962 963 964 965 0
961 -962 0
961 -963 0
961 -964 0
961 -965 0
966 0
-966 967 968 969 970 0
966 -967 0
966 -968 0
966 -969 0
966 -970 0
971 0
-971 972 973 974 975 0
971 -972 0
971 -973 0
971 -974 0
971 -975 0
976 0
-976 977 978 979 980 0
976 -977 0
976 -978 0
976 -979 0
976 -980 0
981 0
-981 982 983 984 985 0
981 -982 0
981 -983 0
981 -984 0
981 -985 0
986 0
-986 987 988 989 990 0
986 -987 0
986 -988 0
986 -989 0
986 -990 0
-991 0
-991 992 993 994 995 0
991 -992 0
991 -993 0
991 -994 0
991 -995 0
-996 0
-996 997 998 999 1000 0
996 -997 0
996 -998 0
996 -999 0
996 -1000 0
-1001 0
-1001 1002 1003 1004 1005 0
1001 -1002 0
1001 -1003 0
1001 -1004 0
1001 -1005 0
1006 0
-1006 1007 1008 1009 1010 0
1006 -1007 0
1006 -1008 0
1006 -1009 0
1006 -1010 0
1011 0
-1011 1012 1013 1014 1015 0
1011 -1012 0
1011 -1013 0
1011 -1014 0
1011 -1015 0
1016 0
-1016 1017 1018 1019 1020 0
1016 -1017 0
1016 -1018 0
1016 -1019 0
1016 -1020 0
1021 0
-1021 1022 1023 1024 1025 0
1021 -1022 0
1021 -1023 0
1021 -1024 0
1021 -1025 0
1026 0
-1026 1027 1028 1029 1030 0
1026 -1027 0
1026 -1028 0
1026 -1029 0
1026 -1030 0
-1031 0
-1031 1032 1033 1034 1035 0
1031 -1032 0
1031 -1033 0
1031 -1034 0
1031 -1035 0
-1036 0
-1036 1037 1038 1039 1040 0
1036 -1037 0
1036 -1038 0
1036 -1039 0
1036 -1040 0
-1041 0
-1041 1042 1043 1044 1045 0
1041 -1042 0
1041 -1043 0
1041 -1044 0
1041 -1045 0
1046 0
-1046 1047 1048 1049 1050 0
1046 -1047 0
1046 -1048 0
1046 -1049 0
1046 -1050 0
1051 0
-1051 1052 1053 1054 1055 0
1051 -1052 0
1051 -1053 0
1051 -1054 0
1051 -1055 0
1056 0
-1056 1057 1058 1059 1060 0
1056 -1057 0
1056 -1058 0
1056 -1059 0
1056 -1060 0
1061 0
-1061 1062 1063 1064 1065 0
1061 -1062 0
1061 -1063 0
1061 -1064 0
1061 -1065 0
-1066 0
-1066 1067 1068 1069 1070 0
1066 -1067 0
1066 -1068 0
1066 -1069 0
1066 -1070 0
-1071 0
-1071 1072 1073 1074 1075 0
1071 -1072 0
1071 -1073 0
1071 -1074 0
1071 -1075 0
-1076 0
-1076 1077 1078 1079 1080 0
1076 -1077 0
1076 -1078 0
1076 -1079 0
1076 -1080 0
-1081 0
-1081 1082 1083 1084 1085 0
1081 -1082 0
1081 -1083 0
1081 -1084 0
1081 -1085 0
-1086 0
-1086 1087 1088 1089 1090 0
1086 -1087 0
1086 -1088 0
1086 -1089 0
1086 -1090 0
1091 0
-1091 1092 1093 1094 1095 0
1091 -1092 0
1091 -1093 0
1091 -1094 0
1091 -1095 0
-1096 0
-1096 1097 1098 1099 1100 0
1096 -1097 0
1096 -1098 0
1096 -1099 0
1096 -1100 0
-1101 0
-1101 1102 1103 1104 1105 0
1101 -1102 0
1101 -1103 0
1101 -1104 0
1101 -1105 0
1106 0
-1106 1107 1108 1109 1110 0
1106 -1107 0
1106 -1108 0
1106 -1109 0
1106 -1110 0
1111 0
-1111 1112 1113 1114 1115 0
1111 -1112 0
1111 -1113 0
1111 -1114 0
1111 -1115 0
1116 0
-1116 1117 1118 1119 1120 0
1116 -1117 0
1116 -1118 0
1116 -1119 0
1116 -1120 0
1121 0
-1121 1122 1123 1124 1125 0
1121 -1122 0
1121 -1123 0
1121 -1124 0
1121 -1125 0
-1126 0
-1126 1127 1128 1129 1130 0
1126 -1127 0
1126 -1128 0
1126 -1129 0
1126 -1130 0
-1131 0
-1131 1132 1133 1134 1135 0
1131 -1132 0
1131 -1133 0
1131 -1134 0
1131 -1135 0
-1136 0
-1136 1137 1138 1139 1140 0
1136 -1137 0
1136 -1138 0
1136 -1139 0
1136 -1140 0
1141 0
-1141 1142 1143 1144 1145 0
1141 -1142 0
1141 -1143 0
1141 -1144 0
1141 -1145 0
-1146 0
-1146 1147 1148 1149 1150 0
1146 -1147 0
1146 -1148 0
1146 -1149 0
1146 -1150 0
-1151 0
-1151 1152 1153 1154 1155 0
1151 -1152 0
1151 -1153 0
1151 -1154 0
1151 -1155 0
-1156 0
-1156 1157 1158 1159 1160 0
1156 -1157 0
1156 -1158 0
1156 -1159 0
1156 -1160 0
1161 0
-1161 1162 1163 1164 1165 0
1161 -1162 0
1161 -1163 0
1161 -1164 0
1161 -1165 0
-1166 0
-1166 1167 1168 1169 1170 0
1166 -1167 0
1166 -1168 0
1166 -1169 0
1166 -1170 0
1171 0
-1171 1172 1173 1174 1175 0
1171 -1172 0
1171 -1173 0
1171 -1174 0
1171 -1175 0
-1176 0
-1176 1177 1178 1179 1180 0
1176 -1177 0
1176 -1178 0
1176 -1179 0
1176 -1180 0
1181 0
-1181 1182 1183 1184 1185 0
1181 -1182 0
1181 -1183 0
1181 -1184 0
1181 -1185 0
-1186 0
-1186 1187 1188 1189 1190 0
1186 -1187 0
1186 -1188 0
1186 -1189 0
1186 -1190 0
-1191 0
-1191 1192 1193 1194 1195 0
1191 -1192 0
1191 -1193 0
1191 -1194 0
1191 -1195 0
1196 0
-1196 1197 1198 1199 1200 0
1196 -1197 0
1196 -1198 0
1196 -1199 0
1196 -1200 0
-1201 0
-1202 0
-1203 0
-1204 0
-1205 0
-1206 0
-1207 0
-1208 0
-1209 0
-1210 0
-1211 0
-1212 0
-1213 0
-1214 0
-1215 0
-1216 0
-1217 0
-1218 0
-1219 0
-1220 0
-1221 0
1222 -1223 -1223 0
-1222 1223 0
-1222 1223 0
-1224 1225 1222 0
1224 -1225 0
1224 -1222 0
1226 -1223 -1227 0
-1226 1223 0
-1226 1227 0
-469 1228 1226 0
469 -1228 0
469 -1226 0
1229 -1223 -1230 0
-1229 1223 0
-1229 1230 0
-467 1231 1229 0
467 -1231 0
467 -1229 0
1232 -1233 -1230 0
-1232 1233 0
-1232 1230 0
-470 1234 1232 0
470 -1234 0
470 -1232 0
1235 -1227 -1233 0
-1235 1227 0
-1235 1233 0
-468 1236 1235 0
468 -1236 0
468 -1235 0
1237 -1227 -1227 0
-1237 1227 0
-1237 1227 0
-1238 1239 1237 0
1238 -1239 0
1238 -1237 0
1240 -1241 -1241 0
-1240 1241 0
-1240 1241 0
-1242 1243 1240 0
1242 -1243 0
1242 -1240 0
1244 -1241 -1245 0
-1244 1241 0
-1244 1245 0
-359 1246 1244 0
359 -1246 0
359 -1244 0
1247 -1241 -1248 0
-1247 1241 0
-1247 1248 0
-357 1249 1247 0
357 -1249 0
357 -1247 0
1250 -1251 -1248 0
-1250 1251 0
-1250 1248 0
-360 1252 1250 0
360 -1252 0
360 -1250 0
1253 -1245 -1251 0
-1253 1245 0
-1253 1251 0
-358 1254 1253 0
358 -1254 0
358 -1253 0
1255 -1245 -1245 0
-1255 1245 0
-1255 1245 0
-1256 1257 1255 0
1256 -1257 0
1256 -1255 0
1258 -1259 -1259 0
-1258 1259 0
-1258 1259 0
-1260 1261 1258 0
1260 -1261 0
1260 -1258 0
1262 -1259 -1263 0
-1262 1259 0
-1262 1263 0
-279 1264 1262 0
279 -1264 0
279 -1262 0
1265 -1259 -1266 0
-1265 1259 0
-1265 1266 0
-277 1267 1265 0
277 -1267 0
277 -1265 0
1268 -1269 -1266 0
-1268 1269 0
-1268 1266 0
-280 1270 1268 0
280 -1270 0
280 -1268 0
1271 -1263 -1269 0
-1271 1263 0
-1271 1269 0
-278 1272 1271 0
278 -1272 0
278 -1271 0
1273 -1263 -1263 0
-1273 1263 0
-1273 1263 0
-1274 1275 1273 0
1274 -1275 0
1274 -1273 0
1276 -1277 -1277 0
-1276 1277 0
-1276 1277 0
-1278 1279 1276 0
1278 -1279 0
1278 -1276 0
1280 -1277 -1281 0
-1280 1277 0
-1280 1281 0
-1079 1282 1280 0
1079 -1282 0
1079 -1280 0
1283 -1277 -1284 0
-1283 1277 0
-1283 1284 0
-1077 1285 1283 0
1077 -1285 0
1077 -1283 0
1286 -1287 -1284 0
-1286 1287 0
-1286 1284 0
-1080 1288 1286 0
1080 -1288 0
1080 -1286 0
1289 -1281 -1287 0
-1289 1281 0
-1289 1287 0
-1078 1290 1289 0
1078 -1290 0
1078 -1289 0
1291 -1281 -1281 0
-1291 1281 0
-1291 1281 0
-1292 1293 1291 0
1292 -1293 0
1292 -1291 0
1294 -1295 -1295 0
-1294 1295 0
-1294 1295 0
-1296 1297 1294 0
1296 -1297 0
1296 -1294 0
1298 -1295 -1299 0
-1298 1295 0
-1298 1299 0
-679 1300 1298 0
679 -1300 0
679 -1298 0
1301 -1295 -1302 0
-1301 1295 0
-1301 1302 0
-677 1303 1301 0
677 -1303 0
677 -1301 0
1304 -1305 -1302 0
-1304 1305 0
-1304 1302 0
-680 1306 1304 0
680 -1306 0
680 -1304 0
1307 -1299 -1305 0
-1307 1299 0
-1307 1305 0
-678 1308 1307 0
678 -1308 0
678 -1307 0
1309 -1299 -1299 0
-1309 1299 0
-1309 1299 0
-1310 1311 1309 0
1310 -1311 0
1310 -1309 0
1312 -1313 -1313 0
-1312 1313 0
-1312 1313 0
-1314 1315 1312 0
1314 -1315 0
1314 -1312 0
1316 -1313 -1317 0
-1316 1313 0
-1316 1317 0
-1039 1318 1316 0
1039 -1318 0
1039 -1316 0
1319 -1313 -1320 0
-1319 1313 0
-1319 1320 0
-1037 1321 1319 0
1037 -1321 0
1037 -1319 0
1322 -1323 -1320 0
-1322 1323 0
-1322 1320 0
-1040 1324 1322 0
1040 -1324 0
1040 -1322 0
1325 -1317 -1323 0
-1325 1317 0
-1325 1323 0
-1038 1326 1325 0
1038 -1326 0
1038 -1325 0
1327 -1317 -1317 0
-1327 1317 0
-1327 1317 0
-1328 1329 1327 0
1328 -1329 0
1328 -1327 0
1330 -1331 -1331 0
-1330 1331 0
-1330 1331 0
-1332 1333 1330 0
1332 -1333 0
1332 -1330 0
1334 -1331 -1335 0
-1334 1331 0
-1334 1335 0
-1179 1336 1334 0
1179 -1336 0
1179 -1334 0
1337 -1331 -1338 0
-1337 1331 0
-1337 1338 0
-1177 1339 1337 0
1177 -1339 0
1177 -1337 0
1340 -1341 -1338 0
-1340 1341 0
-1340 1338 0
-1180 1342 1340 0
1180 -1342 0
1180 -1340 0
1343 -1335 -1341 0
-1343 1335 0
-1343 1341 0
-1178 1344 1343 0
1178 -1344 0
1178 -1343 0
1345 -1335 -1335 0
-1345 1335 0
-1345 1335 0
-1346 1347 1345 0
1346 -1347 0
1346 -1345 0
1348 -1349 -1349 0
-1348 1349 0
-1348 1349 0
-1350 1351 1348 0
1350 -1351 0
1350 -1348 0
1352 -1349 -1353 0
-1352 1349 0
-1352 1353 0
-879 1354 1352 0
879 -1354 0
879 -1352 0
1355 -1349 -1356 0
-1355 1349 0
-1355 1356 0
-877 1357 1355 0
877 -1357 0
877 -1355 0
1358 -1359 -1356 0
-1358 1359 0
-1358 1356 0
-880 1360 1358 0
880 -1360 0
880 -1358 0
1361 -1353 -1359 0
-1361 1353 0
-1361 1359 0
-878 1362 1361 0
878 -1362 0
878 -1361 0
1363 -1353 -1353 0
-1363 1353 0
-1363 1353 0
-1364 1365 1363 0
1364 -1365 0
1364 -1363 0
1366 -1367 -1368 0
-1366 1367 0
-1366 1368 0
1369 -1368 -1368 0
-1369 1368 0
-1369 1368 0
1370 -1368 -1367 0
-1370 1368 0
-1370 1367 0
1371 -1367 -1367 -1372 0
-1371 1367 0
-1371 1367 0
-1371 1372 0
-1373 1374 1366 1369 1370 1371 0
1373 -1374 0
1373 -1366 0
1373 -1369 0
1373 -1370 0
1373 -1371 0
1375 -1367 -1376 0
-1375 1367 0
-1375 1376 0
1377 -1368 -1376 0
-1377 1368 0
-1377 1376 0
1378 -1368 -1379 0
-1378 1368 0
-1378 1379 0
1380 -1367 -1379 -1372 0
-1380 1367 0
-1380 1379 0
-1380 1372 0
-254 1381 1375 1377 1378 1380 0
254 -1381 0
254 -1375 0
254 -1377 0
254 -1378 0
254 -1380 0
1382 -1367 -1383 0
-1382 1367 0
-1382 1383 0
1384 -1368 -1385 0
-1384 1368 0
-1384 1385 0
1386 -1368 -1383 0
-1386 1368 0
-1386 1383 0
1387 -1367 -1385 -1372 0
-1387 1367 0
-1387 1385 0
-1387 1372 0
-252 1388 1382 1384 1386 1387 0
252 -1388 0
252 -1382 0
252 -1384 0
252 -1386 0
252 -1387 0
1389 -1390 -1383 0
-1389 1390 0
-1389 1383 0
1391 -1392 -1383 0
-1391 1392 0
-1391 1383 0
1393 -1392 -1385 0
-1393 1392 0
-1393 1385 0
1394 -1390 -1385 -1372 0
-1394 1390 0
-1394 1385 0
-1394 1372 0
-255 1395 1389 1391 1393 1394 0
255 -1395 0
255 -1389 0
255 -1391 0
255 -1393 0
255 -1394 0
1396 -1379 -1392 0
-1396 1379 0
-1396 1392 0
1397 -1376 -1390 0
-1397 1376 0
-1397 1390 0
1398 -1376 -1392 0
-1398 1376 0
-1398 1392 0
1399 -1379 -1390 -1372 0
-1399 1379 0
-1399 1390 0
-1399 1372 0
-253 1400 1396 1397 1398 1399 0
253 -1400 0
253 -1396 0
253 -1397 0
253 -1398 0
253 -1399 0
1401 -1379 -1376 0
-1401 1379 0
-1401 1376 0
1402 -1376 -1376 0
-1402 1376 0
-1402 1376 0
1403 -1376 -1379 0
-1403 1376 0
-1403 1379 0
1404 -1379 -1379 -1372 0
-1404 1379 0
-1404 1379 0
-1404 1372 0
-1405 1406 1401 1402 1403 1404 0
1405 -1406 0
1405 -1401 0
1405 -1402 0
1405 -1403 0
1405 -1404 0
1407 -1408 -1409 0
-1407 1408 0
-1407 1409 0
1410 -1409 -1409 0
-1410 1409 0
-1410 1409 0
1411 -1409 -1408 0
-1411 1409 0
-1411 1408 0
1412 -1408 -1408 -1413 0
-1412 1408 0
-1412 1408 0
-1412 1413 0
-1414 1415 1407 1410 1411 1412 0
1414 -1415 0
1414 -1407 0
1414 -1410 0
1414 -1411 0
1414 -1412 0
1416 -1408 -1417 0
-1416 1408 0
-1416 1417 0
1418 -1409 -1417 0
-1418 1409 0
-1418 1417 0
1419 -1409 -1420 0
-1419 1409 0
-1419 1420 0
1421 -1408 -1420 -1413 0
-1421 1408 0
-1421 1420 0
-1421 1413 0
-244 1422 1416 1418 1419 1421 0
244 -1422 0
244 -1416 0
244 -1418 0
244 -1419 0
244 -1421 0
1423 -1408 -1424 0
-1423 1408 0
-1423 1424 0
1425 -1409 -1426 0
-1425 1409 0
-1425 1426 0
1427 -1409 -1424 0
-1427 1409 0
-1427 1424 0
1428 -1408 -1426 -1413 0
-1428 1408 0
-1428 1426 0
-1428 1413 0
-242 1429 1423 1425 1427 1428 0
242 -1429 0
242 -1423 0
242 -1425 0
242 -1427 0
242 -1428 0
1430 -1431 -1424 0
-1430 1431 0
-1430 1424 0
1432 -1433 -1424 0
-1432 1433 0
-1432 1424 0
1434 -1433 -1426 0
-1434 1433 0
-1434 1426 0
1435 -1431 -1426 -1413 0
-1435 1431 0
-1435 1426 0
-1435 1413 0
-245 1436 1430 1432 1434 1435 0
245 -1436 0
245 -1430 0
245 -1432 0
245 -1434 0
245 -1435 0
1437 -1420 -1433 0
-1437 1420 0
-1437 1433 0
1438 -1417 -1431 0
-1438 1417 0
-1438 1431 0
1439 -1417 -1433 0
-1439 1417 0
-1439 1433 0
1440 -1420 -1431 -1413 0
-1440 1420 0
-1440 1431 0
-1440 1413 0
-243 1441 1437 1438 1439 1440 0
243 -1441 0
243 -1437 0
243 -1438 0
243 -1439 0
243 -1440 0
1442 -1420 -1417 0
-1442 1420 0
-1442 1417 0
1443 -1417 -1417 0
-1443 1417 0
-1443 1417 0
1444 -1417 -1420 0
-1444 1417 0
-1444 1420 0
1445 -1420 -1420 -1413 0
-1445 1420 0
-1445 1420 0
-1445 1413 0
-1446 1447 1442 1443 1444 1445 0
1446 -1447 0
1446 -1442 0
1446 -1443 0
1446 -1444 0
1446 -1445 0
1448 -1449 -1449 0
-1448 1449 0
-1448 1449 0
-1450 1451 1448 0
1450 -1451 0
1450 -1448 0
1452 -1449 -1453 0
-1452 1449 0
-1452 1453 0
-1054 1454 1452 0
1054 -1454 0
1054 -1452 0
1455 -1449 -1456 0
-1455 1449 0
-1455 1456 0
-1052 1457 1455 0
1052 -1457 0
1052 -1455 0
1458 -1459 -1456 0
-1458 1459 0
-1458 1456 0
-1055 1460 1458 0
1055 -1460 0
1055 -1458 0
1461 -1453 -1459 0
-1461 1453 0
-1461 1459 0
-1053 1462 1461 0
1053 -1462 0
1053 -1461 0
1463 -1453 -1453 0
-1463 1453 0
-1463 1453 0
-1464 1465 1463 0
1464 -1465 0
1464 -1463 0
1466 -1467 -1468 0
-1466 1467 0
-1466 1468 0
1469 -1468 -1468 0
-1469 1468 0
-1469 1468 0
1470 -1468 -1467 0
-1470 1468 0
-1470 1467 0
1471 -1467 -1467 -1472 0
-1471 1467 0
-1471 1467 0
-1471 1472 0
-1473 1474 1466 1469 1470 1471 0
1473 -1474 0
1473 -1466 0
1473 -1469 0
1473 -1470 0
1473 -1471 0
1475 -1467 -1476 0
-1475 1467 0
-1475 1476 0
1477 -1468 -1476 0
-1477 1468 0
-1477 1476 0
1478 -1468 -1479 0
-1478 1468 0
-1478 1479 0
1480 -1467 -1479 -1472 0
-1480 1467 0
-1480 1479 0
-1480 1472 0
-904 1481 1475 1477 1478 1480 0
904 -1481 0
904 -1475 0
904 -1477 0
904 -1478 0
904 -1480 0
1482 -1467 -1483 0
-1482 1467 0
-1482 1483 0
1484 -1468 -1485 0
-1484 1468 0
-1484 1485 0
1486 -1468 -1483 0
-1486 1468 0
-1486 1483 0
1487 -1467 -1485 -1472 0
-1487 1467 0
-1487 1485 0
-1487 1472 0
-902 1488 1482 1484 1486 1487 0
902 -1488 0
902 -1482 0
902 -1484 0
902 -1486 0
902 -1487 0
1489 -1490 -1483 0
-1489 1490 0
-1489 1483 0
1491 -1492 -1483 0
-1491 1492 0
-1491 1483 0
1493 -1492 -1485 0
-1493 1492 0
-1493 1485 0
1494 -1490 -1485 -1472 0
-1494 1490 0
-1494 1485 0
-1494 1472 0
-905 1495 1489 1491 1493 1494 0
905 -1495 0
905 -1489 0
905 -1491 0
905 -1493 0
905 -1494 0
1496 -1479 -1492 0
-1496 1479 0
-1496 1492 0
1497 -1476 -1490 0
-1497 1476 0
-1497 1490 0
1498 -1476 -1492 0
-1498 1476 0
-1498 1492 0
1499 -1479 -1490 -1472 0
-1499 1479 0
-1499 1490 0
-1499 1472 0
-903 1500 1496 1497 1498 1499 0
903 -1500 0
903 -1496 0
903 -1497 0
903 -1498 0
903 -1499 0
1501 -1479 -1476 0
-1501 1479 0
-1501 1476 0
1502 -1476 -1476 0
-1502 1476 0
-1502 1476 0
1503 -1476 -1479 0
-1503 1476 0
-1503 1479 0
1504 -1479 -1479 -1472 0
-1504 1479 0
-1504 1479 0
-1504 1472 0
-1505 1506 1501 1502 1503 1504 0
1505 -1506 0
1505 -1501 0
1505 -1502 0
1505 -1503 0
1505 -1504 0
1507 -1508 -1508 0
-1507 1508 0
-1507 1508 0
-1509 1510 1507 0
1509 -1510 0
1509 -1507 0
1511 -1508 -1512 0
-1511 1508 0
-1511 1512 0
-1199 1513 1511 0
1199 -1513 0
1199 -1511 0
1514 -1508 -1515 0
-1514 1508 0
-1514 1515 0
-1197 1516 1514 0
1197 -1516 0
1197 -1514 0
1517 -1518 -1515 0
-1517 1518 0
-1517 1515 0
-1200 1519 1517 0
1200 -1519 0
1200 -1517 0
1520 -1512 -1518 0
-1520 1512 0
-1520 1518 0
-1198 1521 1520 0
1198 -1521 0
1198 -1520 0
1522 -1512 -1512 0
-1522 1512 0
-1522 1512 0
-1523 1524 1522 0
1523 -1524 0
1523 -1522 0
1525 -1526 -1527 0
-1525 1526 0
-1525 1527 0
1528 -1527 -1527 0
-1528 1527 0
-1528 1527 0
1529 -1527 -1526 0
-1529 1527 0
-1529 1526 0
1530 -1526 -1526 -1531 0
-1530 1526 0
-1530 1526 0
-1530 1531 0
-1532 1533 1525 1528 1529 1530 0
1532 -1533 0
1532 -1525 0
1532 -1528 0
1532 -1529 0
1532 -1530 0
1534 -1526 -1535 0
-1534 1526 0
-1534 1535 0
1536 -1527 -1535 0
-1536 1527 0
-1536 1535 0
1537 -1527 -1538 0
-1537 1527 0
-1537 1538 0
1539 -1526 -1538 -1531 0
-1539 1526 0
-1539 1538 0
-1539 1531 0
-434 1540 1534 1536 1537 1539 0
434 -1540 0
434 -1534 0
434 -1536 0
434 -1537 0
434 -1539 0
1541 -1526 -1542 0
-1541 1526 0
-1541 1542 0
1543 -1527 -1544 0
-1543 1527 0
-1543 1544 0
1545 -1527 -1542 0
-1545 1527 0
-1545 1542 0
1546 -1526 -1544 -1531 0
-1546 1526 0
-1546 1544 0
-1546 1531 0
-432 1547 1541 1543 1545 1546 0
432 -1547 0
432 -1541 0
432 -1543 0
432 -1545 0
432 -1546 0
1548 -1549 -1542 0
-1548 1549 0
-1548 1542 0
1550 -1551 -1542 0
-1550 1551 0
-1550 1542 0
1552 -1551 -1544 0
-1552 1551 0
-1552 1544 0
1553 -1549 -1544 -1531 0
-1553 1549 0
-1553 1544 0
-1553 1531 0
-435 1554 1548 1550 1552 1553 0
435 -1554 0
435 -1548 0
435 -1550 0
435 -1552 0
435 -1553 0
1555 -1538 -1551 0
-1555 1538 0
-1555 1551 0
1556 -1535 -1549 0
-1556 1535 0
-1556 1549 0
1557 -1535 -1551 0
-1557 1535 0
-1557 1551 0
1558 -1538 -1549 -1531 0
-1558 1538 0
-1558 1549 0
-1558 1531 0
-433 1559 1555 1556 1557 1558 0
433 -1559 0
433 -1555 0
433 -1556 0
433 -1557 0
433 -1558 0
1560 -1538 -1535 0
-1560 1538 0
-1560 1535 0
1561 -1535 -1535 0
-1561 1535 0
-1561 1535 0
1562 -1535 -1538 0
-1562 1535 0
-1562 1538 0
1563 -1538 -1538 -1531 0
-1563 1538 0
-1563 1538 0
-1563 1531 0
-1564 1565 1560 1561 1562 1563 0
1564 -1565 0
1564 -1560 0
1564 -1561 0
1564 -1562 0
1564 -1563 0
1566 -1567 -1567 0
-1566 1567 0
-1566 1567 0
-1568 1569 1566 0
1568 -1569 0
1568 -1566 0
1570 -1567 -1571 0
-1570 1567 0
-1570 1571 0
-1159 1572 1570 0
1159 -1572 0
1159 -1570 0
1573 -1567 -1574 0
-1573 1567 0
-1573 1574 0
-1157 1575 1573 0
1157 -1575 0
1157 -1573 0
1576 -1577 -1574 0
-1576 1577 0
-1576 1574 0
-1160 1578 1576 0
1160 -1578 0
1160 -1576 0
1579 -1571 -1577 0
-1579 1571 0
-1579 1577 0
-1158 1580 1579 0
1158 -1580 0
1158 -1579 0
1581 -1571 -1571 0
-1581 1571 0
-1581 1571 0
-1582 1583 1581 0
1582 -1583 0
1582 -1581 0
1584 -1585 -1585 0
-1584 1585 0
-1584 1585 0
-1586 1587 1584 0
1586 -1587 0
1586 -1584 0
1588 -1585 -1589 0
-1588 1585 0
-1588 1589 0
-544 1590 1588 0
544 -1590 0
544 -1588 0
1591 -1585 -1592 0
-1591 1585 0
-1591 1592 0
-542 1593 1591 0
542 -1593 0
542 -1591 0
1594 -1595 -1592 0
-1594 1595 0
-1594 1592 0
-545 1596 1594 0
545 -1596 0
545 -1594 0
1597 -1589 -1595 0
-1597 1589 0
-1597 1595 0
-543 1598 1597 0
543 -1598 0
543 -1597 0
1599 -1589 -1589 0
-1599 1589 0
-1599 1589 0
-1600 1601 1599 0
1600 -1601 0
1600 -1599 0
1602 -1603 -1604 0
-1602 1603 0
-1602 1604 0
1605 -1604 -1604 0
-1605 1604 0
-1605 1604 0
1606 -1604 -1603 0
-1606 1604 0
-1606 1603 0
1607 -1603 -1603 -1608 0
-1607 1603 0
-1607 1603 0
-1607 1608 0
-1609 1610 1602 1605 1606 1607 0
1609 -1610 0
1609 -1602 0
1609 -1605 0
1609 -1606 0
1609 -1607 0
1611 -1603 -1612 0
-1611 1603 0
-1611 1612 0
1613 -1604 -1612 0
-1613 1604 0
-1613 1612 0
1614 -1604 -1615 0
-1614 1604 0
-1614 1615 0
1616 -1603 -1615 -1608 0
-1616 1603 0
-1616 1615 0
-1616 1608 0
-779 1617 1611 1613 1614 1616 0
779 -1617 0
779 -1611 0
779 -1613 0
779 -1614 0
779 -1616 0
1618 -1603 -1619 0
-1618 1603 0
-1618 1619 0
1620 -1604 -1621 0
-1620 1604 0
-1620 1621 0
1622 -1604 -1619 0
-1622 1604 0
-1622 1619 0
1623 -1603 -1621 -1608 0
-1623 1603 0
-1623 1621 0
-1623 1608 0
-777 1624 1618 1620 1622 1623 0
777 -1624 0
777 -1618 0
777 -1620 0
777 -1622 0
777 -1623 0
1625 -1626 -1619 0
-1625 1626 0
-1625 1619 0
1627 -1628 -1619 0
-1627 1628 0
-1627 1619 0
1629 -1628 -1621 0
-1629 1628 0
-1629 1621 0
1630 -1626 -1621 -1608 0
-1630 1626 0
-1630 1621 0
-1630 1608 0
-780 1631 1625 1627 1629 1630 0
780 -1631 0
780 -1625 0
780 -1627 0
780 -1629 0
780 -1630 0
1632 -1615 -1628 0
-1632 1615 0
-1632 1628 0
1633 -1612 -1626 0
-1633 1612 0
-1633 1626 0
1634 -1612 -1628 0
-1634 1612 0
-1634 1628 0
1635 -1615 -1626 -1608 0
-1635 1615 0
-1635 1626 0
-1635 1608 0
-778 1636 1632 1633 1634 1635 0
778 -1636 0
778 -1632 0
778 -1633 0
778 -1634 0
778 -1635 0
1637 -1615 -1612 0
-1637 1615 0
-1637 1612 0
1638 -1612 -1612 0
-1638 1612 0
-1638 1612 0
1639 -1612 -1615 0
-1639 1612 0
-1639 1615 0
1640 -1615 -1615 -1608 0
-1640 1615 0
-1640 1615 0
-1640 1608 0
-1641 1642 1637 1638 1639 1640 0
1641 -1642 0
1641 -1637 0
1641 -1638 0
1641 -1639 0
1641 -1640 0
1643 -1644 -1644 0
-1643 1644 0
-1643 1644 0
-1645 1646 1643 0
1645 -1646 0
1645 -1643 0
1647 -1644 -1648 0
-1647 1644 0
-1647 1648 0
-594 1649 1647 0
594 -1649 0
594 -1647 0
1650 -1644 -1651 0
-1650 1644 0
-1650 1651 0
-592 1652 1650 0
592 -1652 0
592 -1650 0
1653 -1654 -1651 0
-1653 1654 0
-1653 1651 0
-595 1655 1653 0
595 -1655 0
595 -1653 0
1656 -1648 -1654 0
-1656 1648 0
-1656 1654 0
-593 1657 1656 0
593 -1657 0
593 -1656 0
1658 -1648 -1648 0
-1658 1648 0
-1658 1648 0
-1659 1660 1658 0
1659 -1660 0
1659 -1658 0
1661 -1662 -1663 0
-1661 1662 0
-1661 1663 0
1664 -1663 -1663 0
-1664 1663 0
-1664 1663 0
1665 -1663 -1662 0
-1665 1663 0
-1665 1662 0
1666 -1662 -1662 -1587 0
-1666 1662 0
-1666 1662 0
-1666 1587 0
-1667 1668 1661 1664 1665 1666 0
1667 -1668 0
1667 -1661 0
1667 -1664 0
1667 -1665 0
1667 -1666 0
1669 -1662 -1590 0
-1669 1662 0
-1669 1590 0
1670 -1663 -1590 0
-1670 1663 0
-1670 1590 0
1671 -1663 -1598 0
-1671 1663 0
-1671 1598 0
1672 -1662 -1598 -1587 0
-1672 1662 0
-1672 1598 0
-1672 1587 0
-114 1673 1669 1670 1671 1672 0
114 -1673 0
114 -1669 0
114 -1670 0
114 -1671 0
114 -1672 0
1674 -1662 -1593 0
-1674 1662 0
-1674 1593 0
1675 -1663 -1596 0
-1675 1663 0
-1675 1596 0
1676 -1663 -1593 0
-1676 1663 0
-1676 1593 0
1677 -1662 -1596 -1587 0
-1677 1662 0
-1677 1596 0
-1677 1587 0
-112 1678 1674 1675 1676 1677 0
112 -1678 0
112 -1674 0
112 -1675 0
112 -1676 0
112 -1677 0
1679 -1595 -1593 0
-1679 1595 0
-1679 1593 0
1680 -1585 -1593 0
-1680 1585 0
-1680 1593 0
1681 -1585 -1596 0
-1681 1585 0
-1681 1596 0
1682 -1595 -1596 -1587 0
-1682 1595 0
-1682 1596 0
-1682 1587 0
-115 1592 1679 1680 1681 1682 0
115 -1592 0
115 -1679 0
115 -1680 0
115 -1681 0
115 -1682 0
1683 -1598 -1585 0
-1683 1598 0
-1683 1585 0
1684 -1590 -1595 0
-1684 1590 0
-1684 1595 0
1685 -1590 -1585 0
-1685 1590 0
-1685 1585 0
1686 -1598 -1595 -1587 0
-1686 1598 0
-1686 1595 0
-1686 1587 0
-113 1589 1683 1684 1685 1686 0
113 -1589 0
113 -1683 0
113 -1684 0
113 -1685 0
113 -1686 0
1687 -1598 -1590 0
-1687 1598 0
-1687 1590 0
1688 -1590 -1590 0
-1688 1590 0
-1688 1590 0
1689 -1590 -1598 0
-1689 1590 0
-1689 1598 0
1690 -1598 -1598 -1587 0
-1690 1598 0
-1690 1598 0
-1690 1587 0
-1691 1601 1687 1688 1689 1690 0
1691 -1601 0
1691 -1687 0
1691 -1688 0
1691 -1689 0
1691 -1690 0
1692 -1693 -1693 0
-1692 1693 0
-1692 1693 0
-1694 1695 1692 0
1694 -1695 0
1694 -1692 0
1696 -1693 -1697 0
-1696 1693 0
-1696 1697 0
-1099 1698 1696 0
1099 -1698 0
1099 -1696 0
1699 -1693 -1700 0
-1699 1693 0
-1699 1700 0
-1097 1701 1699 0
1097 -1701 0
1097 -1699 0
1702 -1703 -1700 0
-1702 1703 0
-1702 1700 0
-1100 1704 1702 0
1100 -1704 0
1100 -1702 0
1705 -1697 -1703 0
-1705 1697 0
-1705 1703 0
-1098 1706 1705 0
1098 -1706 0
1098 -1705 0
1707 -1697 -1697 0
-1707 1697 0
-1707 1697 0
-1708 1709 1707 0
1708 -1709 0
1708 -1707 0
1710 -1711 -1711 0
-1710 1711 0
-1710 1711 0
-1712 1713 1710 0
1712 -1713 0
1712 -1710 0
1714 -1711 -1715 0
-1714 1711 0
-1714 1715 0
-1184 1716 1714 0
1184 -1716 0
1184 -1714 0
1717 -1711 -1718 0
-1717 1711 0
-1717 1718 0
-1182 1719 1717 0
1182 -1719 0
1182 -1717 0
1720 -1721 -1718 0
-1720 1721 0
-1720 1718 0
-1185 1722 1720 0
1185 -1722 0
1185 -1720 0
1723 -1715 -1721 0
-1723 1715 0
-1723 1721 0
-1183 1724 1723 0
1183 -1724 0
1183 -1723 0
1725 -1715 -1715 0
-1725 1715 0
-1725 1715 0
-1726 1727 1725 0
1726 -1727 0
1726 -1725 0
1728 -1729 -1730 0
-1728 1729 0
-1728 1730 0
1731 -1730 -1730 0
-1731 1730 0
-1731 1730 0
1732 -1730 -1729 0
-1732 1730 0
-1732 1729 0
1733 -1729 -1729 -1734 0
-1733 1729 0
-1733 1729 0
-1733 1734 0
-1735 1736 1728 1731 1732 1733 0
1735 -1736 0
1735 -1728 0
1735 -1731 0
1735 -1732 0
1735 -1733 0
1737 -1729 -1738 0
-1737 1729 0
-1737 1738 0
1739 -1730 -1738 0
-1739 1730 0
-1739 1738 0
1740 -1730 -1741 0
-1740 1730 0
-1740 1741 0
1742 -1729 -1741 -1734 0
-1742 1729 0
-1742 1741 0
-1742 1734 0
-329 1743 1737 1739 1740 1742 0
329 -1743 0
329 -1737 0
329 -1739 0
329 -1740 0
329 -1742 0
1744 -1729 -1745 0
-1744 1729 0
-1744 1745 0
1746 -1730 -1747 0
-1746 1730 0
-1746 1747 0
1748 -1730 -1745 0
-1748 1730 0
-1748 1745 0
1749 -1729 -1747 -1734 0
-1749 1729 0
-1749 1747 0
-1749 1734 0
-327 1750 1744 1746 1748 1749 0
327 -1750 0
327 -1744 0
327 -1746 0
327 -1748 0
327 -1749 0
1751 -1752 -1745 0
-1751 1752 0
-1751 1745 0
1753 -1754 -1745 0
-1753 1754 0
-1753 1745 0
1755 -1754 -1747 0
-1755 1754 0
-1755 1747 0
1756 -1752 -1747 -1734 0
-1756 1752 0
-1756 1747 0
-1756 1734 0
-330 1757 1751 1753 1755 1756 0
330 -1757 0
330 -1751 0
330 -1753 0
330 -1755 0
330 -1756 0
1758 -1741 -1754 0
-1758 1741 0
-1758 1754 0
1759 -1738 -1752 0
-1759 1738 0
-1759 1752 0
1760 -1738 -1754 0
-1760 1738 0
-1760 1754 0
1761 -1741 -1752 -1734 0
-1761 1741 0
-1761 1752 0
-1761 1734 0
-328 1762 1758 1759 1760 1761 0
328 -1762 0
328 -1758 0
328 -1759 0
328 -1760 0
328 -1761 0
1763 -1741 -1738 0
-1763 1741 0
-1763 1738 0
1764 -1738 -1738 0
-1764 1738 0
-1764 1738 0
1765 -1738 -1741 0
-1765 1738 0
-1765 1741 0
1766 -1741 -1741 -1734 0
-1766 1741 0
-1766 1741 0
-1766 1734 0
-1767 1768 1763 1764 1765 1766 0
1767 -1768 0
1767 -1763 0
1767 -1764 0
1767 -1765 0
1767 -1766 0
1769 -1770 -1770 0
-1769 1770 0
-1769 1770 0
-1771 1772 1769 0
1771 -1772 0
1771 -1769 0
1773 -1770 -1774 0
-1773 1770 0
-1773 1774 0
-774 1775 1773 0
774 -1775 0
774 -1773 0
1776 -1770 -1777 0
-1776 1770 0
-1776 1777 0
-772 1778 1776 0
772 -1778 0
772 -1776 0
1779 -1780 -1777 0
-1779 1780 0
-1779 1777 0
-775 1781 1779 0
775 -1781 0
775 -1779 0
1782 -1774 -1780 0
-1782 1774 0
-1782 1780 0
-773 1783 1782 0
773 -1783 0
773 -1782 0
1784 -1774 -1774 0
-1784 1774 0
-1784 1774 0
-1785 1786 1784 0
1785 -1786 0
1785 -1784 0
1787 -1788 -1789 0
-1787 1788 0
-1787 1789 0
1790 -1789 -1789 0
-1790 1789 0
-1790 1789 0
1791 -1789 -1788 0
-1791 1789 0
-1791 1788 0
1792 -1788 -1788 -1793 0
-1792 1788 0
-1792 1788 0
-1792 1793 0
-1794 1795 1787 1790 1791 1792 0
1794 -1795 0
1794 -1787 0
1794 -1790 0
1794 -1791 0
1794 -1792 0
1796 -1788 -1797 0
-1796 1788 0
-1796 1797 0
1798 -1789 -1797 0
-1798 1789 0
-1798 1797 0
1799 -1789 -1800 0
-1799 1789 0
-1799 1800 0
1801 -1788 -1800 -1793 0
-1801 1788 0
-1801 1800 0
-1801 1793 0
-104 1802 1796 1798 1799 1801 0
104 -1802 0
104 -1796 0
104 -1798 0
104 -1799 0
104 -1801 0
1803 -1788 -1804 0
-1803 1788 0
-1803 1804 0
1805 -1789 -1806 0
-1805 1789 0
-1805 1806 0
1807 -1789 -1804 0
-1807 1789 0
-1807 1804 0
1808 -1788 -1806 -1793 0
-1808 1788 0
-1808 1806 0
-1808 1793 0
-102 1809 1803 1805 1807 1808 0
102 -1809 0
102 -1803 0
102 -1805 0
102 -1807 0
102 -1808 0
1810 -1811 -1804 0
-1810 1811 0
-1810 1804 0
1812 -1813 -1804 0
-1812 1813 0
-1812 1804 0
1814 -1813 -1806 0
-1814 1813 0
-1814 1806 0
1815 -1811 -1806 -1793 0
-1815 1811 0
-1815 1806 0
-1815 1793 0
-105 1816 1810 1812 1814 1815 0
105 -1816 0
105 -1810 0
105 -1812 0
105 -1814 0
105 -1815 0
1817 -1800 -1813 0
-1817 1800 0
-1817 1813 0
1818 -1797 -1811 0
-1818 1797 0
-1818 1811 0
1819 -1797 -1813 0
-1819 1797 0
-1819 1813 0
1820 -1800 -1811 -1793 0
-1820 1800 0
-1820 1811 0
-1820 1793 0
-103 1821 1817 1818 1819 1820 0
103 -1821 0
103 -1817 0
103 -1818 0
103 -1819 0
103 -1820 0
1822 -1800 -1797 0
-1822 1800 0
-1822 1797 0
1823 -1797 -1797 0
-1823 1797 0
-1823 1797 0
1824 -1797 -1800 0
-1824 1797 0
-1824 1800 0
1825 -1800 -1800 -1793 0
-1825 1800 0
-1825 1800 0
-1825 1793 0
-1826 1827 1822 1823 1824 1825 0
1826 -1827 0
1826 -1822 0
1826 -1823 0
1826 -1824 0
1826 -1825 0
1828 -1829 -1829 0
-1828 1829 0
-1828 1829 0
-1830 1831 1828 0
1830 -1831 0
1830 -1828 0
1832 -1829 -1833 0
-1832 1829 0
-1832 1833 0
-1149 1834 1832 0
1149 -1834 0
1149 -1832 0
1835 -1829 -1836 0
-1835 1829 0
-1835 1836 0
-1147 1837 1835 0
1147 -1837 0
1147 -1835 0
1838 -1839 -1836 0
-1838 1839 0
-1838 1836 0
-1150 1840 1838 0
1150 -1840 0
1150 -1838 0
1841 -1833 -1839 0
-1841 1833 0
-1841 1839 0
-1148 1842 1841 0
1148 -1842 0
1148 -1841 0
1843 -1833 -1833 0
-1843 1833 0
-1843 1833 0
-1844 1845 1843 0
1844 -1845 0
1844 -1843 0
1846 -1547 -1540 0
-1846 1547 0
-1846 1540 0
1847 -1540 -1540 0
-1847 1540 0
-1847 1540 0
1848 -1540 -1547 0
-1848 1540 0
-1848 1547 0
1849 -1547 -1547 -1565 0
-1849 1547 0
-1849 1547 0
-1849 1565 0
-1850 1533 1846 1847 1848 1849 0
1850 -1533 0
1850 -1846 0
1850 -1847 0
1850 -1848 0
1850 -1849 0
1851 -1547 -1535 0
-1851 1547 0
-1851 1535 0
1852 -1540 -1535 0
-1852 1540 0
-1852 1535 0
1853 -1540 -1542 0
-1853 1540 0
-1853 1542 0
1854 -1547 -1542 -1565 0
-1854 1547 0
-1854 1542 0
-1854 1565 0
-404 1527 1851 1852 1853 1854 0
404 -1527 0
404 -1851 0
404 -1852 0
404 -1853 0
404 -1854 0
1855 -1547 -1538 0
-1855 1547 0
-1855 1538 0
1856 -1540 -1544 0
-1856 1540 0
-1856 1544 0
1857 -1540 -1538 0
-1857 1540 0
-1857 1538 0
1858 -1547 -1544 -1565 0
-1858 1547 0
-1858 1544 0
-1858 1565 0
-402 1526 1855 1856 1857 1858 0
402 -1526 0
402 -1855 0
402 -1856 0
402 -1857 0
402 -1858 0
1859 -1554 -1538 0
-1859 1554 0
-1859 1538 0
1860 -1559 -1538 0
-1860 1559 0
-1860 1538 0
1861 -1559 -1544 0
-1861 1559 0
-1861 1544 0
1862 -1554 -1544 -1565 0
-1862 1554 0
-1862 1544 0
-1862 1565 0
-405 1549 1859 1860 1861 1862 0
405 -1549 0
405 -1859 0
405 -1860 0
405 -1861 0
405 -1862 0
1863 -1542 -1559 0
-1863 1542 0
-1863 1559 0
1864 -1535 -1554 0
-1864 1535 0
-1864 1554 0
1865 -1535 -1559 0
-1865 1535 0
-1865 1559 0
1866 -1542 -1554 -1565 0
-1866 1542 0
-1866 1554 0
-1866 1565 0
-403 1551 1863 1864 1865 1866 0
403 -1551 0
403 -1863 0
403 -1864 0
403 -1865 0
403 -1866 0
1867 -1542 -1535 0
-1867 1542 0
-1867 1535 0
1561 -1535 -1535 0
-1561 1535 0
-1561 1535 0
1868 -1535 -1542 0
-1868 1535 0
-1868 1542 0
1869 -1542 -1542 -1565 0
-1869 1542 0
-1869 1542 0
-1869 1565 0
-1870 1531 1867 1561 1868 1869 0
1870 -1531 0
1870 -1867 0
1870 -1561 0
1870 -1868 0
1870 -1869 0
1871 -1872 -1873 0
-1871 1872 0
-1871 1873 0
1874 -1873 -1873 0
-1874 1873 0
-1874 1873 0
1875 -1873 -1872 0
-1875 1873 0
-1875 1872 0
1876 -1872 -1872 -1877 0
-1876 1872 0
-1876 1872 0
-1876 1877 0
-1878 1879 1871 1874 1875 1876 0
1878 -1879 0
1878 -1871 0
1878 -1874 0
1878 -1875 0
1878 -1876 0
1880 -1872 -1881 0
-1880 1872 0
-1880 1881 0
1882 -1873 -1881 0
-1882 1873 0
-1882 1881 0
1883 -1873 -1884 0
-1883 1873 0
-1883 1884 0
1885 -1872 -1884 -1877 0
-1885 1872 0
-1885 1884 0
-1885 1877 0
-214 1886 1880 1882 1883 1885 0
214 -1886 0
214 -1880 0
214 -1882 0
214 -1883 0
214 -1885 0
1887 -1872 -1888 0
-1887 1872 0
-1887 1888 0
1889 -1873 -1890 0
-1889 1873 0
-1889 1890 0
1891 -1873 -1888 0
-1891 1873 0
-1891 1888 0
1892 -1872 -1890 -1877 0
-1892 1872 0
-1892 1890 0
-1892 1877 0
-212 1893 1887 1889 1891 1892 0
212 -1893 0
212 -1887 0
212 -1889 0
212 -1891 0
212 -1892 0
1894 -1895 -1888 0
-1894 1895 0
-1894 1888 0
1896 -1897 -1888 0
-1896 1897 0
-1896 1888 0
1898 -1897 -1890 0
-1898 1897 0
-1898 1890 0
1899 -1895 -1890 -1877 0
-1899 1895 0
-1899 1890 0
-1899 1877 0
-215 1900 1894 1896 1898 1899 0
215 -1900 0
215 -1894 0
215 -1896 0
215 -1898 0
215 -1899 0
1901 -1884 -1897 0
-1901 1884 0
-1901 1897 0
1902 -1881 -1895 0
-1902 1881 0
-1902 1895 0
1903 -1881 -1897 0
-1903 1881 0
-1903 1897 0
1904 -1884 -1895 -1877 0
-1904 1884 0
-1904 1895 0
-1904 1877 0
-213 1905 1901 1902 1903 1904 0
213 -1905 0
213 -1901 0
213 -1902 0
213 -1903 0
213 -1904 0
1906 -1884 -1881 0
-1906 1884 0
-1906 1881 0
1907 -1881 -1881 0
-1907 1881 0
-1907 1881 0
1908 -1881 -1884 0
-1908 1881 0
-1908 1884 0
1909 -1884 -1884 -1877 0
-1909 1884 0
-1909 1884 0
-1909 1877 0
-1910 1911 1906 1907 1908 1909 0
1910 -1911 0
1910 -1906 0
1910 -1907 0
1910 -1908 0
1910 -1909 0
1912 -1913 -1914 0
-1912 1913 0
-1912 1914 0
1915 -1914 -1914 0
-1915 1914 0
-1915 1914 0
1916 -1914 -1913 0
-1916 1914 0
-1916 1913 0
1917 -1913 -1913 -1918 0
-1917 1913 0
-1917 1913 0
-1917 1918 0
-1919 1920 1912 1915 1916 1917 0
1919 -1920 0
1919 -1912 0
1919 -1915 0
1919 -1916 0
1919 -1917 0
1921 -1913 -1922 0
-1921 1913 0
-1921 1922 0
1923 -1914 -1922 0
-1923 1914 0
-1923 1922 0
1924 -1914 -1925 0
-1924 1914 0
-1924 1925 0
1926 -1913 -1925 -1918 0
-1926 1913 0
-1926 1925 0
-1926 1918 0
-369 1927 1921 1923 1924 1926 0
369 -1927 0
369 -1921 0
369 -1923 0
369 -1924 0
369 -1926 0
1928 -1913 -1929 0
-1928 1913 0
-1928 1929 0
1930 -1914 -1931 0
-1930 1914 0
-1930 1931 0
1932 -1914 -1929 0
-1932 1914 0
-1932 1929 0
1933 -1913 -1931 -1918 0
-1933 1913 0
-1933 1931 0
-1933 1918 0
-367 1934 1928 1930 1932 1933 0
367 -1934 0
367 -1928 0
367 -1930 0
367 -1932 0
367 -1933 0
1935 -1936 -1929 0
-1935 1936 0
-1935 1929 0
1937 -1938 -1929 0
-1937 1938 0
-1937 1929 0
1939 -1938 -1931 0
-1939 1938 0
-1939 1931 0
1940 -1936 -1931 -1918 0
-1940 1936 0
-1940 1931 0
-1940 1918 0
-370 1941 1935 1937 1939 1940 0
370 -1941 0
370 -1935 0
370 -1937 0
370 -1939 0
370 -1940 0
1942 -1925 -1938 0
-1942 1925 0
-1942 1938 0
1943 -1922 -1936 0
-1943 1922 0
-1943 1936 0
1944 -1922 -1938 0
-1944 1922 0
-1944 1938 0
1945 -1925 -1936 -1918 0
-1945 1925 0
-1945 1936 0
-1945 1918 0
-368 1946 1942 1943 1944 1945 0
368 -1946 0
368 -1942 0
368 -1943 0
368 -1944 0
368 -1945 0
1947 -1925 -1922 0
-1947 1925 0
-1947 1922 0
1948 -1922 -1922 0
-1948 1922 0
-1948 1922 0
1949 -1922 -1925 0
-1949 1922 0
-1949 1925 0
1950 -1925 -1925 -1918 0
-1950 1925 0
-1950 1925 0
-1950 1918 0
-1951 1952 1947 1948 1949 1950 0
1951 -1952 0
1951 -1947 0
1951 -1948 0
1951 -1949 0
1951 -1950 0
1953 -1954 -1955 0
-1953 1954 0
-1953 1955 0
1956 -1955 -1955 0
-1956 1955 0
-1956 1955 0
1957 -1955 -1954 0
-1957 1955 0
-1957 1954 0
1958 -1954 -1954 -1959 0
-1958 1954 0
-1958 1954 0
-1958 1959 0
-1960 1961 1953 1956 1957 1958 0
1960 -1961 0
1960 -1953 0
1960 -1956 0
1960 -1957 0
1960 -1958 0
1962 -1954 -1963 0
-1962 1954 0
-1962 1963 0
1964 -1955 -1963 0
-1964 1955 0
-1964 1963 0
1965 -1955 -1966 0
-1965 1955 0
-1965 1966 0
1967 -1954 -1966 -1959 0
-1967 1954 0
-1967 1966 0
-1967 1959 0
-734 1968 1962 1964 1965 1967 0
734 -1968 0
734 -1962 0
734 -1964 0
734 -1965 0
734 -1967 0
1969 -1954 -1970 0
-1969 1954 0
-1969 1970 0
1971 -1955 -1972 0
-1971 1955 0
-1971 1972 0
1973 -1955 -1970 0
-1973 1955 0
-1973 1970 0
1974 -1954 -1972 -1959 0
-1974 1954 0
-1974 1972 0
-1974 1959 0
-732 1975 1969 1971 1973 1974 0
732 -1975 0
732 -1969 0
732 -1971 0
732 -1973 0
732 -1974 0
1976 -1977 -1970 0
-1976 1977 0
-1976 1970 0
1978 -1979 -1970 0
-1978 1979 0
-1978 1970 0
1980 -1979 -1972 0
-1980 1979 0
-1980 1972 0
1981 -1977 -1972 -1959 0
-1981 1977 0
-1981 1972 0
-1981 1959 0
-735 1982 1976 1978 1980 1981 0
735 -1982 0
735 -1976 0
735 -1978 0
735 -1980 0
735 -1981 0
1983 -1966 -1979 0
-1983 1966 0
-1983 1979 0
1984 -1963 -1977 0
-1984 1963 0
-1984 1977 0
1985 -1963 -1979 0
-1985 1963 0
-1985 1979 0
1986 -1966 -1977 -1959 0
-1986 1966 0
-1986 1977 0
-1986 1959 0
-733 1987 1983 1984 1985 1986 0
733 -1987 0
733 -1983 0
733 -1984 0
733 -1985 0
733 -1986 0
1988 -1966 -1963 0
-1988 1966 0
-1988 1963 0
1989 -1963 -1963 0
-1989 1963 0
-1989 1963 0
1990 -1963 -1966 0
-1990 1963 0
-1990 1966 0
1991 -1966 -1966 -1959 0
-1991 1966 0
-1991 1966 0
-1991 1959 0
-1992 1993 1988 1989 1990 1991 0
1992 -1993 0
1992 -1988 0
1992 -1989 0
1992 -1990 0
1992 -1991 0
1994 -1995 -1995 0
-1994 1995 0
-1994 1995 0
-1996 1997 1994 0
1996 -1997 0
1996 -1994 0
1998 -1995 -1999 0
-1998 1995 0
-1998 1999 0
-159 2000 1998 0
159 -2000 0
159 -1998 0
2001 -1995 -2002 0
-2001 1995 0
-2001 2002 0
-157 2003 2001 0
157 -2003 0
157 -2001 0
2004 -2005 -2002 0
-2004 2005 0
-2004 2002 0
-160 2006 2004 0
160 -2006 0
160 -2004 0
2007 -1999 -2005 0
-2007 1999 0
-2007 2005 0
-158 2008 2007 0
158 -2008 0
158 -2007 0
2009 -1999 -1999 0
-2009 1999 0
-2009 1999 0
-2010 2011 2009 0
2010 -2011 0
2010 -2009 0
2012 -2013 -2014 0
-2012 2013 0
-2012 2014 0
2015 -2014 -2014 0
-2015 2014 0
-2015 2014 0
2016 -2014 -2013 0
-2016 2014 0
-2016 2013 0
2017 -2013 -2013 -2018 0
-2017 2013 0
-2017 2013 0
-2017 2018 0
-2019 2020 2012 2015 2016 2017 0
2019 -2020 0
2019 -2012 0
2019 -2015 0
2019 -2016 0
2019 -2017 0
2021 -2013 -2022 0
-2021 2013 0
-2021 2022 0
2023 -2014 -2022 0
-2023 2014 0
-2023 2022 0
2024 -2014 -2025 0
-2024 2014 0
-2024 2025 0
2026 -2013 -2025 -2018 0
-2026 2013 0
-2026 2025 0
-2026 2018 0
-1104 2027 2021 2023 2024 2026 0
1104 -2027 0
1104 -2021 0
1104 -2023 0
1104 -2024 0
1104 -2026 0
2028 -2013 -2029 0
-2028 2013 0
-2028 2029 0
2030 -2014 -2031 0
-2030 2014 0
-2030 2031 0
2032 -2014 -2029 0
-2032 2014 0
-2032 2029 0
2033 -2013 -2031 -2018 0
-2033 2013 0
-2033 2031 0
-2033 2018 0
-1102 2034 2028 2030 2032 2033 0
1102 -2034 0
1102 -2028 0
1102 -2030 0
1102 -2032 0
1102 -2033 0
2035 -2036 -2029 0
-2035 2036 0
-2035 2029 0
2037 -2038 -2029 0
-2037 2038 0
-2037 2029 0
2039 -2038 -2031 0
-2039 2038 0
-2039 2031 0
2040 -2036 -2031 -2018 0
-2040 2036 0
-2040 2031 0
-2040 2018 0
-1105 2041 2035 2037 2039 2040 0
1105 -2041 0
1105 -2035 0
1105 -2037 0
1105 -2039 0
1105 -2040 0
2042 -2025 -2038 0
-2042 2025 0
-2042 2038 0
2043 -2022 -2036 0
-2043 2022 0
-2043 2036 0
2044 -2022 -2038 0
-2044 2022 0
-2044 2038 0
2045 -2025 -2036 -2018 0
-2045 2025 0
-2045 2036 0
-2045 2018 0
-1103 2046 2042 2043 2044 2045 0
1103 -2046 0
1103 -2042 0
1103 -2043 0
1103 -2044 0
1103 -2045 0
2047 -2025 -2022 0
-2047 2025 0
-2047 2022 0
2048 -2022 -2022 0
-2048 2022 0
-2048 2022 0
2049 -2022 -2025 0
-2049 2022 0
-2049 2025 0
2050 -2025 -2025 -2018 0
-2050 2025 0
-2050 2025 0
-2050 2018 0
-2051 2052 2047 2048 2049 2050 0
2051 -2052 0
2051 -2047 0
2051 -2048 0
2051 -2049 0
2051 -2050 0
2053 -2054 -2055 0
-2053 2054 0
-2053 2055 0
2056 -2055 -2055 0
-2056 2055 0
-2056 2055 0
2057 -2055 -2054 0
-2057 2055 0
-2057 2054 0
2058 -2054 -2054 -2059 0
-2058 2054 0
-2058 2054 0
-2058 2059 0
-2060 2061 2053 2056 2057 2058 0
2060 -2061 0
2060 -2053 0
2060 -2056 0
2060 -2057 0
2060 -2058 0
2062 -2054 -2063 0
-2062 2054 0
-2062 2063 0
2064 -2055 -2063 0
-2064 2055 0
-2064 2063 0
2065 -2055 -2066 0
-2065 2055 0
-2065 2066 0
2067 -2054 -2066 -2059 0
-2067 2054 0
-2067 2066 0
-2067 2059 0
-19 2068 2062 2064 2065 2067 0
19 -2068 0
19 -2062 0
19 -2064 0
19 -2065 0
19 -2067 0
2069 -2054 -2070 0
-2069 2054 0
-2069 2070 0
2071 -2055 -2072 0
-2071 2055 0
-2071 2072 0
2073 -2055 -2070 0
-2073 2055 0
-2073 2070 0
2074 -2054 -2072 -2059 0
-2074 2054 0
-2074 2072 0
-2074 2059 0
-17 2075 2069 2071 2073 2074 0
17 -2075 0
17 -2069 0
17 -2071 0
17 -2073 0
17 -2074 0
2076 -2077 -2070 0
-2076 2077 0
-2076 2070 0
2078 -2079 -2070 0
-2078 2079 0
-2078 2070 0
2080 -2079 -2072 0
-2080 2079 0
-2080 2072 0
2081 -2077 -2072 -2059 0
-2081 2077 0
-2081 2072 0
-2081 2059 0
-20 2082 2076 2078 2080 2081 0
20 -2082 0
20 -2076 0
20 -2078 0
20 -2080 0
20 -2081 0
2083 -2066 -2079 0
-2083 2066 0
-2083 2079 0
2084 -2063 -2077 0
-2084 2063 0
-2084 2077 0
2085 -2063 -2079 0
-2085 2063 0
-2085 2079 0
2086 -2066 -2077 -2059 0
-2086 2066 0
-2086 2077 0
-2086 2059 0
-18 2087 2083 2084 2085 2086 0
18 -2087 0
18 -2083 0
18 -2084 0
18 -2085 0
18 -2086 0
2088 -2066 -2063 0
-2088 2066 0
-2088 2063 0
2089 -2063 -2063 0
-2089 2063 0
-2089 2063 0
2090 -2063 -2066 0
-2090 2063 0
-2090 2066 0
2091 -2066 -2066 -2059 0
-2091 2066 0
-2091 2066 0
-2091 2059 0
-2092 2093 2088 2089 2090 2091 0
2092 -2093 0
2092 -2088 0
2092 -2089 0
2092 -2090 0
2092 -2091 0
2094 -2095 -2096 0
-2094 2095 0
-2094 2096 0
2097 -2096 -2096 0
-2097 2096 0
-2097 2096 0
2098 -2096 -2095 0
-2098 2096 0
-2098 2095 0
2099 -2095 -2095 -2100 0
-2099 2095 0
-2099 2095 0
-2099 2100 0
-2101 2102 2094 2097 2098 2099 0
2101 -2102 0
2101 -2094 0
2101 -2097 0
2101 -2098 0
2101 -2099 0
2103 -2095 -2104 0
-2103 2095 0
-2103 2104 0
2105 -2096 -2104 0
-2105 2096 0
-2105 2104 0
2106 -2096 -2107 0
-2106 2096 0
-2106 2107 0
2108 -2095 -2107 -2100 0
-2108 2095 0
-2108 2107 0
-2108 2100 0
-429 2109 2103 2105 2106 2108 0
429 -2109 0
429 -2103 0
429 -2105 0
429 -2106 0
429 -2108 0
2110 -2095 -2111 0
-2110 2095 0
-2110 2111 0
2112 -2096 -2113 0
-2112 2096 0
-2112 2113 0
2114 -2096 -2111 0
-2114 2096 0
-2114 2111 0
2115 -2095 -2113 -2100 0
-2115 2095 0
-2115 2113 0
-2115 2100 0
-427 2116 2110 2112 2114 2115 0
427 -2116 0
427 -2110 0
427 -2112 0
427 -2114 0
427 -2115 0
2117 -2118 -2111 0
-2117 2118 0
-2117 2111 0
2119 -2120 -2111 0
-2119 2120 0
-2119 2111 0
2121 -2120 -2113 0
-2121 2120 0
-2121 2113 0
2122 -2118 -2113 -2100 0
-2122 2118 0
-2122 2113 0
-2122 2100 0
-430 2123 2117 2119 2121 2122 0
430 -2123 0
430 -2117 0
430 -2119 0
430 -2121 0
430 -2122 0
2124 -2107 -2120 0
-2124 2107 0
-2124 2120 0
2125 -2104 -2118 0
-2125 2104 0
-2125 2118 0
2126 -2104 -2120 0
-2126 2104 0
-2126 2120 0
2127 -2107 -2118 -2100 0
-2127 2107 0
-2127 2118 0
-2127 2100 0
-428 2128 2124 2125 2126 2127 0
428 -2128 0
428 -2124 0
428 -2125 0
428 -2126 0
428 -2127 0
2129 -2107 -2104 0
-2129 2107 0
-2129 2104 0
2130 -2104 -2104 0
-2130 2104 0
-2130 2104 0
2131 -2104 -2107 0
-2131 2104 0
-2131 2107 0
2132 -2107 -2107 -2100 0
-2132 2107 0
-2132 2107 0
-2132 2100 0
-2133 2134 2129 2130 2131 2132 0
2133 -2134 0
2133 -2129 0
2133 -2130 0
2133 -2131 0
2133 -2132 0
2135 -2095 -2095 0
-2135 2095 0
-2135 2095 0
-2136 2102 2135 0
2136 -2102 0
2136 -2135 0
2137 -2095 -2107 0
-2137 2095 0
-2137 2107 0
-854 2109 2137 0
854 -2109 0
854 -2137 0
2138 -2095 -2113 0
-2138 2095 0
-2138 2113 0
-852 2116 2138 0
852 -2116 0
852 -2138 0
2139 -2118 -2113 0
-2139 2118 0
-2139 2113 0
-855 2123 2139 0
855 -2123 0
855 -2139 0
2140 -2107 -2118 0
-2140 2107 0
-2140 2118 0
-853 2128 2140 0
853 -2128 0
853 -2140 0
2141 -2107 -2107 0
-2141 2107 0
-2141 2107 0
-2142 2134 2141 0
2142 -2134 0
2142 -2141 0
2143 -2144 -2145 0
-2143 2144 0
-2143 2145 0
2146 -2145 -2145 0
-2146 2145 0
-2146 2145 0
2147 -2145 -2144 0
-2147 2145 0
-2147 2144 0
2148 -2144 -2144 -2149 0
-2148 2144 0
-2148 2144 0
-2148 2149 0
-2150 2151 2143 2146 2147 2148 0
2150 -2151 0
2150 -2143 0
2150 -2146 0
2150 -2147 0
2150 -2148 0
2152 -2144 -2153 0
-2152 2144 0
-2152 2153 0
2154 -2145 -2153 0
-2154 2145 0
-2154 2153 0
2155 -2145 -2156 0
-2155 2145 0
-2155 2156 0
2157 -2144 -2156 -2149 0
-2157 2144 0
-2157 2156 0
-2157 2149 0
-644 2158 2152 2154 2155 2157 0
644 -2158 0
644 -2152 0
644 -2154 0
644 -2155 0
644 -2157 0
2159 -2144 -2160 0
-2159 2144 0
-2159 2160 0
2161 -2145 -2162 0
-2161 2145 0
-2161 2162 0
2163 -2145 -2160 0
-2163 2145 0
-2163 2160 0
2164 -2144 -2162 -2149 0
-2164 2144 0
-2164 2162 0
-2164 2149 0
-642 2165 2159 2161 2163 2164 0
642 -2165 0
642 -2159 0
642 -2161 0
642 -2163 0
642 -2164 0
2166 -2167 -2160 0
-2166 2167 0
-2166 2160 0
2168 -2169 -2160 0
-2168 2169 0
-2168 2160 0
2170 -2169 -2162 0
-2170 2169 0
-2170 2162 0
2171 -2167 -2162 -2149 0
-2171 2167 0
-2171 2162 0
-2171 2149 0
-645 2172 2166 2168 2170 2171 0
645 -2172 0
645 -2166 0
645 -2168 0
645 -2170 0
645 -2171 0
2173 -2156 -2169 0
-2173 2156 0
-2173 2169 0
2174 -2153 -2167 0
-2174 2153 0
-2174 2167 0
2175 -2153 -2169 0
-2175 2153 0
-2175 2169 0
2176 -2156 -2167 -2149 0
-2176 2156 0
-2176 2167 0
-2176 2149 0
-643 2177 2173 2174 2175 2176 0
643 -2177 0
643 -2173 0
643 -2174 0
643 -2175 0
643 -2176 0
2178 -2156 -2153 0
-2178 2156 0
-2178 2153 0
2179 -2153 -2153 0
-2179 2153 0
-2179 2153 0
2180 -2153 -2156 0
-2180 2153 0
-2180 2156 0
2181 -2156 -2156 -2149 0
-2181 2156 0
-2181 2156 0
-2181 2149 0
-2182 2183 2178 2179 2180 2181 0
2182 -2183 0
2182 -2178 0
2182 -2179 0
2182 -2180 0
2182 -2181 0
2184 -2185 -2185 0
-2184 2185 0
-2184 2185 0
-2186 2187 2184 0
2186 -2187 0
2186 -2184 0
2188 -2185 -2189 0
-2188 2185 0
-2188 2189 0
-769 2190 2188 0
769 -2190 0
769 -2188 0
2191 -2185 -2192 0
-2191 2185 0
-2191 2192 0
-767 2193 2191 0
767 -2193 0
767 -2191 0
2194 -2195 -2192 0
-2194 2195 0
-2194 2192 0
-770 2196 2194 0
770 -2196 0
770 -2194 0
2197 -2189 -2195 0
-2197 2189 0
-2197 2195 0
-768 2198 2197 0
768 -2198 0
768 -2197 0
2199 -2189 -2189 0
-2199 2189 0
-2199 2189 0
-2200 2201 2199 0
2200 -2201 0
2200 -2199 0
2202 -2203 -2204 0
-2202 2203 0
-2202 2204 0
2205 -2204 -2204 0
-2205 2204 0
-2205 2204 0
2206 -2204 -2203 0
-2206 2204 0
-2206 2203 0
2207 -2203 -2203 -2208 0
-2207 2203 0
-2207 2203 0
-2207 2208 0
-2209 2210 2202 2205 2206 2207 0
2209 -2210 0
2209 -2202 0
2209 -2205 0
2209 -2206 0
2209 -2207 0
2211 -2203 -2212 0
-2211 2203 0
-2211 2212 0
2213 -2204 -2212 0
-2213 2204 0
-2213 2212 0
2214 -2204 -2215 0
-2214 2204 0
-2214 2215 0
2216 -2203 -2215 -2208 0
-2216 2203 0
-2216 2215 0
-2216 2208 0
-639 2217 2211 2213 2214 2216 0
639 -2217 0
639 -2211 0
639 -2213 0
639 -2214 0
639 -2216 0
2218 -2203 -2219 0
-2218 2203 0
-2218 2219 0
2220 -2204 -2221 0
-2220 2204 0
-2220 2221 0
2222 -2204 -2219 0
-2222 2204 0
-2222 2219 0
2223 -2203 -2221 -2208 0
-2223 2203 0
-2223 2221 0
-2223 2208 0
-637 2224 2218 2220 2222 2223 0
637 -2224 0
637 -2218 0
637 -2220 0
637 -2222 0
637 -2223 0
2225 -2226 -2219 0
-2225 2226 0
-2225 2219 0
2227 -2228 -2219 0
-2227 2228 0
-2227 2219 0
2229 -2228 -2221 0
-2229 2228 0
-2229 2221 0
2230 -2226 -2221 -2208 0
-2230 2226 0
-2230 2221 0
-2230 2208 0
-640 2231 2225 2227 2229 2230 0
640 -2231 0
640 -2225 0
640 -2227 0
640 -2229 0
640 -2230 0
2232 -2215 -2228 0
-2232 2215 0
-2232 2228 0
2233 -2212 -2226 0
-2233 2212 0
-2233 2226 0
2234 -2212 -2228 0
-2234 2212 0
-2234 2228 0
2235 -2215 -2226 -2208 0
-2235 2215 0
-2235 2226 0
-2235 2208 0
-638 2236 2232 2233 2234 2235 0
638 -2236 0
638 -2232 0
638 -2233 0
638 -2234 0
638 -2235 0
2237 -2215 -2212 0
-2237 2215 0
-2237 2212 0
2238 -2212 -2212 0
-2238 2212 0
-2238 2212 0
2239 -2212 -2215 0
-2239 2212 0
-2239 2215 0
2240 -2215 -2215 -2208 0
-2240 2215 0
-2240 2215 0
-2240 2208 0
-2241 2242 2237 2238 2239 2240 0
2241 -2242 0
2241 -2237 0
2241 -2238 0
2241 -2239 0
2241 -2240 0
2243 -1603 -1603 0
-2243 1603 0
-2243 1603 0
-2244 1610 2243 0
2244 -1610 0
2244 -2243 0
2245 -1603 -1615 0
-2245 1603 0
-2245 1615 0
-1089 1617 2245 0
1089 -1617 0
1089 -2245 0
2246 -1603 -1621 0
-2246 1603 0
-2246 1621 0
-1087 1624 2246 0
1087 -1624 0
1087 -2246 0
2247 -1626 -1621 0
-2247 1626 0
-2247 1621 0
-1090 1631 2247 0
1090 -1631 0
1090 -2247 0
2248 -1615 -1626 0
-2248 1615 0
-2248 1626 0
-1088 1636 2248 0
1088 -1636 0
1088 -2248 0
2249 -1615 -1615 0
-2249 1615 0
-2249 1615 0
-2250 1642 2249 0
2250 -1642 0
2250 -2249 0
2251 -2252 -2253 0
-2251 2252 0
-2251 2253 0
2254 -2253 -2253 0
-2254 2253 0
-2254 2253 0
2255 -2253 -2252 0
-2255 2253 0
-2255 2252 0
2256 -2252 -2252 -2257 0
-2256 2252 0
-2256 2252 0
-2256 2257 0
-2258 2259 2251 2254 2255 2256 0
2258 -2259 0
2258 -2251 0
2258 -2254 0
2258 -2255 0
2258 -2256 0
2260 -2252 -2261 0
-2260 2252 0
-2260 2261 0
2262 -2253 -2261 0
-2262 2253 0
-2262 2261 0
2263 -2253 -2264 0
-2263 2253 0
-2263 2264 0
2265 -2252 -2264 -2257 0
-2265 2252 0
-2265 2264 0
-2265 2257 0
-129 2266 2260 2262 2263 2265 0
129 -2266 0
129 -2260 0
129 -2262 0
129 -2263 0
129 -2265 0
2267 -2252 -2268 0
-2267 2252 0
-2267 2268 0
2269 -2253 -2270 0
-2269 2253 0
-2269 2270 0
2271 -2253 -2268 0
-2271 2253 0
-2271 2268 0
2272 -2252 -2270 -2257 0
-2272 2252 0
-2272 2270 0
-2272 2257 0
-127 2273 2267 2269 2271 2272 0
127 -2273 0
127 -2267 0
127 -2269 0
127 -2271 0
127 -2272 0
2274 -2275 -2268 0
-2274 2275 0
-2274 2268 0
2276 -2277 -2268 0
-2276 2277 0
-2276 2268 0
2278 -2277 -2270 0
-2278 2277 0
-2278 2270 0
2279 -2275 -2270 -2257 0
-2279 2275 0
-2279 2270 0
-2279 2257 0
-130 2280 2274 2276 2278 2279 0
130 -2280 0
130 -2274 0
130 -2276 0
130 -2278 0
130 -2279 0
2281 -2264 -2277 0
-2281 2264 0
-2281 2277 0
2282 -2261 -2275 0
-2282 2261 0
-2282 2275 0
2283 -2261 -2277 0
-2283 2261 0
-2283 2277 0
2284 -2264 -2275 -2257 0
-2284 2264 0
-2284 2275 0
-2284 2257 0
-128 2285 2281 2282 2283 2284 0
128 -2285 0
128 -2281 0
128 -2282 0
128 -2283 0
128 -2284 0
2286 -2264 -2261 0
-2286 2264 0
-2286 2261 0
2287 -2261 -2261 0
-2287 2261 0
-2287 2261 0
2288 -2261 -2264 0
-2288 2261 0
-2288 2264 0
2289 -2264 -2264 -2257 0
-2289 2264 0
-2289 2264 0
-2289 2257 0
-2290 2291 2286 2287 2288 2289 0
2290 -2291 0
2290 -2286 0
2290 -2287 0
2290 -2288 0
2290 -2289 0
2292 -2293 -2293 0
-2292 2293 0
-2292 2293 0
-2294 2295 2292 0
2294 -2295 0
2294 -2292 0
2296 -2293 -2297 0
-2296 2293 0
-2296 2297 0
-739 2298 2296 0
739 -2298 0
739 -2296 0
2299 -2293 -2300 0
-2299 2293 0
-2299 2300 0
-737 2301 2299 0
737 -2301 0
737 -2299 0
2302 -2303 -2300 0
-2302 2303 0
-2302 2300 0
-740 2304 2302 0
740 -2304 0
740 -2302 0
2305 -2297 -2303 0
-2305 2297 0
-2305 2303 0
-738 2306 2305 0
738 -2306 0
738 -2305 0
2307 -2297 -2297 0
-2307 2297 0
-2307 2297 0
-2308 2309 2307 0
2308 -2309 0
2308 -2307 0
2310 -1277 -2311 0
-2310 1277 0
-2310 2311 0
2312 -2311 -2311 0
-2312 2311 0
-2312 2311 0
2313 -2311 -1277 0
-2313 2311 0
-2313 1277 0
2314 -1277 -1277 -2315 0
-2314 1277 0
-2314 1277 0
-2314 2315 0
-2316 1279 2310 2312 2313 2314 0
2316 -1279 0
2316 -2310 0
2316 -2312 0
2316 -2313 0
2316 -2314 0
2317 -1277 -2318 0
-2317 1277 0
-2317 2318 0
2319 -2311 -2318 0
-2319 2311 0
-2319 2318 0
2320 -2311 -1281 0
-2320 2311 0
-2320 1281 0
2321 -1277 -1281 -2315 0
-2321 1277 0
-2321 1281 0
-2321 2315 0
-764 1282 2317 2319 2320 2321 0
764 -1282 0
764 -2317 0
764 -2319 0
764 -2320 0
764 -2321 0
2322 -1277 -2323 0
-2322 1277 0
-2322 2323 0
2324 -2311 -1284 0
-2324 2311 0
-2324 1284 0
2325 -2311 -2323 0
-2325 2311 0
-2325 2323 0
2326 -1277 -1284 -2315 0
-2326 1277 0
-2326 1284 0
-2326 2315 0
-762 1285 2322 2324 2325 2326 0
762 -1285 0
762 -2322 0
762 -2324 0
762 -2325 0
762 -2326 0
2327 -1287 -2323 0
-2327 1287 0
-2327 2323 0
2328 -2329 -2323 0
-2328 2329 0
-2328 2323 0
2330 -2329 -1284 0
-2330 2329 0
-2330 1284 0
2331 -1287 -1284 -2315 0
-2331 1287 0
-2331 1284 0
-2331 2315 0
-765 1288 2327 2328 2330 2331 0
765 -1288 0
765 -2327 0
765 -2328 0
765 -2330 0
765 -2331 0
2332 -1281 -2329 0
-2332 1281 0
-2332 2329 0
2333 -2318 -1287 0
-2333 2318 0
-2333 1287 0
2334 -2318 -2329 0
-2334 2318 0
-2334 2329 0
2335 -1281 -1287 -2315 0
-2335 1281 0
-2335 1287 0
-2335 2315 0
-763 1290 2332 2333 2334 2335 0
763 -1290 0
763 -2332 0
763 -2333 0
763 -2334 0
763 -2335 0
2336 -1281 -2318 0
-2336 1281 0
-2336 2318 0
2337 -2318 -2318 0
-2337 2318 0
-2337 2318 0
2338 -2318 -1281 0
-2338 2318 0
-2338 1281 0
2339 -1281 -1281 -2315 0
-2339 1281 0
-2339 1281 0
-2339 2315 0
-2340 1293 2336 2337 2338 2339 0
2340 -1293 0
2340 -2336 0
2340 -2337 0
2340 -2338 0
2340 -2339 0
2341 -2342 -2342 0
-2341 2342 0
-2341 2342 0
-2343 2344 2341 0
2343 -2344 0
2343 -2341 0
2345 -2342 -2346 0
-2345 2342 0
-2345 2346 0
-979 2347 2345 0
979 -2347 0
979 -2345 0
2348 -2342 -2349 0
-2348 2342 0
-2348 2349 0
-977 2350 2348 0
977 -2350 0
977 -2348 0
2351 -2352 -2349 0
-2351 2352 0
-2351 2349 0
-980 2353 2351 0
980 -2353 0
980 -2351 0
2354 -2346 -2352 0
-2354 2346 0
-2354 2352 0
-978 2355 2354 0
978 -2355 0
978 -2354 0
2356 -2346 -2346 0
-2356 2346 0
-2356 2346 0
-2357 2358 2356 0
2357 -2358 0
2357 -2356 0
2359 -1433 -1433 0
-2359 1433 0
-2359 1433 0
-2360 1413 2359 0
2360 -1413 0
2360 -2359 0
2361 -1433 -1441 0
-2361 1433 0
-2361 1441 0
-499 1417 2361 0
499 -1417 0
499 -2361 0
2362 -1433 -1436 0
-2362 1433 0
-2362 1436 0
-497 1424 2362 0
497 -1424 0
497 -2362 0
2363 -1431 -1436 0
-2363 1431 0
-2363 1436 0
-500 1426 2363 0
500 -1426 0
500 -2363 0
2364 -1441 -1431 0
-2364 1441 0
-2364 1431 0
-498 1420 2364 0
498 -1420 0
498 -2364 0
2365 -1441 -1441 0
-2365 1441 0
-2365 1441 0
-2366 1447 2365 0
2366 -1447 0
2366 -2365 0
2367 -2368 -2368 0
-2367 2368 0
-2367 2368 0
-2369 2370 2367 0
2369 -2370 0
2369 -2367 0
2371 -2368 -2372 0
-2371 2368 0
-2371 2372 0
-814 2373 2371 0
814 -2373 0
814 -2371 0
2374 -2368 -2375 0
-2374 2368 0
-2374 2375 0
-812 2376 2374 0
812 -2376 0
812 -2374 0
2377 -2378 -2375 0
-2377 2378 0
-2377 2375 0
-815 2379 2377 0
815 -2379 0
815 -2377 0
2380 -2372 -2378 0
-2380 2372 0
-2380 2378 0
-813 2381 2380 0
813 -2381 0
813 -2380 0
2382 -2372 -2372 0
-2382 2372 0
-2382 2372 0
-2383 2384 2382 0
2383 -2384 0
2383 -2382 0
2385 -2386 -2386 0
-2385 2386 0
-2385 2386 0
-2387 2388 2385 0
2387 -2388 0
2387 -2385 0
2389 -2386 -2390 0
-2389 2386 0
-2389 2390 0
-714 2391 2389 0
714 -2391 0
714 -2389 0
2392 -2386 -2393 0
-2392 2386 0
-2392 2393 0
-712 2394 2392 0
712 -2394 0
712 -2392 0
2395 -2396 -2393 0
-2395 2396 0
-2395 2393 0
-715 2397 2395 0
715 -2397 0
715 -2395 0
2398 -2390 -2396 0
-2398 2390 0
-2398 2396 0
-713 2399 2398 0
713 -2399 0
713 -2398 0
2400 -2390 -2390 0
-2400 2390 0
-2400 2390 0
-2401 2402 2400 0
2401 -2402 0
2401 -2400 0
2403 -2404 -2404 0
-2403 2404 0
-2403 2404 0
-2405 2406 2403 0
2405 -2406 0
2405 -2403 0
2407 -2404 -2408 0
-2407 2404 0
-2407 2408 0
-1074 2409 2407 0
1074 -2409 0
1074 -2407 0
2410 -2404 -2411 0
-2410 2404 0
-2410 2411 0
-1072 2412 2410 0
1072 -2412 0
1072 -2410 0
2413 -2414 -2411 0
-2413 2414 0
-2413 2411 0
-1075 2415 2413 0
1075 -2415 0
1075 -2413 0
2416 -2408 -2414 0
-2416 2408 0
-2416 2414 0
-1073 2417 2416 0
1073 -2417 0
1073 -2416 0
2418 -2408 -2408 0
-2418 2408 0
-2418 2408 0
-2419 2420 2418 0
2419 -2420 0
2419 -2418 0
2421 -1995 -2422 0
-2421 1995 0
-2421 2422 0
2423 -2422 -2422 0
-2423 2422 0
-2423 2422 0
2424 -2422 -1995 0
-2424 2422 0
-2424 1995 0
2425 -1995 -1995 -2426 0
-2425 1995 0
-2425 1995 0
-2425 2426 0
-2427 1997 2421 2423 2424 2425 0
2427 -1997 0
2427 -2421 0
2427 -2423 0
2427 -2424 0
2427 -2425 0
2428 -1995 -2429 0
-2428 1995 0
-2428 2429 0
2430 -2422 -2429 0
-2430 2422 0
-2430 2429 0
2431 -2422 -1999 0
-2431 2422 0
-2431 1999 0
2432 -1995 -1999 -2426 0
-2432 1995 0
-2432 1999 0
-2432 2426 0
-24 2000 2428 2430 2431 2432 0
24 -2000 0
24 -2428 0
24 -2430 0
24 -2431 0
24 -2432 0
2433 -1995 -2434 0
-2433 1995 0
-2433 2434 0
2435 -2422 -2002 0
-2435 2422 0
-2435 2002 0
2436 -2422 -2434 0
-2436 2422 0
-2436 2434 0
2437 -1995 -2002 -2426 0
-2437 1995 0
-2437 2002 0
-2437 2426 0
-22 2003 2433 2435 2436 2437 0
22 -2003 0
22 -2433 0
22 -2435 0
22 -2436 0
22 -2437 0
2438 -2005 -2434 0
-2438 2005 0
-2438 2434 0
2439 -2440 -2434 0
-2439 2440 0
-2439 2434 0
2441 -2440 -2002 0
-2441 2440 0
-2441 2002 0
2442 -2005 -2002 -2426 0
-2442 2005 0
-2442 2002 0
-2442 2426 0
-25 2006 2438 2439 2441 2442 0
25 -2006 0
25 -2438 0
25 -2439 0
25 -2441 0
25 -2442 0
2443 -1999 -2440 0
-2443 1999 0
-2443 2440 0
2444 -2429 -2005 0
-2444 2429 0
-2444 2005 0
2445 -2429 -2440 0
-2445 2429 0
-2445 2440 0
2446 -1999 -2005 -2426 0
-2446 1999 0
-2446 2005 0
-2446 2426 0
-23 2008 2443 2444 2445 2446 0
23 -2008 0
23 -2443 0
23 -2444 0
23 -2445 0
23 -2446 0
2447 -1999 -2429 0
-2447 1999 0
-2447 2429 0
2448 -2429 -2429 0
-2448 2429 0
-2448 2429 0
2449 -2429 -1999 0
-2449 2429 0
-2449 1999 0
2450 -1999 -1999 -2426 0
-2450 1999 0
-2450 1999 0
-2450 2426 0
-2451 2011 2447 2448 2449 2450 0
2451 -2011 0
2451 -2447 0
2451 -2448 0
2451 -2449 0
2451 -2450 0
2452 -2203 -2203 0
-2452 2203 0
-2452 2203 0
-2453 2210 2452 0
2453 -2210 0
2453 -2452 0
2454 -2203 -2215 0
-2454 2203 0
-2454 2215 0
-994 2217 2454 0
994 -2217 0
994 -2454 0
2455 -2203 -2221 0
-2455 2203 0
-2455 2221 0
-992 2224 2455 0
992 -2224 0
992 -2455 0
2456 -2226 -2221 0
-2456 2226 0
-2456 2221 0
-995 2231 2456 0
995 -2231 0
995 -2456 0
2457 -2215 -2226 0
-2457 2215 0
-2457 2226 0
-993 2236 2457 0
993 -2236 0
993 -2457 0
2458 -2215 -2215 0
-2458 2215 0
-2458 2215 0
-2459 2242 2458 0
2459 -2242 0
2459 -2458 0
2460 -2461 -2462 0
-2460 2461 0
-2460 2462 0
2463 -2462 -2462 0
-2463 2462 0
-2463 2462 0
2464 -2462 -2461 0
-2464 2462 0
-2464 2461 0
2465 -2461 -2461 -2466 0
-2465 2461 0
-2465 2461 0
-2465 2466 0
-2467 2468 2460 2463 2464 2465 0
2467 -2468 0
2467 -2460 0
2467 -2463 0
2467 -2464 0
2467 -2465 0
2469 -2461 -2470 0
-2469 2461 0
-2469 2470 0
2471 -2462 -2470 0
-2471 2462 0
-2471 2470 0
2472 -2462 -2473 0
-2472 2462 0
-2472 2473 0
2474 -2461 -2473 -2466 0
-2474 2461 0
-2474 2473 0
-2474 2466 0
-59 2475 2469 2471 2472 2474 0
59 -2475 0
59 -2469 0
59 -2471 0
59 -2472 0
59 -2474 0
2476 -2461 -2477 0
-2476 2461 0
-2476 2477 0
2478 -2462 -2479 0
-2478 2462 0
-2478 2479 0
2480 -2462 -2477 0
-2480 2462 0
-2480 2477 0
2481 -2461 -2479 -2466 0
-2481 2461 0
-2481 2479 0
-2481 2466 0
-57 2482 2476 2478 2480 2481 0
57 -2482 0
57 -2476 0
57 -2478 0
57 -2480 0
57 -2481 0
2483 -2484 -2477 0
-2483 2484 0
-2483 2477 0
2485 -2486 -2477 0
-2485 2486 0
-2485 2477 0
2487 -2486 -2479 0
-2487 2486 0
-2487 2479 0
2488 -2484 -2479 -2466 0
-2488 2484 0
-2488 2479 0
-2488 2466 0
-60 2489 2483 2485 2487 2488 0
60 -2489 0
60 -2483 0
60 -2485 0
60 -2487 0
60 -2488 0
2490 -2473 -2486 0
-2490 2473 0
-2490 2486 0
2491 -2470 -2484 0
-2491 2470 0
-2491 2484 0
2492 -2470 -2486 0
-2492 2470 0
-2492 2486 0
2493 -2473 -2484 -2466 0
-2493 2473 0
-2493 2484 0
-2493 2466 0
-58 2494 2490 2491 2492 2493 0
58 -2494 0
58 -2490 0
58 -2491 0
58 -2492 0
58 -2493 0
2495 -2473 -2470 0
-2495 2473 0
-2495 2470 0
2496 -2470 -2470 0
-2496 2470 0
-2496 2470 0
2497 -2470 -2473 0
-2497 2470 0
-2497 2473 0
2498 -2473 -2473 -2466 0
-2498 2473 0
-2498 2473 0
-2498 2466 0
-2499 2500 2495 2496 2497 2498 0
2499 -2500 0
2499 -2495 0
2499 -2496 0
2499 -2497 0
2499 -2498 0
2501 -2502 -2502 0
-2501 2502 0
-2501 2502 0
-2503 2504 2501 0
2503 -2504 0
2503 -2501 0
2505 -2502 -2506 0
-2505 2502 0
-2505 2506 0
-1119 2507 2505 0
1119 -2507 0
1119 -2505 0
2508 -2502 -2509 0
-2508 2502 0
-2508 2509 0
-1117 2510 2508 0
1117 -2510 0
1117 -2508 0
2511 -2512 -2509 0
-2511 2512 0
-2511 2509 0
-1120 2513 2511 0
1120 -2513 0
1120 -2511 0
2514 -2506 -2512 0
-2514 2506 0
-2514 2512 0
-1118 2515 2514 0
1118 -2515 0
1118 -2514 0
2516 -2506 -2506 0
-2516 2506 0
-2516 2506 0
-2517 2518 2516 0
2517 -2518 0
2517 -2516 0
2519 -2520 -2520 0
-2519 2520 0
-2519 2520 0
-2521 2522 2519 0
2521 -2522 0
2521 -2519 0
2523 -2520 -2524 0
-2523 2520 0
-2523 2524 0
-1069 2525 2523 0
1069 -2525 0
1069 -2523 0
2526 -2520 -2527 0
-2526 2520 0
-2526 2527 0
-1067 2528 2526 0
1067 -2528 0
1067 -2526 0
2529 -2530 -2527 0
-2529 2530 0
-2529 2527 0
-1070 2531 2529 0
1070 -2531 0
1070 -2529 0
2532 -2524 -2530 0
-2532 2524 0
-2532 2530 0
-1068 2533 2532 0
1068 -2533 0
1068 -2532 0
2534 -2524 -2524 0
-2534 2524 0
-2534 2524 0
-2535 2536 2534 0
2535 -2536 0
2535 -2534 0
2537 -2538 -2538 0
-2537 2538 0
-2537 2538 0
-2539 2540 2537 0
2539 -2540 0
2539 -2537 0
2541 -2538 -2542 0
-2541 2538 0
-2541 2542 0
-259 2543 2541 0
259 -2543 0
259 -2541 0
2544 -2538 -2545 0
-2544 2538 0
-2544 2545 0
-257 2546 2544 0
257 -2546 0
257 -2544 0
2547 -2548 -2545 0
-2547 2548 0
-2547 2545 0
-260 2549 2547 0
260 -2549 0
260 -2547 0
2550 -2542 -2548 0
-2550 2542 0
-2550 2548 0
-258 2551 2550 0
258 -2551 0
258 -2550 0
2552 -2542 -2542 0
-2552 2542 0
-2552 2542 0
-2553 2554 2552 0
2553 -2554 0
2553 -2552 0
2555 -1392 -1368 0
-2555 1392 0
-2555 1368 0
1369 -1368 -1368 0
-1369 1368 0
-1369 1368 0
2556 -1368 -1392 0
-2556 1368 0
-2556 1392 0
2557 -1392 -1392 -1374 0
-2557 1392 0
-2557 1392 0
-2557 1374 0
-2558 1372 2555 1369 2556 2557 0
2558 -1372 0
2558 -2555 0
2558 -1369 0
2558 -2556 0
2558 -2557 0
2559 -1392 -1381 0
-2559 1392 0
-2559 1381 0
2560 -1368 -1381 0
-2560 1368 0
-2560 1381 0
2561 -1368 -1400 0
-2561 1368 0
-2561 1400 0
2562 -1392 -1400 -1374 0
-2562 1392 0
-2562 1400 0
-2562 1374 0
-174 1376 2559 2560 2561 2562 0
174 -1376 0
174 -2559 0
174 -2560 0
174 -2561 0
174 -2562 0
2563 -1392 -1388 0
-2563 1392 0
-2563 1388 0
2564 -1368 -1395 0
-2564 1368 0
-2564 1395 0
2565 -1368 -1388 0
-2565 1368 0
-2565 1388 0
2566 -1392 -1395 -1374 0
-2566 1392 0
-2566 1395 0
-2566 1374 0
-172 1383 2563 2564 2565 2566 0
172 -1383 0
172 -2563 0
172 -2564 0
172 -2565 0
172 -2566 0
2567 -1390 -1388 0
-2567 1390 0
-2567 1388 0
2568 -1367 -1388 0
-2568 1367 0
-2568 1388 0
2569 -1367 -1395 0
-2569 1367 0
-2569 1395 0
2570 -1390 -1395 -1374 0
-2570 1390 0
-2570 1395 0
-2570 1374 0
-175 1385 2567 2568 2569 2570 0
175 -1385 0
175 -2567 0
175 -2568 0
175 -2569 0
175 -2570 0
2571 -1400 -1367 0
-2571 1400 0
-2571 1367 0
2572 -1381 -1390 0
-2572 1381 0
-2572 1390 0
2573 -1381 -1367 0
-2573 1381 0
-2573 1367 0
2574 -1400 -1390 -1374 0
-2574 1400 0
-2574 1390 0
-2574 1374 0
-173 1379 2571 2572 2573 2574 0
173 -1379 0
173 -2571 0
173 -2572 0
173 -2573 0
173 -2574 0
2575 -1400 -1381 0
-2575 1400 0
-2575 1381 0
2576 -1381 -1381 0
-2576 1381 0
-2576 1381 0
2577 -1381 -1400 0
-2577 1381 0
-2577 1400 0
2578 -1400 -1400 -1374 0
-2578 1400 0
-2578 1400 0
-2578 1374 0
-2579 1406 2575 2576 2577 2578 0
2579 -1406 0
2579 -2575 0
2579 -2576 0
2579 -2577 0
2579 -2578 0
2580 -1547 -1547 0
-2580 1547 0
-2580 1547 0
-2581 1533 2580 0
2581 -1533 0
2581 -2580 0
2582 -1547 -1542 0
-2582 1547 0
-2582 1542 0
-839 1527 2582 0
839 -1527 0
839 -2582 0
2583 -1547 -1544 0
-2583 1547 0
-2583 1544 0
-837 1526 2583 0
837 -1526 0
837 -2583 0
2584 -1554 -1544 0
-2584 1554 0
-2584 1544 0
-840 1549 2584 0
840 -1549 0
840 -2584 0
2585 -1542 -1554 0
-2585 1542 0
-2585 1554 0
-838 1551 2585 0
838 -1551 0
838 -2585 0
2586 -1542 -1542 0
-2586 1542 0
-2586 1542 0
-2587 1531 2586 0
2587 -1531 0
2587 -2586 0
2588 -2589 -2589 0
-2588 2589 0
-2588 2589 0
-2590 2591 2588 0
2590 -2591 0
2590 -2588 0
2592 -2589 -2593 0
-2592 2589 0
-2592 2593 0
-624 2594 2592 0
624 -2594 0
624 -2592 0
2595 -2589 -2596 0
-2595 2589 0
-2595 2596 0
-622 2597 2595 0
622 -2597 0
622 -2595 0
2598 -2599 -2596 0
-2598 2599 0
-2598 2596 0
-625 2600 2598 0
625 -2600 0
625 -2598 0
2601 -2593 -2599 0
-2601 2593 0
-2601 2599 0
-623 2602 2601 0
623 -2602 0
623 -2601 0
2603 -2593 -2593 0
-2603 2593 0
-2603 2593 0
-2604 2605 2603 0
2604 -2605 0
2604 -2603 0
2606 -2607 -2607 0
-2606 2607 0
-2606 2607 0
-2608 2609 2606 0
2608 -2609 0
2608 -2606 0
2610 -2607 -2611 0
-2610 2607 0
-2610 2611 0
-784 2612 2610 0
784 -2612 0
784 -2610 0
2613 -2607 -2614 0
-2613 2607 0
-2613 2614 0
-782 2615 2613 0
782 -2615 0
782 -2613 0
2616 -2617 -2614 0
-2616 2617 0
-2616 2614 0
-785 2618 2616 0
785 -2618 0
785 -2616 0
2619 -2611 -2617 0
-2619 2611 0
-2619 2617 0
-783 2620 2619 0
783 -2620 0
783 -2619 0
2621 -2611 -2611 0
-2621 2611 0
-2621 2611 0
-2622 2623 2621 0
2622 -2623 0
2622 -2621 0
2624 -2625 -2626 0
-2624 2625 0
-2624 2626 0
2627 -2626 -2626 0
-2627 2626 0
-2627 2626 0
2628 -2626 -2625 0
-2628 2626 0
-2628 2625 0
2629 -2625 -2625 -2630 0
-2629 2625 0
-2629 2625 0
-2629 2630 0
-2631 2632 2624 2627 2628 2629 0
2631 -2632 0
2631 -2624 0
2631 -2627 0
2631 -2628 0
2631 -2629 0
2633 -2625 -2634 0
-2633 2625 0
-2633 2634 0
2635 -2626 -2634 0
-2635 2626 0
-2635 2634 0
2636 -2626 -2637 0
-2636 2626 0
-2636 2637 0
2638 -2625 -2637 -2630 0
-2638 2625 0
-2638 2637 0
-2638 2630 0
-189 2639 2633 2635 2636 2638 0
189 -2639 0
189 -2633 0
189 -2635 0
189 -2636 0
189 -2638 0
2640 -2625 -2641 0
-2640 2625 0
-2640 2641 0
2642 -2626 -2643 0
-2642 2626 0
-2642 2643 0
2644 -2626 -2641 0
-2644 2626 0
-2644 2641 0
2645 -2625 -2643 -2630 0
-2645 2625 0
-2645 2643 0
-2645 2630 0
-187 2646 2640 2642 2644 2645 0
187 -2646 0
187 -2640 0
187 -2642 0
187 -2644 0
187 -2645 0
2647 -2648 -2641 0
-2647 2648 0
-2647 2641 0
2649 -2650 -2641 0
-2649 2650 0
-2649 2641 0
2651 -2650 -2643 0
-2651 2650 0
-2651 2643 0
2652 -2648 -2643 -2630 0
-2652 2648 0
-2652 2643 0
-2652 2630 0
-190 2653 2647 2649 2651 2652 0
190 -2653 0
190 -2647 0
190 -2649 0
190 -2651 0
190 -2652 0
2654 -2637 -2650 0
-2654 2637 0
-2654 2650 0
2655 -2634 -2648 0
-2655 2634 0
-2655 2648 0
2656 -2634 -2650 0
-2656 2634 0
-2656 2650 0
2657 -2637 -2648 -2630 0
-2657 2637 0
-2657 2648 0
-2657 2630 0
-188 2658 2654 2655 2656 2657 0
188 -2658 0
188 -2654 0
188 -2655 0
188 -2656 0
188 -2657 0
2659 -2637 -2634 0
-2659 2637 0
-2659 2634 0
2660 -2634 -2634 0
-2660 2634 0
-2660 2634 0
2661 -2634 -2637 0
-2661 2634 0
-2661 2637 0
2662 -2637 -2637 -2630 0
-2662 2637 0
-2662 2637 0
-2662 2630 0
-2663 2664 2659 2660 2661 2662 0
2663 -2664 0
2663 -2659 0
2663 -2660 0
2663 -2661 0
2663 -2662 0
2665 -1788 -1788 0
-2665 1788 0
-2665 1788 0
-2666 1795 2665 0
2666 -1795 0
2666 -2665 0
2667 -1788 -1800 0
-2667 1788 0
-2667 1800 0
-409 1802 2667 0
409 -1802 0
409 -2667 0
2668 -1788 -1806 0
-2668 1788 0
-2668 1806 0
-407 1809 2668 0
407 -1809 0
407 -2668 0
2669 -1811 -1806 0
-2669 1811 0
-2669 1806 0
-410 1816 2669 0
410 -1816 0
410 -2669 0
2670 -1800 -1811 0
-2670 1800 0
-2670 1811 0
-408 1821 2670 0
408 -1821 0
408 -2670 0
2671 -1800 -1800 0
-2671 1800 0
-2671 1800 0
-2672 1827 2671 0
2672 -1827 0
2672 -2671 0
2673 -1259 -2674 0
-2673 1259 0
-2673 2674 0
2675 -2674 -2674 0
-2675 2674 0
-2675 2674 0
2676 -2674 -1259 0
-2676 2674 0
-2676 1259 0
2677 -1259 -1259 -2678 0
-2677 1259 0
-2677 1259 0
-2677 2678 0
-2679 1261 2673 2675 2676 2677 0
2679 -1261 0
2679 -2673 0
2679 -2675 0
2679 -2676 0
2679 -2677 0
2680 -1259 -2681 0
-2680 1259 0
-2680 2681 0
2682 -2674 -2681 0
-2682 2674 0
-2682 2681 0
2683 -2674 -1263 0
-2683 2674 0
-2683 1263 0
2684 -1259 -1263 -2678 0
-2684 1259 0
-2684 1263 0
-2684 2678 0
-54 1264 2680 2682 2683 2684 0
54 -1264 0
54 -2680 0
54 -2682 0
54 -2683 0
54 -2684 0
2685 -1259 -2686 0
-2685 1259 0
-2685 2686 0
2687 -2674 -1266 0
-2687 2674 0
-2687 1266 0
2688 -2674 -2686 0
-2688 2674 0
-2688 2686 0
2689 -1259 -1266 -2678 0
-2689 1259 0
-2689 1266 0
-2689 2678 0
-52 1267 2685 2687 2688 2689 0
52 -1267 0
52 -2685 0
52 -2687 0
52 -2688 0
52 -2689 0
2690 -1269 -2686 0
-2690 1269 0
-2690 2686 0
2691 -2692 -2686 0
-2691 2692 0
-2691 2686 0
2693 -2692 -1266 0
-2693 2692 0
-2693 1266 0
2694 -1269 -1266 -2678 0
-2694 1269 0
-2694 1266 0
-2694 2678 0
-55 1270 2690 2691 2693 2694 0
55 -1270 0
55 -2690 0
55 -2691 0
55 -2693 0
55 -2694 0
2695 -1263 -2692 0
-2695 1263 0
-2695 2692 0
2696 -2681 -1269 0
-2696 2681 0
-2696 1269 0
2697 -2681 -2692 0
-2697 2681 0
-2697 2692 0
2698 -1263 -1269 -2678 0
-2698 1263 0
-2698 1269 0
-2698 2678 0
-53 1272 2695 2696 2697 2698 0
53 -1272 0
53 -2695 0
53 -2696 0
53 -2697 0
53 -2698 0
2699 -1263 -2681 0
-2699 1263 0
-2699 2681 0
2700 -2681 -2681 0
-2700 2681 0
-2700 2681 0
2701 -2681 -1263 0
-2701 2681 0
-2701 1263 0
2702 -1263 -1263 -2678 0
-2702 1263 0
-2702 1263 0
-2702 2678 0
-2703 1275 2699 2700 2701 2702 0
2703 -1275 0
2703 -2699 0
2703 -2700 0
2703 -2701 0
2703 -2702 0
2704 -2705 -2706 0
-2704 2705 0
-2704 2706 0
2707 -2706 -2706 0
-2707 2706 0
-2707 2706 0
2708 -2706 -2705 0
-2708 2706 0
-2708 2705 0
2709 -2705 -2705 -2710 0
-2709 2705 0
-2709 2705 0
-2709 2710 0
-2711 2712 2704 2707 2708 2709 0
2711 -2712 0
2711 -2704 0
2711 -2707 0
2711 -2708 0
2711 -2709 0
2713 -2705 -2714 0
-2713 2705 0
-2713 2714 0
2715 -2706 -2714 0
-2715 2706 0
-2715 2714 0
2716 -2706 -2717 0
-2716 2706 0
-2716 2717 0
2718 -2705 -2717 -2710 0
-2718 2705 0
-2718 2717 0
-2718 2710 0
-449 2719 2713 2715 2716 2718 0
449 -2719 0
449 -2713 0
449 -2715 0
449 -2716 0
449 -2718 0
2720 -2705 -2721 0
-2720 2705 0
-2720 2721 0
2722 -2706 -2723 0
-2722 2706 0
-2722 2723 0
2724 -2706 -2721 0
-2724 2706 0
-2724 2721 0
2725 -2705 -2723 -2710 0
-2725 2705 0
-2725 2723 0
-2725 2710 0
-447 2726 2720 2722 2724 2725 0
447 -2726 0
447 -2720 0
447 -2722 0
447 -2724 0
447 -2725 0
2727 -2728 -2721 0
-2727 2728 0
-2727 2721 0
2729 -2730 -2721 0
-2729 2730 0
-2729 2721 0
2731 -2730 -2723 0
-2731 2730 0
-2731 2723 0
2732 -2728 -2723 -2710 0
-2732 2728 0
-2732 2723 0
-2732 2710 0
-450 2733 2727 2729 2731 2732 0
450 -2733 0
450 -2727 0
450 -2729 0
450 -2731 0
450 -2732 0
2734 -2717 -2730 0
-2734 2717 0
-2734 2730 0
2735 -2714 -2728 0
-2735 2714 0
-2735 2728 0
2736 -2714 -2730 0
-2736 2714 0
-2736 2730 0
2737 -2717 -2728 -2710 0
-2737 2717 0
-2737 2728 0
-2737 2710 0
-448 2738 2734 2735 2736 2737 0
448 -2738 0
448 -2734 0
448 -2735 0
448 -2736 0
448 -2737 0
2739 -2717 -2714 0
-2739 2717 0
-2739 2714 0
2740 -2714 -2714 0
-2740 2714 0
-2740 2714 0
2741 -2714 -2717 0
-2741 2714 0
-2741 2717 0
2742 -2717 -2717 -2710 0
-2742 2717 0
-2742 2717 0
-2742 2710 0
-2743 2744 2739 2740 2741 2742 0
2743 -2744 0
2743 -2739 0
2743 -2740 0
2743 -2741 0
2743 -2742 0
2745 -1492 -1492 0
-2745 1492 0
-2745 1492 0
-2746 1472 2745 0
2746 -1472 0
2746 -2745 0
2747 -1492 -1500 0
-2747 1492 0
-2747 1500 0
-1164 1476 2747 0
1164 -1476 0
1164 -2747 0
2748 -1492 -1495 0
-2748 1492 0
-2748 1495 0
-1162 1483 2748 0
1162 -1483 0
1162 -2748 0
2749 -1490 -1495 0
-2749 1490 0
-2749 1495 0
-1165 1485 2749 0
1165 -1485 0
1165 -2749 0
2750 -1500 -1490 0
-2750 1500 0
-2750 1490 0
-1163 1479 2750 0
1163 -1479 0
1163 -2750 0
2751 -1500 -1500 0
-2751 1500 0
-2751 1500 0
-2752 1506 2751 0
2752 -1506 0
2752 -2751 0
2753 -2120 -2096 0
-2753 2120 0
-2753 2096 0
2097 -2096 -2096 0
-2097 2096 0
-2097 2096 0
2754 -2096 -2120 0
-2754 2096 0
-2754 2120 0
2755 -2120 -2120 -2102 0
-2755 2120 0
-2755 2120 0
-2755 2102 0
-2756 2100 2753 2097 2754 2755 0
2756 -2100 0
2756 -2753 0
2756 -2097 0
2756 -2754 0
2756 -2755 0
2757 -2120 -2109 0
-2757 2120 0
-2757 2109 0
2758 -2096 -2109 0
-2758 2096 0
-2758 2109 0
2759 -2096 -2128 0
-2759 2096 0
-2759 2128 0
2760 -2120 -2128 -2102 0
-2760 2120 0
-2760 2128 0
-2760 2102 0
-549 2104 2757 2758 2759 2760 0
549 -2104 0
549 -2757 0
549 -2758 0
549 -2759 0
549 -2760 0
2761 -2120 -2116 0
-2761 2120 0
-2761 2116 0
2762 -2096 -2123 0
-2762 2096 0
-2762 2123 0
2763 -2096 -2116 0
-2763 2096 0
-2763 2116 0
2764 -2120 -2123 -2102 0
-2764 2120 0
-2764 2123 0
-2764 2102 0
-547 2111 2761 2762 2763 2764 0
547 -2111 0
547 -2761 0
547 -2762 0
547 -2763 0
547 -2764 0
2765 -2118 -2116 0
-2765 2118 0
-2765 2116 0
2766 -2095 -2116 0
-2766 2095 0
-2766 2116 0
2767 -2095 -2123 0
-2767 2095 0
-2767 2123 0
2768 -2118 -2123 -2102 0
-2768 2118 0
-2768 2123 0
-2768 2102 0
-550 2113 2765 2766 2767 2768 0
550 -2113 0
550 -2765 0
550 -2766 0
550 -2767 0
550 -2768 0
2769 -2128 -2095 0
-2769 2128 0
-2769 2095 0
2770 -2109 -2118 0
-2770 2109 0
-2770 2118 0
2771 -2109 -2095 0
-2771 2109 0
-2771 2095 0
2772 -2128 -2118 -2102 0
-2772 2128 0
-2772 2118 0
-2772 2102 0
-548 2107 2769 2770 2771 2772 0
548 -2107 0
548 -2769 0
548 -2770 0
548 -2771 0
548 -2772 0
2773 -2128 -2109 0
-2773 2128 0
-2773 2109 0
2774 -2109 -2109 0
-2774 2109 0
-2774 2109 0
2775 -2109 -2128 0
-2775 2109 0
-2775 2128 0
2776 -2128 -2128 -2102 0
-2776 2128 0
-2776 2128 0
-2776 2102 0
-2777 2134 2773 2774 2775 2776 0
2777 -2134 0
2777 -2773 0
2777 -2774 0
2777 -2775 0
2777 -2776 0
2778 -2779 -2780 0
-2778 2779 0
-2778 2780 0
2781 -2780 -2780 0
-2781 2780 0
-2781 2780 0
2782 -2780 -2779 0
-2782 2780 0
-2782 2779 0
2783 -2779 -2779 -2784 0
-2783 2779 0
-2783 2779 0
-2783 2784 0
-2785 2786 2778 2781 2782 2783 0
2785 -2786 0
2785 -2778 0
2785 -2781 0
2785 -2782 0
2785 -2783 0
2787 -2779 -2788 0
-2787 2779 0
-2787 2788 0
2789 -2780 -2788 0
-2789 2780 0
-2789 2788 0
2790 -2780 -2791 0
-2790 2780 0
-2790 2791 0
2792 -2779 -2791 -2784 0
-2792 2779 0
-2792 2791 0
-2792 2784 0
-789 2793 2787 2789 2790 2792 0
789 -2793 0
789 -2787 0
789 -2789 0
789 -2790 0
789 -2792 0
2794 -2779 -2795 0
-2794 2779 0
-2794 2795 0
2796 -2780 -2797 0
-2796 2780 0
-2796 2797 0
2798 -2780 -2795 0
-2798 2780 0
-2798 2795 0
2799 -2779 -2797 -2784 0
-2799 2779 0
-2799 2797 0
-2799 2784 0
-787 2800 2794 2796 2798 2799 0
787 -2800 0
787 -2794 0
787 -2796 0
787 -2798 0
787 -2799 0
2801 -2802 -2795 0
-2801 2802 0
-2801 2795 0
2803 -2804 -2795 0
-2803 2804 0
-2803 2795 0
2805 -2804 -2797 0
-2805 2804 0
-2805 2797 0
2806 -2802 -2797 -2784 0
-2806 2802 0
-2806 2797 0
-2806 2784 0
-790 2807 2801 2803 2805 2806 0
790 -2807 0
790 -2801 0
790 -2803 0
790 -2805 0
790 -2806 0
2808 -2791 -2804 0
-2808 2791 0
-2808 2804 0
2809 -2788 -2802 0
-2809 2788 0
-2809 2802 0
2810 -2788 -2804 0
-2810 2788 0
-2810 2804 0
2811 -2791 -2802 -2784 0
-2811 2791 0
-2811 2802 0
-2811 2784 0
-788 2812 2808 2809 2810 2811 0
788 -2812 0
788 -2808 0
788 -2809 0
788 -2810 0
788 -2811 0
2813 -2791 -2788 0
-2813 2791 0
-2813 2788 0
2814 -2788 -2788 0
-2814 2788 0
-2814 2788 0
2815 -2788 -2791 0
-2815 2788 0
-2815 2791 0
2816 -2791 -2791 -2784 0
-2816 2791 0
-2816 2791 0
-2816 2784 0
-2817 2818 2813 2814 2815 2816 0
2817 -2818 0
2817 -2813 0
2817 -2814 0
2817 -2815 0
2817 -2816 0
2819 -2520 -2820 0
-2819 2520 0
-2819 2820 0
2821 -2820 -2820 0
-2821 2820 0
-2821 2820 0
2822 -2820 -2520 0
-2822 2820 0
-2822 2520 0
2823 -2520 -2520 -2824 0
-2823 2520 0
-2823 2520 0
-2823 2824 0
-2825 2522 2819 2821 2822 2823 0
2825 -2522 0
2825 -2819 0
2825 -2821 0
2825 -2822 0
2825 -2823 0
2826 -2520 -2827 0
-2826 2520 0
-2826 2827 0
2828 -2820 -2827 0
-2828 2820 0
-2828 2827 0
2829 -2820 -2524 0
-2829 2820 0
-2829 2524 0
2830 -2520 -2524 -2824 0
-2830 2520 0
-2830 2524 0
-2830 2824 0
-749 2525 2826 2828 2829 2830 0
749 -2525 0
749 -2826 0
749 -2828 0
749 -2829 0
749 -2830 0
2831 -2520 -2832 0
-2831 2520 0
-2831 2832 0
2833 -2820 -2527 0
-2833 2820 0
-2833 2527 0
2834 -2820 -2832 0
-2834 2820 0
-2834 2832 0
2835 -2520 -2527 -2824 0
-2835 2520 0
-2835 2527 0
-2835 2824 0
-747 2528 2831 2833 2834 2835 0
747 -2528 0
747 -2831 0
747 -2833 0
747 -2834 0
747 -2835 0
2836 -2530 -2832 0
-2836 2530 0
-2836 2832 0
2837 -2838 -2832 0
-2837 2838 0
-2837 2832 0
2839 -2838 -2527 0
-2839 2838 0
-2839 2527 0
2840 -2530 -2527 -2824 0
-2840 2530 0
-2840 2527 0
-2840 2824 0
-750 2531 2836 2837 2839 2840 0
750 -2531 0
750 -2836 0
750 -2837 0
750 -2839 0
750 -2840 0
2841 -2524 -2838 0
-2841 2524 0
-2841 2838 0
2842 -2827 -2530 0
-2842 2827 0
-2842 2530 0
2843 -2827 -2838 0
-2843 2827 0
-2843 2838 0
2844 -2524 -2530 -2824 0
-2844 2524 0
-2844 2530 0
-2844 2824 0
-748 2533 2841 2842 2843 2844 0
748 -2533 0
748 -2841 0
748 -2842 0
748 -2843 0
748 -2844 0
2845 -2524 -2827 0
-2845 2524 0
-2845 2827 0
2846 -2827 -2827 0
-2846 2827 0
-2846 2827 0
2847 -2827 -2524 0
-2847 2827 0
-2847 2524 0
2848 -2524 -2524 -2824 0
-2848 2524 0
-2848 2524 0
-2848 2824 0
-2849 2536 2845 2846 2847 2848 0
2849 -2536 0
2849 -2845 0
2849 -2846 0
2849 -2847 0
2849 -2848 0
2850 -1809 -1802 0
-2850 1809 0
-2850 1802 0
2851 -1802 -1802 0
-2851 1802 0
-2851 1802 0
2852 -1802 -1809 0
-2852 1802 0
-2852 1809 0
2853 -1809 -1809 -1827 0
-2853 1809 0
-2853 1809 0
-2853 1827 0
-2854 1795 2850 2851 2852 2853 0
2854 -1795 0
2854 -2850 0
2854 -2851 0
2854 -2852 0
2854 -2853 0
2855 -1809 -1797 0
-2855 1809 0
-2855 1797 0
2856 -1802 -1797 0
-2856 1802 0
-2856 1797 0
2857 -1802 -1804 0
-2857 1802 0
-2857 1804 0
2858 -1809 -1804 -1827 0
-2858 1809 0
-2858 1804 0
-2858 1827 0
-84 1789 2855 2856 2857 2858 0
84 -1789 0
84 -2855 0
84 -2856 0
84 -2857 0
84 -2858 0
2859 -1809 -1800 0
-2859 1809 0
-2859 1800 0
2860 -1802 -1806 0
-2860 1802 0
-2860 1806 0
2861 -1802 -1800 0
-2861 1802 0
-2861 1800 0
2862 -1809 -1806 -1827 0
-2862 1809 0
-2862 1806 0
-2862 1827 0
-82 1788 2859 2860 2861 2862 0
82 -1788 0
82 -2859 0
82 -2860 0
82 -2861 0
82 -2862 0
2863 -1816 -1800 0
-2863 1816 0
-2863 1800 0
2864 -1821 -1800 0
-2864 1821 0
-2864 1800 0
2865 -1821 -1806 0
-2865 1821 0
-2865 1806 0
2866 -1816 -1806 -1827 0
-2866 1816 0
-2866 1806 0
-2866 1827 0
-85 1811 2863 2864 2865 2866 0
85 -1811 0
85 -2863 0
85 -2864 0
85 -2865 0
85 -2866 0
2867 -1804 -1821 0
-2867 1804 0
-2867 1821 0
2868 -1797 -1816 0
-2868 1797 0
-2868 1816 0
2869 -1797 -1821 0
-2869 1797 0
-2869 1821 0
2870 -1804 -1816 -1827 0
-2870 1804 0
-2870 1816 0
-2870 1827 0
-83 1813 2867 2868 2869 2870 0
83 -1813 0
83 -2867 0
83 -2868 0
83 -2869 0
83 -2870 0
2871 -1804 -1797 0
-2871 1804 0
-2871 1797 0
1823 -1797 -1797 0
-1823 1797 0
-1823 1797 0
2872 -1797 -1804 0
-2872 1797 0
-2872 1804 0
2873 -1804 -1804 -1827 0
-2873 1804 0
-2873 1804 0
-2873 1827 0
-2874 1793 2871 1823 2872 2873 0
2874 -1793 0
2874 -2871 0
2874 -1823 0
2874 -2872 0
2874 -2873 0
2875 -1295 -2876 0
-2875 1295 0
-2875 2876 0
2877 -2876 -2876 0
-2877 2876 0
-2877 2876 0
2878 -2876 -1295 0
-2878 2876 0
-2878 1295 0
2879 -1295 -1295 -2880 0
-2879 1295 0
-2879 1295 0
-2879 2880 0
-2881 1297 2875 2877 2878 2879 0
2881 -1297 0
2881 -2875 0
2881 -2877 0
2881 -2878 0
2881 -2879 0
2882 -1295 -2883 0
-2882 1295 0
-2882 2883 0
2884 -2876 -2883 0
-2884 2876 0
-2884 2883 0
2885 -2876 -1299 0
-2885 2876 0
-2885 1299 0
2886 -1295 -1299 -2880 0
-2886 1295 0
-2886 1299 0
-2886 2880 0
-284 1300 2882 2884 2885 2886 0
284 -1300 0
284 -2882 0
284 -2884 0
284 -2885 0
284 -2886 0
2887 -1295 -2888 0
-2887 1295 0
-2887 2888 0
2889 -2876 -1302 0
-2889 2876 0
-2889 1302 0
2890 -2876 -2888 0
-2890 2876 0
-2890 2888 0
2891 -1295 -1302 -2880 0
-2891 1295 0
-2891 1302 0
-2891 2880 0
-282 1303 2887 2889 2890 2891 0
282 -1303 0
282 -2887 0
282 -2889 0
282 -2890 0
282 -2891 0
2892 -1305 -2888 0
-2892 1305 0
-2892 2888 0
2893 -2894 -2888 0
-2893 2894 0
-2893 2888 0
2895 -2894 -1302 0
-2895 2894 0
-2895 1302 0
2896 -1305 -1302 -2880 0
-2896 1305 0
-2896 1302 0
-2896 2880 0
-285 1306 2892 2893 2895 2896 0
285 -1306 0
285 -2892 0
285 -2893 0
285 -2895 0
285 -2896 0
2897 -1299 -2894 0
-2897 1299 0
-2897 2894 0
2898 -2883 -1305 0
-2898 2883 0
-2898 1305 0
2899 -2883 -2894 0
-2899 2883 0
-2899 2894 0
2900 -1299 -1305 -2880 0
-2900 1299 0
-2900 1305 0
-2900 2880 0
-283 1308 2897 2898 2899 2900 0
283 -1308 0
283 -2897 0
283 -2898 0
283 -2899 0
283 -2900 0
2901 -1299 -2883 0
-2901 1299 0
-2901 2883 0
2902 -2883 -2883 0
-2902 2883 0
-2902 2883 0
2903 -2883 -1299 0
-2903 2883 0
-2903 1299 0
2904 -1299 -1299 -2880 0
-2904 1299 0
-2904 1299 0
-2904 2880 0
-2905 1311 2901 2902 2903 2904 0
2905 -1311 0
2905 -2901 0
2905 -2902 0
2905 -2903 0
2905 -2904 0
2906 -2907 -2907 0
-2906 2907 0
-2906 2907 0
-2908 2909 2906 0
2908 -2909 0
2908 -2906 0
2910 -2907 -2911 0
-2910 2907 0
-2910 2911 0
-874 2912 2910 0
874 -2912 0
874 -2910 0
2913 -2907 -2914 0
-2913 2907 0
-2913 2914 0
-872 2915 2913 0
872 -2915 0
872 -2913 0
2916 -2917 -2914 0
-2916 2917 0
-2916 2914 0
-875 2918 2916 0
875 -2918 0
875 -2916 0
2919 -2911 -2917 0
-2919 2911 0
-2919 2917 0
-873 2920 2919 0
873 -2920 0
873 -2919 0
2921 -2911 -2911 0
-2921 2911 0
-2921 2911 0
-2922 2923 2921 0
2922 -2923 0
2922 -2921 0
2924 -2925 -2926 0
-2924 2925 0
-2924 2926 0
2927 -2926 -2926 0
-2927 2926 0
-2927 2926 0
2928 -2926 -2925 0
-2928 2926 0
-2928 2925 0
2929 -2925 -2925 -2930 0
-2929 2925 0
-2929 2925 0
-2929 2930 0
-2931 2932 2924 2927 2928 2929 0
2931 -2932 0
2931 -2924 0
2931 -2927 0
2931 -2928 0
2931 -2929 0
2933 -2925 -2934 0
-2933 2925 0
-2933 2934 0
2935 -2926 -2934 0
-2935 2926 0
-2935 2934 0
2936 -2926 -2937 0
-2936 2926 0
-2936 2937 0
2938 -2925 -2937 -2930 0
-2938 2925 0
-2938 2937 0
-2938 2930 0
-264 2939 2933 2935 2936 2938 0
264 -2939 0
264 -2933 0
264 -2935 0
264 -2936 0
264 -2938 0
2940 -2925 -2941 0
-2940 2925 0
-2940 2941 0
2942 -2926 -2943 0
-2942 2926 0
-2942 2943 0
2944 -2926 -2941 0
-2944 2926 0
-2944 2941 0
2945 -2925 -2943 -2930 0
-2945 2925 0
-2945 2943 0
-2945 2930 0
-262 2946 2940 2942 2944 2945 0
262 -2946 0
262 -2940 0
262 -2942 0
262 -2944 0
262 -2945 0
2947 -2948 -2941 0
-2947 2948 0
-2947 2941 0
2949 -2950 -2941 0
-2949 2950 0
-2949 2941 0
2951 -2950 -2943 0
-2951 2950 0
-2951 2943 0
2952 -2948 -2943 -2930 0
-2952 2948 0
-2952 2943 0
-2952 2930 0
-265 2953 2947 2949 2951 2952 0
265 -2953 0
265 -2947 0
265 -2949 0
265 -2951 0
265 -2952 0
2954 -2937 -2950 0
-2954 2937 0
-2954 2950 0
2955 -2934 -2948 0
-2955 2934 0
-2955 2948 0
2956 -2934 -2950 0
-2956 2934 0
-2956 2950 0
2957 -2937 -2948 -2930 0
-2957 2937 0
-2957 2948 0
-2957 2930 0
-263 2958 2954 2955 2956 2957 0
263 -2958 0
263 -2954 0
263 -2955 0
263 -2956 0
263 -2957 0
2959 -2937 -2934 0
-2959 2937 0
-2959 2934 0
2960 -2934 -2934 0
-2960 2934 0
-2960 2934 0
2961 -2934 -2937 0
-2961 2934 0
-2961 2937 0
2962 -2937 -2937 -2930 0
-2962 2937 0
-2962 2937 0
-2962 2930 0
-2963 2964 2959 2960 2961 2962 0
2963 -2964 0
2963 -2959 0
2963 -2960 0
2963 -2961 0
2963 -2962 0
2965 -2966 -2967 0
-2965 2966 0
-2965 2967 0
2968 -2967 -2967 0
-2968 2967 0
-2968 2967 0
2969 -2967 -2966 0
-2969 2967 0
-2969 2966 0
2970 -2966 -2966 -2971 0
-2970 2966 0
-2970 2966 0
-2970 2971 0
-2972 2973 2965 2968 2969 2970 0
2972 -2973 0
2972 -2965 0
2972 -2968 0
2972 -2969 0
2972 -2970 0
2974 -2966 -2975 0
-2974 2966 0
-2974 2975 0
2976 -2967 -2975 0
-2976 2967 0
-2976 2975 0
2977 -2967 -2978 0
-2977 2967 0
-2977 2978 0
2979 -2966 -2978 -2971 0
-2979 2966 0
-2979 2978 0
-2979 2971 0
-124 2980 2974 2976 2977 2979 0
124 -2980 0
124 -2974 0
124 -2976 0
124 -2977 0
124 -2979 0
2981 -2966 -2982 0
-2981 2966 0
-2981 2982 0
2983 -2967 -2984 0
-2983 2967 0
-2983 2984 0
2985 -2967 -2982 0
-2985 2967 0
-2985 2982 0
2986 -2966 -2984 -2971 0
-2986 2966 0
-2986 2984 0
-2986 2971 0
-122 2987 2981 2983 2985 2986 0
122 -2987 0
122 -2981 0
122 -2983 0
122 -2985 0
122 -2986 0
2988 -2989 -2982 0
-2988 2989 0
-2988 2982 0
2990 -2991 -2982 0
-2990 2991 0
-2990 2982 0
2992 -2991 -2984 0
-2992 2991 0
-2992 2984 0
2993 -2989 -2984 -2971 0
-2993 2989 0
-2993 2984 0
-2993 2971 0
-125 2994 2988 2990 2992 2993 0
125 -2994 0
125 -2988 0
125 -2990 0
125 -2992 0
125 -2993 0
2995 -2978 -2991 0
-2995 2978 0
-2995 2991 0
2996 -2975 -2989 0
-2996 2975 0
-2996 2989 0
2997 -2975 -2991 0
-2997 2975 0
-2997 2991 0
2998 -2978 -2989 -2971 0
-2998 2978 0
-2998 2989 0
-2998 2971 0
-123 2999 2995 2996 2997 2998 0
123 -2999 0
123 -2995 0
123 -2996 0
123 -2997 0
123 -2998 0
3000 -2978 -2975 0
-3000 2978 0
-3000 2975 0
3001 -2975 -2975 0
-3001 2975 0
-3001 2975 0
3002 -2975 -2978 0
-3002 2975 0
-3002 2978 0
3003 -2978 -2978 -2971 0
-3003 2978 0
-3003 2978 0
-3003 2971 0
-3004 3005 3000 3001 3002 3003 0
3004 -3005 0
3004 -3000 0
3004 -3001 0
3004 -3002 0
3004 -3003 0
3006 -3007 -3007 0
-3006 3007 0
-3006 3007 0
-3008 3009 3006 0
3008 -3009 0
3008 -3006 0
3010 -3007 -3011 0
-3010 3007 0
-3010 3011 0
-1049 3012 3010 0
1049 -3012 0
1049 -3010 0
3013 -3007 -3014 0
-3013 3007 0
-3013 3014 0
-1047 3015 3013 0
1047 -3015 0
1047 -3013 0
3016 -3017 -3014 0
-3016 3017 0
-3016 3014 0
-1050 3018 3016 0
1050 -3018 0
1050 -3016 0
3019 -3011 -3017 0
-3019 3011 0
-3019 3017 0
-1048 3020 3019 0
1048 -3020 0
1048 -3019 0
3021 -3011 -3011 0
-3021 3011 0
-3021 3011 0
-3022 3023 3021 0
3022 -3023 0
3022 -3021 0
3024 -2277 -2253 0
-3024 2277 0
-3024 2253 0
2254 -2253 -2253 0
-2254 2253 0
-2254 2253 0
3025 -2253 -2277 0
-3025 2253 0
-3025 2277 0
3026 -2277 -2277 -2259 0
-3026 2277 0
-3026 2277 0
-3026 2259 0
-3027 2257 3024 2254 3025 3026 0
3027 -2257 0
3027 -3024 0
3027 -2254 0
3027 -3025 0
3027 -3026 0
3028 -2277 -2266 0
-3028 2277 0
-3028 2266 0
3029 -2253 -2266 0
-3029 2253 0
-3029 2266 0
3030 -2253 -2285 0
-3030 2253 0
-3030 2285 0
3031 -2277 -2285 -2259 0
-3031 2277 0
-3031 2285 0
-3031 2259 0
-209 2261 3028 3029 3030 3031 0
209 -2261 0
209 -3028 0
209 -3029 0
209 -3030 0
209 -3031 0
3032 -2277 -2273 0
-3032 2277 0
-3032 2273 0
3033 -2253 -2280 0
-3033 2253 0
-3033 2280 0
3034 -2253 -2273 0
-3034 2253 0
-3034 2273 0
3035 -2277 -2280 -2259 0
-3035 2277 0
-3035 2280 0
-3035 2259 0
-207 2268 3032 3033 3034 3035 0
207 -2268 0
207 -3032 0
207 -3033 0
207 -3034 0
207 -3035 0
3036 -2275 -2273 0
-3036 2275 0
-3036 2273 0
3037 -2252 -2273 0
-3037 2252 0
-3037 2273 0
3038 -2252 -2280 0
-3038 2252 0
-3038 2280 0
3039 -2275 -2280 -2259 0
-3039 2275 0
-3039 2280 0
-3039 2259 0
-210 2270 3036 3037 3038 3039 0
210 -2270 0
210 -3036 0
210 -3037 0
210 -3038 0
210 -3039 0
3040 -2285 -2252 0
-3040 2285 0
-3040 2252 0
3041 -2266 -2275 0
-3041 2266 0
-3041 2275 0
3042 -2266 -2252 0
-3042 2266 0
-3042 2252 0
3043 -2285 -2275 -2259 0
-3043 2285 0
-3043 2275 0
-3043 2259 0
-208 2264 3040 3041 3042 3043 0
208 -2264 0
208 -3040 0
208 -3041 0
208 -3042 0
208 -3043 0
3044 -2285 -2266 0
-3044 2285 0
-3044 2266 0
3045 -2266 -2266 0
-3045 2266 0
-3045 2266 0
3046 -2266 -2285 0
-3046 2266 0
-3046 2285 0
3047 -2285 -2285 -2259 0
-3047 2285 0
-3047 2285 0
-3047 2259 0
-3048 2291 3044 3045 3046 3047 0
3048 -2291 0
3048 -3044 0
3048 -3045 0
3048 -3046 0
3048 -3047 0
3049 -3050 -3050 0
-3049 3050 0
-3049 3050 0
-3051 3052 3049 0
3051 -3052 0
3051 -3049 0
3053 -3050 -1362 0
-3053 3050 0
-3053 1362 0
-959 3054 3053 0
959 -3054 0
959 -3053 0
3055 -3050 -1360 0
-3055 3050 0
-3055 1360 0
-957 3056 3055 0
957 -3056 0
957 -3055 0
3057 -1359 -1360 0
-3057 1359 0
-3057 1360 0
-960 1356 3057 0
960 -1356 0
960 -3057 0
3058 -1362 -1359 0
-3058 1362 0
-3058 1359 0
-958 1353 3058 0
958 -1353 0
958 -3058 0
3059 -1362 -1362 0
-3059 1362 0
-3059 1362 0
-3060 1365 3059 0
3060 -1365 0
3060 -3059 0
3061 -2185 -3062 0
-3061 2185 0
-3061 3062 0
3063 -3062 -3062 0
-3063 3062 0
-3063 3062 0
3064 -3062 -2185 0
-3064 3062 0
-3064 2185 0
3065 -2185 -2185 -3066 0
-3065 2185 0
-3065 2185 0
-3065 3066 0
-3067 2187 3061 3063 3064 3065 0
3067 -2187 0
3067 -3061 0
3067 -3063 0
3067 -3064 0
3067 -3065 0
3068 -2185 -3069 0
-3068 2185 0
-3068 3069 0
3070 -3062 -3069 0
-3070 3062 0
-3070 3069 0
3071 -3062 -2189 0
-3071 3062 0
-3071 2189 0
3072 -2185 -2189 -3066 0
-3072 2185 0
-3072 2189 0
-3072 3066 0
-344 2190 3068 3070 3071 3072 0
344 -2190 0
344 -3068 0
344 -3070 0
344 -3071 0
344 -3072 0
3073 -2185 -3074 0
-3073 2185 0
-3073 3074 0
3075 -3062 -2192 0
-3075 3062 0
-3075 2192 0
3076 -3062 -3074 0
-3076 3062 0
-3076 3074 0
3077 -2185 -2192 -3066 0
-3077 2185 0
-3077 2192 0
-3077 3066 0
-342 2193 3073 3075 3076 3077 0
342 -2193 0
342 -3073 0
342 -3075 0
342 -3076 0
342 -3077 0
3078 -2195 -3074 0
-3078 2195 0
-3078 3074 0
3079 -3080 -3074 0
-3079 3080 0
-3079 3074 0
3081 -3080 -2192 0
-3081 3080 0
-3081 2192 0
3082 -2195 -2192 -3066 0
-3082 2195 0
-3082 2192 0
-3082 3066 0
-345 2196 3078 3079 3081 3082 0
345 -2196 0
345 -3078 0
345 -3079 0
345 -3081 0
345 -3082 0
3083 -2189 -3080 0
-3083 2189 0
-3083 3080 0
3084 -3069 -2195 0
-3084 3069 0
-3084 2195 0
3085 -3069 -3080 0
-3085 3069 0
-3085 3080 0
3086 -2189 -2195 -3066 0
-3086 2189 0
-3086 2195 0
-3086 3066 0
-343 2198 3083 3084 3085 3086 0
343 -2198 0
343 -3083 0
343 -3084 0
343 -3085 0
343 -3086 0
3087 -2189 -3069 0
-3087 2189 0
-3087 3069 0
3088 -3069 -3069 0
-3088 3069 0
-3088 3069 0
3089 -3069 -2189 0
-3089 3069 0
-3089 2189 0
3090 -2189 -2189 -3066 0
-3090 2189 0
-3090 2189 0
-3090 3066 0
-3091 2201 3087 3088 3089 3090 0
3091 -2201 0
3091 -3087 0
3091 -3088 0
3091 -3089 0
3091 -3090 0
3092 -2625 -2625 0
-3092 2625 0
-3092 2625 0
-3093 2632 3092 0
3093 -2632 0
3093 -3092 0
3094 -2625 -2637 0
-3094 2625 0
-3094 2637 0
-534 2639 3094 0
534 -2639 0
534 -3094 0
3095 -2625 -2643 0
-3095 2625 0
-3095 2643 0
-532 2646 3095 0
532 -2646 0
532 -3095 0
3096 -2648 -2643 0
-3096 2648 0
-3096 2643 0
-535 2653 3096 0
535 -2653 0
535 -3096 0
3097 -2637 -2648 0
-3097 2637 0
-3097 2648 0
-533 2658 3097 0
533 -2658 0
533 -3097 0
3098 -2637 -2637 0
-3098 2637 0
-3098 2637 0
-3099 2664 3098 0
3099 -2664 0
3099 -3098 0
3100 -2589 -3101 0
-3100 2589 0
-3100 3101 0
3102 -3101 -3101 0
-3102 3101 0
-3102 3101 0
3103 -3101 -2589 0
-3103 3101 0
-3103 2589 0
3104 -2589 -2589 -3105 0
-3104 2589 0
-3104 2589 0
-3104 3105 0
-3106 2591 3100 3102 3103 3104 0
3106 -2591 0
3106 -3100 0
3106 -3102 0
3106 -3103 0
3106 -3104 0
3107 -2589 -3108 0
-3107 2589 0
-3107 3108 0
3109 -3101 -3108 0
-3109 3101 0
-3109 3108 0
3110 -3101 -2593 0
-3110 3101 0
-3110 2593 0
3111 -2589 -2593 -3105 0
-3111 2589 0
-3111 2593 0
-3111 3105 0
-249 2594 3107 3109 3110 3111 0
249 -2594 0
249 -3107 0
249 -3109 0
249 -3110 0
249 -3111 0
3112 -2589 -3113 0
-3112 2589 0
-3112 3113 0
3114 -3101 -2596 0
-3114 3101 0
-3114 2596 0
3115 -3101 -3113 0
-3115 3101 0
-3115 3113 0
3116 -2589 -2596 -3105 0
-3116 2589 0
-3116 2596 0
-3116 3105 0
-247 2597 3112 3114 3115 3116 0
247 -2597 0
247 -3112 0
247 -3114 0
247 -3115 0
247 -3116 0
3117 -2599 -3113 0
-3117 2599 0
-3117 3113 0
3118 -3119 -3113 0
-3118 3119 0
-3118 3113 0
3120 -3119 -2596 0
-3120 3119 0
-3120 2596 0
3121 -2599 -2596 -3105 0
-3121 2599 0
-3121 2596 0
-3121 3105 0
-250 2600 3117 3118 3120 3121 0
250 -2600 0
250 -3117 0
250 -3118 0
250 -3120 0
250 -3121 0
3122 -2593 -3119 0
-3122 2593 0
-3122 3119 0
3123 -3108 -2599 0
-3123 3108 0
-3123 2599 0
3124 -3108 -3119 0
-3124 3108 0
-3124 3119 0
3125 -2593 -2599 -3105 0
-3125 2593 0
-3125 2599 0
-3125 3105 0
-248 2602 3122 3123 3124 3125 0
248 -2602 0
248 -3122 0
248 -3123 0
248 -3124 0
248 -3125 0
3126 -2593 -3108 0
-3126 2593 0
-3126 3108 0
3127 -3108 -3108 0
-3127 3108 0
-3127 3108 0
3128 -3108 -2593 0
-3128 3108 0
-3128 2593 0
3129 -2593 -2593 -3105 0
-3129 2593 0
-3129 2593 0
-3129 3105 0
-3130 2605 3126 3127 3128 3129 0
3130 -2605 0
3130 -3126 0
3130 -3127 0
3130 -3128 0
3130 -3129 0
3131 -2228 -2204 0
-3131 2228 0
-3131 2204 0
2205 -2204 -2204 0
-2205 2204 0
-2205 2204 0
3132 -2204 -2228 0
-3132 2204 0
-3132 2228 0
3133 -2228 -2228 -2210 0
-3133 2228 0
-3133 2228 0
-3133 2210 0
-3134 2208 3131 2205 3132 3133 0
3134 -2208 0
3134 -3131 0
3134 -2205 0
3134 -3132 0
3134 -3133 0
3135 -2228 -2217 0
-3135 2228 0
-3135 2217 0
3136 -2204 -2217 0
-3136 2204 0
-3136 2217 0
3137 -2204 -2236 0
-3137 2204 0
-3137 2236 0
3138 -2228 -2236 -2210 0
-3138 2228 0
-3138 2236 0
-3138 2210 0
-519 2212 3135 3136 3137 3138 0
519 -2212 0
519 -3135 0
519 -3136 0
519 -3137 0
519 -3138 0
3139 -2228 -2224 0
-3139 2228 0
-3139 2224 0
3140 -2204 -2231 0
-3140 2204 0
-3140 2231 0
3141 -2204 -2224 0
-3141 2204 0
-3141 2224 0
3142 -2228 -2231 -2210 0
-3142 2228 0
-3142 2231 0
-3142 2210 0
-517 2219 3139 3140 3141 3142 0
517 -2219 0
517 -3139 0
517 -3140 0
517 -3141 0
517 -3142 0
3143 -2226 -2224 0
-3143 2226 0
-3143 2224 0
3144 -2203 -2224 0
-3144 2203 0
-3144 2224 0
3145 -2203 -2231 0
-3145 2203 0
-3145 2231 0
3146 -2226 -2231 -2210 0
-3146 2226 0
-3146 2231 0
-3146 2210 0
-520 2221 3143 3144 3145 3146 0
520 -2221 0
520 -3143 0
520 -3144 0
520 -3145 0
520 -3146 0
3147 -2236 -2203 0
-3147 2236 0
-3147 2203 0
3148 -2217 -2226 0
-3148 2217 0
-3148 2226 0
3149 -2217 -2203 0
-3149 2217 0
-3149 2203 0
3150 -2236 -2226 -2210 0
-3150 2236 0
-3150 2226 0
-3150 2210 0
-518 2215 3147 3148 3149 3150 0
518 -2215 0
518 -3147 0
518 -3148 0
518 -3149 0
518 -3150 0
3151 -2236 -2217 0
-3151 2236 0
-3151 2217 0
3152 -2217 -2217 0
-3152 2217 0
-3152 2217 0
3153 -2217 -2236 0
-3153 2217 0
-3153 2236 0
3154 -2236 -2236 -2210 0
-3154 2236 0
-3154 2236 0
-3154 2210 0
-3155 2242 3151 3152 3153 3154 0
3155 -2242 0
3155 -3151 0
3155 -3152 0
3155 -3153 0
3155 -3154 0
3156 -3157 -3157 0
-3156 3157 0
-3156 3157 0
-3158 3159 3156 0
3158 -3159 0
3158 -3156 0
3160 -3157 -3161 0
-3160 3157 0
-3160 3161 0
-709 3162 3160 0
709 -3162 0
709 -3160 0
3163 -3157 -3164 0
-3163 3157 0
-3163 3164 0
-707 3165 3163 0
707 -3165 0
707 -3163 0
3166 -3167 -3164 0
-3166 3167 0
-3166 3164 0
-710 3168 3166 0
710 -3168 0
710 -3166 0
3169 -3161 -3167 0
-3169 3161 0
-3169 3167 0
-708 3170 3169 0
708 -3170 0
708 -3169 0
3171 -3161 -3161 0
-3171 3161 0
-3171 3161 0
-3172 3173 3171 0
3172 -3173 0
3172 -3171 0
3174 -3175 -3175 0
-3174 3175 0
-3174 3175 0
-3176 3177 3174 0
3176 -3177 0
3176 -3174 0
3178 -3175 -3179 0
-3178 3175 0
-3178 3179 0
-754 3180 3178 0
754 -3180 0
754 -3178 0
3181 -3175 -3182 0
-3181 3175 0
-3181 3182 0
-752 3183 3181 0
752 -3183 0
752 -3181 0
3184 -3185 -3182 0
-3184 3185 0
-3184 3182 0
-755 3186 3184 0
755 -3186 0
755 -3184 0
3187 -3179 -3185 0
-3187 3179 0
-3187 3185 0
-753 3188 3187 0
753 -3188 0
753 -3187 0
3189 -3179 -3179 0
-3189 3179 0
-3189 3179 0
-3190 3191 3189 0
3190 -3191 0
3190 -3189 0
3192 -3193 -3194 0
-3192 3193 0
-3192 3194 0
3195 -3194 -3194 0
-3195 3194 0
-3195 3194 0
3196 -3194 -3193 0
-3196 3194 0
-3196 3193 0
3197 -3193 -3193 -3198 0
-3197 3193 0
-3197 3193 0
-3197 3198 0
-3199 3200 3192 3195 3196 3197 0
3199 -3200 0
3199 -3192 0
3199 -3195 0
3199 -3196 0
3199 -3197 0
3201 -3193 -3202 0
-3201 3193 0
-3201 3202 0
3203 -3194 -3202 0
-3203 3194 0
-3203 3202 0
3204 -3194 -3205 0
-3204 3194 0
-3204 3205 0
3206 -3193 -3205 -3198 0
-3206 3193 0
-3206 3205 0
-3206 3198 0
-674 3207 3201 3203 3204 3206 0
674 -3207 0
674 -3201 0
674 -3203 0
674 -3204 0
674 -3206 0
3208 -3193 -3209 0
-3208 3193 0
-3208 3209 0
3210 -3194 -3211 0
-3210 3194 0
-3210 3211 0
3212 -3194 -3209 0
-3212 3194 0
-3212 3209 0
3213 -3193 -3211 -3198 0
-3213 3193 0
-3213 3211 0
-3213 3198 0
-672 3214 3208 3210 3212 3213 0
672 -3214 0
672 -3208 0
672 -3210 0
672 -3212 0
672 -3213 0
3215 -3216 -3209 0
-3215 3216 0
-3215 3209 0
3217 -3218 -3209 0
-3217 3218 0
-3217 3209 0
3219 -3218 -3211 0
-3219 3218 0
-3219 3211 0
3220 -3216 -3211 -3198 0
-3220 3216 0
-3220 3211 0
-3220 3198 0
-675 3221 3215 3217 3219 3220 0
675 -3221 0
675 -3215 0
675 -3217 0
675 -3219 0
675 -3220 0
3222 -3205 -3218 0
-3222 3205 0
-3222 3218 0
3223 -3202 -3216 0
-3223 3202 0
-3223 3216 0
3224 -3202 -3218 0
-3224 3202 0
-3224 3218 0
3225 -3205 -3216 -3198 0
-3225 3205 0
-3225 3216 0
-3225 3198 0
-673 3226 3222 3223 3224 3225 0
673 -3226 0
673 -3222 0
673 -3223 0
673 -3224 0
673 -3225 0
3227 -3205 -3202 0
-3227 3205 0
-3227 3202 0
3228 -3202 -3202 0
-3228 3202 0
-3228 3202 0
3229 -3202 -3205 0
-3229 3202 0
-3229 3205 0
3230 -3205 -3205 -3198 0
-3230 3205 0
-3230 3205 0
-3230 3198 0
-3231 3232 3227 3228 3229 3230 0
3231 -3232 0
3231 -3227 0
3231 -3228 0
3231 -3229 0
3231 -3230 0
3233 -1809 -1809 0
-3233 1809 0
-3233 1809 0
-3234 1795 3233 0
3234 -1795 0
3234 -3233 0
3235 -1809 -1804 0
-3235 1809 0
-3235 1804 0
-379 1789 3235 0
379 -1789 0
379 -3235 0
3236 -1809 -1806 0
-3236 1809 0
-3236 1806 0
-377 1788 3236 0
377 -1788 0
377 -3236 0
3237 -1816 -1806 0
-3237 1816 0
-3237 1806 0
-380 1811 3237 0
380 -1811 0
380 -3237 0
3238 -1804 -1816 0
-3238 1804 0
-3238 1816 0
-378 1813 3238 0
378 -1813 0
378 -3238 0
3239 -1804 -1804 0
-3239 1804 0
-3239 1804 0
-3240 1793 3239 0
3240 -1793 0
3240 -3239 0
3241 -3242 -3242 0
-3241 3242 0
-3241 3242 0
-3243 3244 3241 0
3243 -3244 0
3243 -3241 0
3245 -3242 -3246 0
-3245 3242 0
-3245 3246 0
-929 3247 3245 0
929 -3247 0
929 -3245 0
3248 -3242 -3249 0
-3248 3242 0
-3248 3249 0
-927 3250 3248 0
927 -3250 0
927 -3248 0
3251 -3252 -3249 0
-3251 3252 0
-3251 3249 0
-930 3253 3251 0
930 -3253 0
930 -3251 0
3254 -3246 -3252 0
-3254 3246 0
-3254 3252 0
-928 3255 3254 0
928 -3255 0
928 -3254 0
3256 -3246 -3246 0
-3256 3246 0
-3256 3246 0
-3257 3258 3256 0
3257 -3258 0
3257 -3256 0
3259 -2169 -2169 0
-3259 2169 0
-3259 2169 0
-3260 2149 3259 0
3260 -2149 0
3260 -3259 0
3261 -2169 -2177 0
-3261 2169 0
-3261 2177 0
-919 2153 3261 0
919 -2153 0
919 -3261 0
3262 -2169 -2172 0
-3262 2169 0
-3262 2172 0
-917 2160 3262 0
917 -2160 0
917 -3262 0
3263 -2167 -2172 0
-3263 2167 0
-3263 2172 0
-920 2162 3263 0
920 -2162 0
920 -3263 0
3264 -2177 -2167 0
-3264 2177 0
-3264 2167 0
-918 2156 3264 0
918 -2156 0
918 -3264 0
3265 -2177 -2177 0
-3265 2177 0
-3265 2177 0
-3266 2183 3265 0
3266 -2183 0
3266 -3265 0
3267 -3268 -3269 0
-3267 3268 0
-3267 3269 0
3270 -3269 -3269 0
-3270 3269 0
-3270 3269 0
3271 -3269 -3268 0
-3271 3269 0
-3271 3268 0
3272 -3268 -3268 -3273 0
-3272 3268 0
-3272 3268 0
-3272 3273 0
-3274 3275 3267 3270 3271 3272 0
3274 -3275 0
3274 -3267 0
3274 -3270 0
3274 -3271 0
3274 -3272 0
3276 -3268 -3277 0
-3276 3268 0
-3276 3277 0
3278 -3269 -3277 0
-3278 3269 0
-3278 3277 0
3279 -3269 -3280 0
-3279 3269 0
-3279 3280 0
3281 -3268 -3280 -3273 0
-3281 3268 0
-3281 3280 0
-3281 3273 0
-844 3282 3276 3278 3279 3281 0
844 -3282 0
844 -3276 0
844 -3278 0
844 -3279 0
844 -3281 0
3283 -3268 -3284 0
-3283 3268 0
-3283 3284 0
3285 -3269 -3286 0
-3285 3269 0
-3285 3286 0
3287 -3269 -3284 0
-3287 3269 0
-3287 3284 0
3288 -3268 -3286 -3273 0
-3288 3268 0
-3288 3286 0
-3288 3273 0
-842 3289 3283 3285 3287 3288 0
842 -3289 0
842 -3283 0
842 -3285 0
842 -3287 0
842 -3288 0
3290 -3291 -3284 0
-3290 3291 0
-3290 3284 0
3292 -3293 -3284 0
-3292 3293 0
-3292 3284 0
3294 -3293 -3286 0
-3294 3293 0
-3294 3286 0
3295 -3291 -3286 -3273 0
-3295 3291 0
-3295 3286 0
-3295 3273 0
-845 3296 3290 3292 3294 3295 0
845 -3296 0
845 -3290 0
845 -3292 0
845 -3294 0
845 -3295 0
3297 -3280 -3293 0
-3297 3280 0
-3297 3293 0
3298 -3277 -3291 0
-3298 3277 0
-3298 3291 0
3299 -3277 -3293 0
-3299 3277 0
-3299 3293 0
3300 -3280 -3291 -3273 0
-3300 3280 0
-3300 3291 0
-3300 3273 0
-843 3301 3297 3298 3299 3300 0
843 -3301 0
843 -3297 0
843 -3298 0
843 -3299 0
843 -3300 0
3302 -3280 -3277 0
-3302 3280 0
-3302 3277 0
3303 -3277 -3277 0
-3303 3277 0
-3303 3277 0
3304 -3277 -3280 0
-3304 3277 0
-3304 3280 0
3305 -3280 -3280 -3273 0
-3305 3280 0
-3305 3280 0
-3305 3273 0
-3306 3307 3302 3303 3304 3305 0
3306 -3307 0
3306 -3302 0
3306 -3303 0
3306 -3304 0
3306 -3305 0
3308 -3119 -3101 0
-3308 3119 0
-3308 3101 0
3102 -3101 -3101 0
-3102 3101 0
-3102 3101 0
3309 -3101 -3119 0
-3309 3101 0
-3309 3119 0
3310 -3119 -3119 -2591 0
-3310 3119 0
-3310 3119 0
-3310 2591 0
-3311 3105 3308 3102 3309 3310 0
3311 -3105 0
3311 -3308 0
3311 -3102 0
3311 -3309 0
3311 -3310 0
3312 -3119 -2594 0
-3312 3119 0
-3312 2594 0
3313 -3101 -2594 0
-3313 3101 0
-3313 2594 0
3314 -3101 -2602 0
-3314 3101 0
-3314 2602 0
3315 -3119 -2602 -2591 0
-3315 3119 0
-3315 2602 0
-3315 2591 0
-169 3108 3312 3313 3314 3315 0
169 -3108 0
169 -3312 0
169 -3313 0
169 -3314 0
169 -3315 0
3316 -3119 -2597 0
-3316 3119 0
-3316 2597 0
3317 -3101 -2600 0
-3317 3101 0
-3317 2600 0
3318 -3101 -2597 0
-3318 3101 0
-3318 2597 0
3319 -3119 -2600 -2591 0
-3319 3119 0
-3319 2600 0
-3319 2591 0
-167 3113 3316 3317 3318 3319 0
167 -3113 0
167 -3316 0
167 -3317 0
167 -3318 0
167 -3319 0
3320 -2599 -2597 0
-3320 2599 0
-3320 2597 0
3321 -2589 -2597 0
-3321 2589 0
-3321 2597 0
3322 -2589 -2600 0
-3322 2589 0
-3322 2600 0
3323 -2599 -2600 -2591 0
-3323 2599 0
-3323 2600 0
-3323 2591 0
-170 2596 3320 3321 3322 3323 0
170 -2596 0
170 -3320 0
170 -3321 0
170 -3322 0
170 -3323 0
3324 -2602 -2589 0
-3324 2602 0
-3324 2589 0
3325 -2594 -2599 0
-3325 2594 0
-3325 2599 0
3326 -2594 -2589 0
-3326 2594 0
-3326 2589 0
3327 -2602 -2599 -2591 0
-3327 2602 0
-3327 2599 0
-3327 2591 0
-168 2593 3324 3325 3326 3327 0
168 -2593 0
168 -3324 0
168 -3325 0
168 -3326 0
168 -3327 0
3328 -2602 -2594 0
-3328 2602 0
-3328 2594 0
3329 -2594 -2594 0
-3329 2594 0
-3329 2594 0
3330 -2594 -2602 0
-3330 2594 0
-3330 2602 0
3331 -2602 -2602 -2591 0
-3331 2602 0
-3331 2602 0
-3331 2591 0
-3332 2605 3328 3329 3330 3331 0
3332 -2605 0
3332 -3328 0
3332 -3329 0
3332 -3330 0
3332 -3331 0
3333 -3119 -3119 0
-3333 3119 0
-3333 3119 0
-3334 3105 3333 0
3334 -3105 0
3334 -3333 0
3335 -3119 -2602 0
-3335 3119 0
-3335 2602 0
-504 3108 3335 0
504 -3108 0
504 -3335 0
3336 -3119 -2600 0
-3336 3119 0
-3336 2600 0
-502 3113 3336 0
502 -3113 0
502 -3336 0
3337 -2599 -2600 0
-3337 2599 0
-3337 2600 0
-505 2596 3337 0
505 -2596 0
505 -3337 0
3338 -2602 -2599 0
-3338 2602 0
-3338 2599 0
-503 2593 3338 0
503 -2593 0
503 -3338 0
3339 -2602 -2602 0
-3339 2602 0
-3339 2602 0
-3340 2605 3339 0
3340 -2605 0
3340 -3339 0
3341 -3342 -3342 0
-3341 3342 0
-3341 3342 0
-3343 3344 3341 0
3343 -3344 0
3343 -3341 0
3345 -3342 -3250 0
-3345 3342 0
-3345 3250 0
-829 3346 3345 0
829 -3346 0
829 -3345 0
3347 -3342 -3253 0
-3347 3342 0
-3347 3253 0
-827 3348 3347 0
827 -3348 0
827 -3347 0
3349 -3249 -3253 0
-3349 3249 0
-3349 3253 0
-830 3252 3349 0
830 -3252 0
830 -3349 0
3350 -3250 -3249 0
-3350 3250 0
-3350 3249 0
-828 3242 3350 0
828 -3242 0
828 -3350 0
3351 -3250 -3250 0
-3351 3250 0
-3351 3250 0
-3352 3244 3351 0
3352 -3244 0
3352 -3351 0
3353 -3354 -3354 0
-3353 3354 0
-3353 3354 0
-3355 3356 3353 0
3355 -3356 0
3355 -3353 0
3357 -3354 -3358 0
-3357 3354 0
-3357 3358 0
-99 3359 3357 0
99 -3359 0
99 -3357 0
3360 -3354 -3361 0
-3360 3354 0
-3360 3361 0
-97 3362 3360 0
97 -3362 0
97 -3360 0
3363 -3364 -3361 0
-3363 3364 0
-3363 3361 0
-100 3365 3363 0
100 -3365 0
100 -3363 0
3366 -3358 -3364 0
-3366 3358 0
-3366 3364 0
-98 3367 3366 0
98 -3367 0
98 -3366 0
3368 -3358 -3358 0
-3368 3358 0
-3368 3358 0
-3369 3370 3368 0
3369 -3370 0
3369 -3368 0
3371 -3050 -3372 0
-3371 3050 0
-3371 3372 0
3373 -3372 -3372 0
-3373 3372 0
-3373 3372 0
3374 -3372 -3050 0
-3374 3372 0
-3374 3050 0
3375 -3050 -3050 -1351 0
-3375 3050 0
-3375 3050 0
-3375 1351 0
-3376 3052 3371 3373 3374 3375 0
3376 -3052 0
3376 -3371 0
3376 -3373 0
3376 -3374 0
3376 -3375 0
3377 -3050 -1354 0
-3377 3050 0
-3377 1354 0
3378 -3372 -1354 0
-3378 3372 0
-3378 1354 0
3379 -3372 -1362 0
-3379 3372 0
-3379 1362 0
3380 -3050 -1362 -1351 0
-3380 3050 0
-3380 1362 0
-3380 1351 0
-584 3054 3377 3378 3379 3380 0
584 -3054 0
584 -3377 0
584 -3378 0
584 -3379 0
584 -3380 0
3381 -3050 -1357 0
-3381 3050 0
-3381 1357 0
3382 -3372 -1360 0
-3382 3372 0
-3382 1360 0
3383 -3372 -1357 0
-3383 3372 0
-3383 1357 0
3384 -3050 -1360 -1351 0
-3384 3050 0
-3384 1360 0
-3384 1351 0
-582 3056 3381 3382 3383 3384 0
582 -3056 0
582 -3381 0
582 -3382 0
582 -3383 0
582 -3384 0
3385 -1359 -1357 0
-3385 1359 0
-3385 1357 0
3386 -1349 -1357 0
-3386 1349 0
-3386 1357 0
3387 -1349 -1360 0
-3387 1349 0
-3387 1360 0
3388 -1359 -1360 -1351 0
-3388 1359 0
-3388 1360 0
-3388 1351 0
-585 1356 3385 3386 3387 3388 0
585 -1356 0
585 -3385 0
585 -3386 0
585 -3387 0
585 -3388 0
3389 -1362 -1349 0
-3389 1362 0
-3389 1349 0
3390 -1354 -1359 0
-3390 1354 0
-3390 1359 0
3391 -1354 -1349 0
-3391 1354 0
-3391 1349 0
3392 -1362 -1359 -1351 0
-3392 1362 0
-3392 1359 0
-3392 1351 0
-583 1353 3389 3390 3391 3392 0
583 -1353 0
583 -3389 0
583 -3390 0
583 -3391 0
583 -3392 0
3393 -1362 -1354 0
-3393 1362 0
-3393 1354 0
3394 -1354 -1354 0
-3394 1354 0
-3394 1354 0
3395 -1354 -1362 0
-3395 1354 0
-3395 1362 0
3396 -1362 -1362 -1351 0
-3396 1362 0
-3396 1362 0
-3396 1351 0
-3397 1365 3393 3394 3395 3396 0
3397 -1365 0
3397 -3393 0
3397 -3394 0
3397 -3395 0
3397 -3396 0
3398 -1711 -3399 0
-3398 1711 0
-3398 3399 0
3400 -3399 -3399 0
-3400 3399 0
-3400 3399 0
3401 -3399 -1711 0
-3401 3399 0
-3401 1711 0
3402 -1711 -1711 -3403 0
-3402 1711 0
-3402 1711 0
-3402 3403 0
-3404 1713 3398 3400 3401 3402 0
3404 -1713 0
3404 -3398 0
3404 -3400 0
3404 -3401 0
3404 -3402 0
3405 -1711 -3406 0
-3405 1711 0
-3405 3406 0
3407 -3399 -3406 0
-3407 3399 0
-3407 3406 0
3408 -3399 -1715 0
-3408 3399 0
-3408 1715 0
3409 -1711 -1715 -3403 0
-3409 1711 0
-3409 1715 0
-3409 3403 0
-1064 1716 3405 3407 3408 3409 0
1064 -1716 0
1064 -3405 0
1064 -3407 0
1064 -3408 0
1064 -3409 0
3410 -1711 -3411 0
-3410 1711 0
-3410 3411 0
3412 -3399 -1718 0
-3412 3399 0
-3412 1718 0
3413 -3399 -3411 0
-3413 3399 0
-3413 3411 0
3414 -1711 -1718 -3403 0
-3414 1711 0
-3414 1718 0
-3414 3403 0
-1062 1719 3410 3412 3413 3414 0
1062 -1719 0
1062 -3410 0
1062 -3412 0
1062 -3413 0
1062 -3414 0
3415 -1721 -3411 0
-3415 1721 0
-3415 3411 0
3416 -3417 -3411 0
-3416 3417 0
-3416 3411 0
3418 -3417 -1718 0
-3418 3417 0
-3418 1718 0
3419 -1721 -1718 -3403 0
-3419 1721 0
-3419 1718 0
-3419 3403 0
-1065 1722 3415 3416 3418 3419 0
1065 -1722 0
1065 -3415 0
1065 -3416 0
1065 -3418 0
1065 -3419 0
3420 -1715 -3417 0
-3420 1715 0
-3420 3417 0
3421 -3406 -1721 0
-3421 3406 0
-3421 1721 0
3422 -3406 -3417 0
-3422 3406 0
-3422 3417 0
3423 -1715 -1721 -3403 0
-3423 1715 0
-3423 1721 0
-3423 3403 0
-1063 1724 3420 3421 3422 3423 0
1063 -1724 0
1063 -3420 0
1063 -3421 0
1063 -3422 0
1063 -3423 0
3424 -1715 -3406 0
-3424 1715 0
-3424 3406 0
3425 -3406 -3406 0
-3425 3406 0
-3425 3406 0
3426 -3406 -1715 0
-3426 3406 0
-3426 1715 0
3427 -1715 -1715 -3403 0
-3427 1715 0
-3427 1715 0
-3427 3403 0
-3428 1727 3424 3425 3426 3427 0
3428 -1727 0
3428 -3424 0
3428 -3425 0
3428 -3426 0
3428 -3427 0
3429 -2907 -3430 0
-3429 2907 0
-3429 3430 0
3431 -3430 -3430 0
-3431 3430 0
-3431 3430 0
3432 -3430 -2907 0
-3432 3430 0
-3432 2907 0
3433 -2907 -2907 -3434 0
-3433 2907 0
-3433 2907 0
-3433 3434 0
-3435 2909 3429 3431 3432 3433 0
3435 -2909 0
3435 -3429 0
3435 -3431 0
3435 -3432 0
3435 -3433 0
3436 -2907 -3437 0
-3436 2907 0
-3436 3437 0
3438 -3430 -3437 0
-3438 3430 0
-3438 3437 0
3439 -3430 -2911 0
-3439 3430 0
-3439 2911 0
3440 -2907 -2911 -3434 0
-3440 2907 0
-3440 2911 0
-3440 3434 0
-459 2912 3436 3438 3439 3440 0
459 -2912 0
459 -3436 0
459 -3438 0
459 -3439 0
459 -3440 0
3441 -2907 -3442 0
-3441 2907 0
-3441 3442 0
3443 -3430 -2914 0
-3443 3430 0
-3443 2914 0
3444 -3430 -3442 0
-3444 3430 0
-3444 3442 0
3445 -2907 -2914 -3434 0
-3445 2907 0
-3445 2914 0
-3445 3434 0
-457 2915 3441 3443 3444 3445 0
457 -2915 0
457 -3441 0
457 -3443 0
457 -3444 0
457 -3445 0
3446 -2917 -3442 0
-3446 2917 0
-3446 3442 0
3447 -3448 -3442 0
-3447 3448 0
-3447 3442 0
3449 -3448 -2914 0
-3449 3448 0
-3449 2914 0
3450 -2917 -2914 -3434 0
-3450 2917 0
-3450 2914 0
-3450 3434 0
-460 2918 3446 3447 3449 3450 0
460 -2918 0
460 -3446 0
460 -3447 0
460 -3449 0
460 -3450 0
3451 -2911 -3448 0
-3451 2911 0
-3451 3448 0
3452 -3437 -2917 0
-3452 3437 0
-3452 2917 0
3453 -3437 -3448 0
-3453 3437 0
-3453 3448 0
3454 -2911 -2917 -3434 0
-3454 2911 0
-3454 2917 0
-3454 3434 0
-458 2920 3451 3452 3453 3454 0
458 -2920 0
458 -3451 0
458 -3452 0
458 -3453 0
458 -3454 0
3455 -2911 -3437 0
-3455 2911 0
-3455 3437 0
3456 -3437 -3437 0
-3456 3437 0
-3456 3437 0
3457 -3437 -2911 0
-3457 3437 0
-3457 2911 0
3458 -2911 -2911 -3434 0
-3458 2911 0
-3458 2911 0
-3458 3434 0
-3459 2923 3455 3456 3457 3458 0
3459 -2923 0
3459 -3455 0
3459 -3456 0
3459 -3457 0
3459 -3458 0
3460 -3242 -3346 0
-3460 3242 0
-3460 3346 0
3461 -3346 -3346 0
-3461 3346 0
-3461 3346 0
3462 -3346 -3242 0
-3462 3346 0
-3462 3242 0
3463 -3242 -3242 -3344 0
-3463 3242 0
-3463 3242 0
-3463 3344 0
-3464 3244 3460 3461 3462 3463 0
3464 -3244 0
3464 -3460 0
3464 -3461 0
3464 -3462 0
3464 -3463 0
3465 -3242 -3466 0
-3465 3242 0
-3465 3466 0
3467 -3346 -3466 0
-3467 3346 0
-3467 3466 0
3468 -3346 -3246 0
-3468 3346 0
-3468 3246 0
3469 -3242 -3246 -3344 0
-3469 3242 0
-3469 3246 0
-3469 3344 0
-539 3247 3465 3467 3468 3469 0
539 -3247 0
539 -3465 0
539 -3467 0
539 -3468 0
539 -3469 0
3470 -3242 -3342 0
-3470 3242 0
-3470 3342 0
3471 -3346 -3249 0
-3471 3346 0
-3471 3249 0
3472 -3346 -3342 0
-3472 3346 0
-3472 3342 0
3473 -3242 -3249 -3344 0
-3473 3242 0
-3473 3249 0
-3473 3344 0
-537 3250 3470 3471 3472 3473 0
537 -3250 0
537 -3470 0
537 -3471 0
537 -3472 0
537 -3473 0
3474 -3252 -3342 0
-3474 3252 0
-3474 3342 0
3475 -3348 -3342 0
-3475 3348 0
-3475 3342 0
3476 -3348 -3249 0
-3476 3348 0
-3476 3249 0
3477 -3252 -3249 -3344 0
-3477 3252 0
-3477 3249 0
-3477 3344 0
-540 3253 3474 3475 3476 3477 0
540 -3253 0
540 -3474 0
540 -3475 0
540 -3476 0
540 -3477 0
3478 -3246 -3348 0
-3478 3246 0
-3478 3348 0
3479 -3466 -3252 0
-3479 3466 0
-3479 3252 0
3480 -3466 -3348 0
-3480 3466 0
-3480 3348 0
3481 -3246 -3252 -3344 0
-3481 3246 0
-3481 3252 0
-3481 3344 0
-538 3255 3478 3479 3480 3481 0
538 -3255 0
538 -3478 0
538 -3479 0
538 -3480 0
538 -3481 0
3482 -3246 -3466 0
-3482 3246 0
-3482 3466 0
3483 -3466 -3466 0
-3483 3466 0
-3483 3466 0
3484 -3466 -3246 0
-3484 3466 0
-3484 3246 0
3485 -3246 -3246 -3344 0
-3485 3246 0
-3485 3246 0
-3485 3344 0
-3486 3258 3482 3483 3484 3485 0
3486 -3258 0
3486 -3482 0
3486 -3483 0
3486 -3484 0
3486 -3485 0
3487 -2277 -2277 0
-3487 2277 0
-3487 2277 0
-3488 2257 3487 0
3488 -2257 0
3488 -3487 0
3489 -2277 -2285 0
-3489 2277 0
-3489 2285 0
-564 2261 3489 0
564 -2261 0
564 -3489 0
3490 -2277 -2280 0
-3490 2277 0
-3490 2280 0
-562 2268 3490 0
562 -2268 0
562 -3490 0
3491 -2275 -2280 0
-3491 2275 0
-3491 2280 0
-565 2270 3491 0
565 -2270 0
565 -3491 0
3492 -2285 -2275 0
-3492 2285 0
-3492 2275 0
-563 2264 3492 0
563 -2264 0
563 -3492 0
3493 -2285 -2285 0
-3493 2285 0
-3493 2285 0
-3494 2291 3493 0
3494 -2291 0
3494 -3493 0
3495 -3496 -3496 0
-3495 3496 0
-3495 3496 0
-3497 3498 3495 0
3497 -3498 0
3497 -3495 0
3499 -3496 -3500 0
-3499 3496 0
-3499 3500 0
-319 3501 3499 0
319 -3501 0
319 -3499 0
3502 -3496 -3503 0
-3502 3496 0
-3502 3503 0
-317 3504 3502 0
317 -3504 0
317 -3502 0
3505 -3506 -3503 0
-3505 3506 0
-3505 3503 0
-320 3507 3505 0
320 -3507 0
320 -3505 0
3508 -3500 -3506 0
-3508 3500 0
-3508 3506 0
-318 3509 3508 0
318 -3509 0
318 -3508 0
3510 -3500 -3500 0
-3510 3500 0
-3510 3500 0
-3511 3512 3510 0
3511 -3512 0
3511 -3510 0
3513 -3362 -3362 0
-3513 3362 0
-3513 3362 0
-3514 3356 3513 0
3514 -3356 0
3514 -3513 0
3515 -3362 -3516 0
-3515 3362 0
-3515 3516 0
-79 3517 3515 0
79 -3517 0
79 -3515 0
3518 -3362 -3361 0
-3518 3362 0
-3518 3361 0
-77 3354 3518 0
77 -3354 0
77 -3518 0
3519 -3365 -3361 0
-3519 3365 0
-3519 3361 0
-80 3364 3519 0
80 -3364 0
80 -3519 0
3520 -3516 -3365 0
-3520 3516 0
-3520 3365 0
-78 3521 3520 0
78 -3521 0
78 -3520 0
3522 -3516 -3516 0
-3522 3516 0
-3522 3516 0
-3523 3524 3522 0
3523 -3524 0
3523 -3522 0
3525 -3526 -3526 0
-3525 3526 0
-3525 3526 0
-3527 3528 3525 0
3527 -3528 0
3527 -3525 0
3529 -3526 -3530 0
-3529 3526 0
-3529 3530 0
-654 3531 3529 0
654 -3531 0
654 -3529 0
3532 -3526 -3533 0
-3532 3526 0
-3532 3533 0
-652 3534 3532 0
652 -3534 0
652 -3532 0
3535 -3536 -3533 0
-3535 3536 0
-3535 3533 0
-655 3537 3535 0
655 -3537 0
655 -3535 0
3538 -3530 -3536 0
-3538 3530 0
-3538 3536 0
-653 3539 3538 0
653 -3539 0
653 -3538 0
3540 -3530 -3530 0
-3540 3530 0
-3540 3530 0
-3541 3542 3540 0
3541 -3542 0
3541 -3540 0
3543 -1551 -1551 0
-3543 1551 0
-3543 1551 0
-3544 1531 3543 0
3544 -1531 0
3544 -3543 0
3545 -1551 -1559 0
-3545 1551 0
-3545 1559 0
-939 1535 3545 0
939 -1535 0
939 -3545 0
3546 -1551 -1554 0
-3546 1551 0
-3546 1554 0
-937 1542 3546 0
937 -1542 0
937 -3546 0
3547 -1549 -1554 0
-3547 1549 0
-3547 1554 0
-940 1544 3547 0
940 -1544 0
940 -3547 0
3548 -1559 -1549 0
-3548 1559 0
-3548 1549 0
-938 1538 3548 0
938 -1538 0
938 -3548 0
3549 -1559 -1559 0
-3549 1559 0
-3549 1559 0
-3550 1565 3549 0
3550 -1565 0
3550 -3549 0
3551 -3521 -3521 0
-3551 3521 0
-3551 3521 0
-3552 3524 3551 0
3552 -3524 0
3552 -3551 0
3553 -3521 -3367 0
-3553 3521 0
-3553 3367 0
-179 3554 3553 0
179 -3554 0
179 -3553 0
3555 -3521 -3365 0
-3555 3521 0
-3555 3365 0
-177 3516 3555 0
177 -3516 0
177 -3555 0
3556 -3364 -3365 0
-3556 3364 0
-3556 3365 0
-180 3361 3556 0
180 -3361 0
180 -3556 0
3557 -3367 -3364 0
-3557 3367 0
-3557 3364 0
-178 3358 3557 0
178 -3358 0
178 -3557 0
3558 -3367 -3367 0
-3558 3367 0
-3558 3367 0
-3559 3370 3558 0
3559 -3370 0
3559 -3558 0
3560 -3007 -3561 0
-3560 3007 0
-3560 3561 0
3562 -3561 -3561 0
-3562 3561 0
-3562 3561 0
3563 -3561 -3007 0
-3563 3561 0
-3563 3007 0
3564 -3007 -3007 -3565 0
-3564 3007 0
-3564 3007 0
-3564 3565 0
-3566 3009 3560 3562 3563 3564 0
3566 -3009 0
3566 -3560 0
3566 -3562 0
3566 -3563 0
3566 -3564 0
3567 -3007 -3568 0
-3567 3007 0
-3567 3568 0
3569 -3561 -3568 0
-3569 3561 0
-3569 3568 0
3570 -3561 -3011 0
-3570 3561 0
-3570 3011 0
3571 -3007 -3011 -3565 0
-3571 3007 0
-3571 3011 0
-3571 3565 0
-719 3012 3567 3569 3570 3571 0
719 -3012 0
719 -3567 0
719 -3569 0
719 -3570 0
719 -3571 0
3572 -3007 -3573 0
-3572 3007 0
-3572 3573 0
3574 -3561 -3014 0
-3574 3561 0
-3574 3014 0
3575 -3561 -3573 0
-3575 3561 0
-3575 3573 0
3576 -3007 -3014 -3565 0
-3576 3007 0
-3576 3014 0
-3576 3565 0
-717 3015 3572 3574 3575 3576 0
717 -3015 0
717 -3572 0
717 -3574 0
717 -3575 0
717 -3576 0
3577 -3017 -3573 0
-3577 3017 0
-3577 3573 0
3578 -3579 -3573 0
-3578 3579 0
-3578 3573 0
3580 -3579 -3014 0
-3580 3579 0
-3580 3014 0
3581 -3017 -3014 -3565 0
-3581 3017 0
-3581 3014 0
-3581 3565 0
-720 3018 3577 3578 3580 3581 0
720 -3018 0
720 -3577 0
720 -3578 0
720 -3580 0
720 -3581 0
3582 -3011 -3579 0
-3582 3011 0
-3582 3579 0
3583 -3568 -3017 0
-3583 3568 0
-3583 3017 0
3584 -3568 -3579 0
-3584 3568 0
-3584 3579 0
3585 -3011 -3017 -3565 0
-3585 3011 0
-3585 3017 0
-3585 3565 0
-718 3020 3582 3583 3584 3585 0
718 -3020 0
718 -3582 0
718 -3583 0
718 -3584 0
718 -3585 0
3586 -3011 -3568 0
-3586 3011 0
-3586 3568 0
3587 -3568 -3568 0
-3587 3568 0
-3587 3568 0
3588 -3568 -3011 0
-3588 3568 0
-3588 3011 0
3589 -3011 -3011 -3565 0
-3589 3011 0
-3589 3011 0
-3589 3565 0
-3590 3023 3586 3587 3588 3589 0
3590 -3023 0
3590 -3586 0
3590 -3587 0
3590 -3588 0
3590 -3589 0
3591 -3592 -3592 0
-3591 3592 0
-3591 3592 0
-3593 3594 3591 0
3593 -3594 0
3593 -3591 0
3595 -3592 -3596 0
-3595 3592 0
-3595 3596 0
-664 3597 3595 0
664 -3597 0
664 -3595 0
3598 -3592 -3599 0
-3598 3592 0
-3598 3599 0
-662 3600 3598 0
662 -3600 0
662 -3598 0
3601 -3602 -3599 0
-3601 3602 0
-3601 3599 0
-665 3603 3601 0
665 -3603 0
665 -3601 0
3604 -3596 -3602 0
-3604 3596 0
-3604 3602 0
-663 3605 3604 0
663 -3605 0
663 -3604 0
3606 -3596 -3596 0
-3606 3596 0
-3606 3596 0
-3607 3608 3606 0
3607 -3608 0
3607 -3606 0
3609 -2538 -3610 0
-3609 2538 0
-3609 3610 0
3611 -3610 -3610 0
-3611 3610 0
-3611 3610 0
3612 -3610 -2538 0
-3612 3610 0
-3612 2538 0
3613 -2538 -2538 -3614 0
-3613 2538 0
-3613 2538 0
-3613 3614 0
-3615 2540 3609 3611 3612 3613 0
3615 -2540 0
3615 -3609 0
3615 -3611 0
3615 -3612 0
3615 -3613 0
3616 -2538 -3617 0
-3616 2538 0
-3616 3617 0
3618 -3610 -3617 0
-3618 3610 0
-3618 3617 0
3619 -3610 -2542 0
-3619 3610 0
-3619 2542 0
3620 -2538 -2542 -3614 0
-3620 2538 0
-3620 2542 0
-3620 3614 0
-49 2543 3616 3618 3619 3620 0
49 -2543 0
49 -3616 0
49 -3618 0
49 -3619 0
49 -3620 0
3621 -2538 -3622 0
-3621 2538 0
-3621 3622 0
3623 -3610 -2545 0
-3623 3610 0
-3623 2545 0
3624 -3610 -3622 0
-3624 3610 0
-3624 3622 0
3625 -2538 -2545 -3614 0
-3625 2538 0
-3625 2545 0
-3625 3614 0
-47 2546 3621 3623 3624 3625 0
47 -2546 0
47 -3621 0
47 -3623 0
47 -3624 0
47 -3625 0
3626 -2548 -3622 0
-3626 2548 0
-3626 3622 0
3627 -3628 -3622 0
-3627 3628 0
-3627 3622 0
3629 -3628 -2545 0
-3629 3628 0
-3629 2545 0
3630 -2548 -2545 -3614 0
-3630 2548 0
-3630 2545 0
-3630 3614 0
-50 2549 3626 3627 3629 3630 0
50 -2549 0
50 -3626 0
50 -3627 0
50 -3629 0
50 -3630 0
3631 -2542 -3628 0
-3631 2542 0
-3631 3628 0
3632 -3617 -2548 0
-3632 3617 0
-3632 2548 0
3633 -3617 -3628 0
-3633 3617 0
-3633 3628 0
3634 -2542 -2548 -3614 0
-3634 2542 0
-3634 2548 0
-3634 3614 0
-48 2551 3631 3632 3633 3634 0
48 -2551 0
48 -3631 0
48 -3632 0
48 -3633 0
48 -3634 0
3635 -2542 -3617 0
-3635 2542 0
-3635 3617 0
3636 -3617 -3617 0
-3636 3617 0
-3636 3617 0
3637 -3617 -2542 0
-3637 3617 0
-3637 2542 0
3638 -2542 -2542 -3614 0
-3638 2542 0
-3638 2542 0
-3638 3614 0
-3639 2554 3635 3636 3637 3638 0
3639 -2554 0
3639 -3635 0
3639 -3636 0
3639 -3637 0
3639 -3638 0
3640 -2966 -2966 0
-3640 2966 0
-3640 2966 0
-3641 2973 3640 0
3641 -2973 0
3641 -3640 0
3642 -2966 -2978 0
-3642 2966 0
-3642 2978 0
-439 2980 3642 0
439 -2980 0
439 -3642 0
3643 -2966 -2984 0
-3643 2966 0
-3643 2984 0
-437 2987 3643 0
437 -2987 0
437 -3643 0
3644 -2989 -2984 0
-3644 2989 0
-3644 2984 0
-440 2994 3644 0
440 -2994 0
440 -3644 0
3645 -2978 -2989 0
-3645 2978 0
-3645 2989 0
-438 2999 3645 0
438 -2999 0
438 -3645 0
3646 -2978 -2978 0
-3646 2978 0
-3646 2978 0
-3647 3005 3646 0
3647 -3005 0
3647 -3646 0
3648 -3649 -3649 0
-3648 3649 0
-3648 3649 0
-3650 3651 3648 0
3650 -3651 0
3650 -3648 0
3652 -3649 -3653 0
-3652 3649 0
-3652 3653 0
-989 3654 3652 0
989 -3654 0
989 -3652 0
3655 -3649 -3656 0
-3655 3649 0
-3655 3656 0
-987 3657 3655 0
987 -3657 0
987 -3655 0
3658 -3659 -3656 0
-3658 3659 0
-3658 3656 0
-990 3660 3658 0
990 -3660 0
990 -3658 0
3661 -3653 -3659 0
-3661 3653 0
-3661 3659 0
-988 3662 3661 0
988 -3662 0
988 -3661 0
3663 -3653 -3653 0
-3663 3653 0
-3663 3653 0
-3664 3665 3663 0
3664 -3665 0
3664 -3663 0
3666 -1349 -3372 0
-3666 1349 0
-3666 3372 0
3373 -3372 -3372 0
-3373 3372 0
-3373 3372 0
3667 -3372 -1349 0
-3667 3372 0
-3667 1349 0
3668 -1349 -1349 -3052 0
-3668 1349 0
-3668 1349 0
-3668 3052 0
-3669 1351 3666 3373 3667 3668 0
3669 -1351 0
3669 -3666 0
3669 -3373 0
3669 -3667 0
3669 -3668 0
3670 -1349 -3054 0
-3670 1349 0
-3670 3054 0
3671 -3372 -3054 0
-3671 3372 0
-3671 3054 0
3672 -3372 -1353 0
-3672 3372 0
-3672 1353 0
3673 -1349 -1353 -3052 0
-3673 1349 0
-3673 1353 0
-3673 3052 0
-464 1354 3670 3671 3672 3673 0
464 -1354 0
464 -3670 0
464 -3671 0
464 -3672 0
464 -3673 0
3674 -1349 -3056 0
-3674 1349 0
-3674 3056 0
3675 -3372 -1356 0
-3675 3372 0
-3675 1356 0
3676 -3372 -3056 0
-3676 3372 0
-3676 3056 0
3677 -1349 -1356 -3052 0
-3677 1349 0
-3677 1356 0
-3677 3052 0
-462 1357 3674 3675 3676 3677 0
462 -1357 0
462 -3674 0
462 -3675 0
462 -3676 0
462 -3677 0
3678 -1359 -3056 0
-3678 1359 0
-3678 3056 0
3679 -3050 -3056 0
-3679 3050 0
-3679 3056 0
3680 -3050 -1356 0
-3680 3050 0
-3680 1356 0
3681 -1359 -1356 -3052 0
-3681 1359 0
-3681 1356 0
-3681 3052 0
-465 1360 3678 3679 3680 3681 0
465 -1360 0
465 -3678 0
465 -3679 0
465 -3680 0
465 -3681 0
3682 -1353 -3050 0
-3682 1353 0
-3682 3050 0
3683 -3054 -1359 0
-3683 3054 0
-3683 1359 0
3684 -3054 -3050 0
-3684 3054 0
-3684 3050 0
3685 -1353 -1359 -3052 0
-3685 1353 0
-3685 1359 0
-3685 3052 0
-463 1362 3682 3683 3684 3685 0
463 -1362 0
463 -3682 0
463 -3683 0
463 -3684 0
463 -3685 0
3686 -1353 -3054 0
-3686 1353 0
-3686 3054 0
3687 -3054 -3054 0
-3687 3054 0
-3687 3054 0
3688 -3054 -1353 0
-3688 3054 0
-3688 1353 0
3689 -1353 -1353 -3052 0
-3689 1353 0
-3689 1353 0
-3689 3052 0
-3690 1365 3686 3687 3688 3689 0
3690 -1365 0
3690 -3686 0
3690 -3687 0
3690 -3688 0
3690 -3689 0
3691 -3692 -3692 0
-3691 3692 0
-3691 3692 0
-3693 3694 3691 0
3693 -3694 0
3693 -3691 0
3695 -3692 -3696 0
-3695 3692 0
-3695 3696 0
-889 3697 3695 0
889 -3697 0
889 -3695 0
3698 -3692 -3699 0
-3698 3692 0
-3698 3699 0
-887 3700 3698 0
887 -3700 0
887 -3698 0
3701 -3702 -3699 0
-3701 3702 0
-3701 3699 0
-890 3703 3701 0
890 -3703 0
890 -3701 0
3704 -3696 -3702 0
-3704 3696 0
-3704 3702 0
-888 3705 3704 0
888 -3705 0
888 -3704 0
3706 -3696 -3696 0
-3706 3696 0
-3706 3696 0
-3707 3708 3706 0
3707 -3708 0
3707 -3706 0
3709 -3710 -3711 0
-3709 3710 0
-3709 3711 0
3712 -3711 -3711 0
-3712 3711 0
-3712 3711 0
3713 -3711 -3710 0
-3713 3711 0
-3713 3710 0
3714 -3710 -3710 -3715 0
-3714 3710 0
-3714 3710 0
-3714 3715 0
-3716 3717 3709 3712 3713 3714 0
3716 -3717 0
3716 -3709 0
3716 -3712 0
3716 -3713 0
3716 -3714 0
3718 -3710 -3719 0
-3718 3710 0
-3718 3719 0
3720 -3711 -3719 0
-3720 3711 0
-3720 3719 0
3721 -3711 -3722 0
-3721 3711 0
-3721 3722 0
3723 -3710 -3722 -3715 0
-3723 3710 0
-3723 3722 0
-3723 3715 0
-659 3724 3718 3720 3721 3723 0
659 -3724 0
659 -3718 0
659 -3720 0
659 -3721 0
659 -3723 0
3725 -3710 -3726 0
-3725 3710 0
-3725 3726 0
3727 -3711 -3728 0
-3727 3711 0
-3727 3728 0
3729 -3711 -3726 0
-3729 3711 0
-3729 3726 0
3730 -3710 -3728 -3715 0
-3730 3710 0
-3730 3728 0
-3730 3715 0
-657 3731 3725 3727 3729 3730 0
657 -3731 0
657 -3725 0
657 -3727 0
657 -3729 0
657 -3730 0
3732 -3733 -3726 0
-3732 3733 0
-3732 3726 0
3734 -3735 -3726 0
-3734 3735 0
-3734 3726 0
3736 -3735 -3728 0
-3736 3735 0
-3736 3728 0
3737 -3733 -3728 -3715 0
-3737 3733 0
-3737 3728 0
-3737 3715 0
-660 3738 3732 3734 3736 3737 0
660 -3738 0
660 -3732 0
660 -3734 0
660 -3736 0
660 -3737 0
3739 -3722 -3735 0
-3739 3722 0
-3739 3735 0
3740 -3719 -3733 0
-3740 3719 0
-3740 3733 0
3741 -3719 -3735 0
-3741 3719 0
-3741 3735 0
3742 -3722 -3733 -3715 0
-3742 3722 0
-3742 3733 0
-3742 3715 0
-658 3743 3739 3740 3741 3742 0
658 -3743 0
658 -3739 0
658 -3740 0
658 -3741 0
658 -3742 0
3744 -3722 -3719 0
-3744 3722 0
-3744 3719 0
3745 -3719 -3719 0
-3745 3719 0
-3745 3719 0
3746 -3719 -3722 0
-3746 3719 0
-3746 3722 0
3747 -3722 -3722 -3715 0
-3747 3722 0
-3747 3722 0
-3747 3715 0
-3748 3749 3744 3745 3746 3747 0
3748 -3749 0
3748 -3744 0
3748 -3745 0
3748 -3746 0
3748 -3747 0
3750 -3348 -3346 0
-3750 3348 0
-3750 3346 0
3461 -3346 -3346 0
-3461 3346 0
-3461 3346 0
3751 -3346 -3348 0
-3751 3346 0
-3751 3348 0
3752 -3348 -3348 -3244 0
-3752 3348 0
-3752 3348 0
-3752 3244 0
-3753 3344 3750 3461 3751 3752 0
3753 -3344 0
3753 -3750 0
3753 -3461 0
3753 -3751 0
3753 -3752 0
3754 -3348 -3247 0
-3754 3348 0
-3754 3247 0
3755 -3346 -3247 0
-3755 3346 0
-3755 3247 0
3756 -3346 -3255 0
-3756 3346 0
-3756 3255 0
3757 -3348 -3255 -3244 0
-3757 3348 0
-3757 3255 0
-3757 3244 0
-419 3466 3754 3755 3756 3757 0
419 -3466 0
419 -3754 0
419 -3755 0
419 -3756 0
419 -3757 0
3758 -3348 -3250 0
-3758 3348 0
-3758 3250 0
3759 -3346 -3253 0
-3759 3346 0
-3759 3253 0
3760 -3346 -3250 0
-3760 3346 0
-3760 3250 0
3761 -3348 -3253 -3244 0
-3761 3348 0
-3761 3253 0
-3761 3244 0
-417 3342 3758 3759 3760 3761 0
417 -3342 0
417 -3758 0
417 -3759 0
417 -3760 0
417 -3761 0
3762 -3252 -3250 0
-3762 3252 0
-3762 3250 0
3763 -3242 -3250 0
-3763 3242 0
-3763 3250 0
3764 -3242 -3253 0
-3764 3242 0
-3764 3253 0
3765 -3252 -3253 -3244 0
-3765 3252 0
-3765 3253 0
-3765 3244 0
-420 3249 3762 3763 3764 3765 0
420 -3249 0
420 -3762 0
420 -3763 0
420 -3764 0
420 -3765 0
3766 -3255 -3242 0
-3766 3255 0
-3766 3242 0
3767 -3247 -3252 0
-3767 3247 0
-3767 3252 0
3768 -3247 -3242 0
-3768 3247 0
-3768 3242 0
3769 -3255 -3252 -3244 0
-3769 3255 0
-3769 3252 0
-3769 3244 0
-418 3246 3766 3767 3768 3769 0
418 -3246 0
418 -3766 0
418 -3767 0
418 -3768 0
418 -3769 0
3770 -3255 -3247 0
-3770 3255 0
-3770 3247 0
3771 -3247 -3247 0
-3771 3247 0
-3771 3247 0
3772 -3247 -3255 0
-3772 3247 0
-3772 3255 0
3773 -3255 -3255 -3244 0
-3773 3255 0
-3773 3255 0
-3773 3244 0
-3774 3258 3770 3771 3772 3773 0
3774 -3258 0
3774 -3770 0
3774 -3771 0
3774 -3772 0
3774 -3773 0
3775 -3776 -3777 0
-3775 3776 0
-3775 3777 0
3778 -3777 -3777 0
-3778 3777 0
-3778 3777 0
3779 -3777 -3776 0
-3779 3777 0
-3779 3776 0
3780 -3776 -3776 -3781 0
-3780 3776 0
-3780 3776 0
-3780 3781 0
-3782 3783 3775 3778 3779 3780 0
3782 -3783 0
3782 -3775 0
3782 -3778 0
3782 -3779 0
3782 -3780 0
3784 -3776 -3785 0
-3784 3776 0
-3784 3785 0
3786 -3777 -3785 0
-3786 3777 0
-3786 3785 0
3787 -3777 -3788 0
-3787 3777 0
-3787 3788 0
3789 -3776 -3788 -3781 0
-3789 3776 0
-3789 3788 0
-3789 3781 0
-364 3790 3784 3786 3787 3789 0
364 -3790 0
364 -3784 0
364 -3786 0
364 -3787 0
364 -3789 0
3791 -3776 -3792 0
-3791 3776 0
-3791 3792 0
3793 -3777 -3794 0
-3793 3777 0
-3793 3794 0
3795 -3777 -3792 0
-3795 3777 0
-3795 3792 0
3796 -3776 -3794 -3781 0
-3796 3776 0
-3796 3794 0
-3796 3781 0
-362 3797 3791 3793 3795 3796 0
362 -3797 0
362 -3791 0
362 -3793 0
362 -3795 0
362 -3796 0
3798 -3799 -3792 0
-3798 3799 0
-3798 3792 0
3800 -3801 -3792 0
-3800 3801 0
-3800 3792 0
3802 -3801 -3794 0
-3802 3801 0
-3802 3794 0
3803 -3799 -3794 -3781 0
-3803 3799 0
-3803 3794 0
-3803 3781 0
-365 3804 3798 3800 3802 3803 0
365 -3804 0
365 -3798 0
365 -3800 0
365 -3802 0
365 -3803 0
3805 -3788 -3801 0
-3805 3788 0
-3805 3801 0
3806 -3785 -3799 0
-3806 3785 0
-3806 3799 0
3807 -3785 -3801 0
-3807 3785 0
-3807 3801 0
3808 -3788 -3799 -3781 0
-3808 3788 0
-3808 3799 0
-3808 3781 0
-363 3809 3805 3806 3807 3808 0
363 -3809 0
363 -3805 0
363 -3806 0
363 -3807 0
363 -3808 0
3810 -3788 -3785 0
-3810 3788 0
-3810 3785 0
3811 -3785 -3785 0
-3811 3785 0
-3811 3785 0
3812 -3785 -3788 0
-3812 3785 0
-3812 3788 0
3813 -3788 -3788 -3781 0
-3813 3788 0
-3813 3788 0
-3813 3781 0
-3814 3815 3810 3811 3812 3813 0
3814 -3815 0
3814 -3810 0
3814 -3811 0
3814 -3812 0
3814 -3813 0
3816 -3157 -3817 0
-3816 3157 0
-3816 3817 0
3818 -3817 -3817 0
-3818 3817 0
-3818 3817 0
3819 -3817 -3157 0
-3819 3817 0
-3819 3157 0
3820 -3157 -3157 -3821 0
-3820 3157 0
-3820 3157 0
-3820 3821 0
-3822 3159 3816 3818 3819 3820 0
3822 -3159 0
3822 -3816 0
3822 -3818 0
3822 -3819 0
3822 -3820 0
3823 -3157 -3824 0
-3823 3157 0
-3823 3824 0
3825 -3817 -3824 0
-3825 3817 0
-3825 3824 0
3826 -3817 -3161 0
-3826 3817 0
-3826 3161 0
3827 -3157 -3161 -3821 0
-3827 3157 0
-3827 3161 0
-3827 3821 0
-304 3162 3823 3825 3826 3827 0
304 -3162 0
304 -3823 0
304 -3825 0
304 -3826 0
304 -3827 0
3828 -3157 -3829 0
-3828 3157 0
-3828 3829 0
3830 -3817 -3164 0
-3830 3817 0
-3830 3164 0
3831 -3817 -3829 0
-3831 3817 0
-3831 3829 0
3832 -3157 -3164 -3821 0
-3832 3157 0
-3832 3164 0
-3832 3821 0
-302 3165 3828 3830 3831 3832 0
302 -3165 0
302 -3828 0
302 -3830 0
302 -3831 0
302 -3832 0
3833 -3167 -3829 0
-3833 3167 0
-3833 3829 0
3834 -3835 -3829 0
-3834 3835 0
-3834 3829 0
3836 -3835 -3164 0
-3836 3835 0
-3836 3164 0
3837 -3167 -3164 -3821 0
-3837 3167 0
-3837 3164 0
-3837 3821 0
-305 3168 3833 3834 3836 3837 0
305 -3168 0
305 -3833 0
305 -3834 0
305 -3836 0
305 -3837 0
3838 -3161 -3835 0
-3838 3161 0
-3838 3835 0
3839 -3824 -3167 0
-3839 3824 0
-3839 3167 0
3840 -3824 -3835 0
-3840 3824 0
-3840 3835 0
3841 -3161 -3167 -3821 0
-3841 3161 0
-3841 3167 0
-3841 3821 0
-303 3170 3838 3839 3840 3841 0
303 -3170 0
303 -3838 0
303 -3839 0
303 -3840 0
303 -3841 0
3842 -3161 -3824 0
-3842 3161 0
-3842 3824 0
3843 -3824 -3824 0
-3843 3824 0
-3843 3824 0
3844 -3824 -3161 0
-3844 3824 0
-3844 3161 0
3845 -3161 -3161 -3821 0
-3845 3161 0
-3845 3161 0
-3845 3821 0
-3846 3173 3842 3843 3844 3845 0
3846 -3173 0
3846 -3842 0
3846 -3843 0
3846 -3844 0
3846 -3845 0
3847 -1223 -3848 0
-3847 1223 0
-3847 3848 0
3849 -3848 -3848 0
-3849 3848 0
-3849 3848 0
3850 -3848 -1223 0
-3850 3848 0
-3850 1223 0
3851 -1223 -1223 -3852 0
-3851 1223 0
-3851 1223 0
-3851 3852 0
-3853 1225 3847 3849 3850 3851 0
3853 -1225 0
3853 -3847 0
3853 -3849 0
3853 -3850 0
3853 -3851 0
3854 -1223 -3855 0
-3854 1223 0
-3854 3855 0
3856 -3848 -3855 0
-3856 3848 0
-3856 3855 0
3857 -3848 -1227 0
-3857 3848 0
-3857 1227 0
3858 -1223 -1227 -3852 0
-3858 1223 0
-3858 1227 0
-3858 3852 0
-144 1228 3854 3856 3857 3858 0
144 -1228 0
144 -3854 0
144 -3856 0
144 -3857 0
144 -3858 0
3859 -1223 -3860 0
-3859 1223 0
-3859 3860 0
3861 -3848 -1230 0
-3861 3848 0
-3861 1230 0
3862 -3848 -3860 0
-3862 3848 0
-3862 3860 0
3863 -1223 -1230 -3852 0
-3863 1223 0
-3863 1230 0
-3863 3852 0
-142 1231 3859 3861 3862 3863 0
142 -1231 0
142 -3859 0
142 -3861 0
142 -3862 0
142 -3863 0
3864 -1233 -3860 0
-3864 1233 0
-3864 3860 0
3865 -3866 -3860 0
-3865 3866 0
-3865 3860 0
3867 -3866 -1230 0
-3867 3866 0
-3867 1230 0
3868 -1233 -1230 -3852 0
-3868 1233 0
-3868 1230 0
-3868 3852 0
-145 1234 3864 3865 3867 3868 0
145 -1234 0
145 -3864 0
145 -3865 0
145 -3867 0
145 -3868 0
3869 -1227 -3866 0
-3869 1227 0
-3869 3866 0
3870 -3855 -1233 0
-3870 3855 0
-3870 1233 0
3871 -3855 -3866 0
-3871 3855 0
-3871 3866 0
3872 -1227 -1233 -3852 0
-3872 1227 0
-3872 1233 0
-3872 3852 0
-143 1236 3869 3870 3871 3872 0
143 -1236 0
143 -3869 0
143 -3870 0
143 -3871 0
143 -3872 0
3873 -1227 -3855 0
-3873 1227 0
-3873 3855 0
3874 -3855 -3855 0
-3874 3855 0
-3874 3855 0
3875 -3855 -1227 0
-3875 3855 0
-3875 1227 0
3876 -1227 -1227 -3852 0
-3876 1227 0
-3876 1227 0
-3876 3852 0
-3877 1239 3873 3874 3875 3876 0
3877 -1239 0
3877 -3873 0
3877 -3874 0
3877 -3875 0
3877 -3876 0
3878 -2607 -3879 0
-3878 2607 0
-3878 3879 0
3880 -3879 -3879 0
-3880 3879 0
-3880 3879 0
3881 -3879 -2607 0
-3881 3879 0
-3881 2607 0
3882 -2607 -2607 -3883 0
-3882 2607 0
-3882 2607 0
-3882 3883 0
-3884 2609 3878 3880 3881 3882 0
3884 -2609 0
3884 -3878 0
3884 -3880 0
3884 -3881 0
3884 -3882 0
3885 -2607 -3886 0
-3885 2607 0
-3885 3886 0
3887 -3879 -3886 0
-3887 3879 0
-3887 3886 0
3888 -3879 -2611 0
-3888 3879 0
-3888 2611 0
3889 -2607 -2611 -3883 0
-3889 2607 0
-3889 2611 0
-3889 3883 0
-354 2612 3885 3887 3888 3889 0
354 -2612 0
354 -3885 0
354 -3887 0
354 -3888 0
354 -3889 0
3890 -2607 -3891 0
-3890 2607 0
-3890 3891 0
3892 -3879 -2614 0
-3892 3879 0
-3892 2614 0
3893 -3879 -3891 0
-3893 3879 0
-3893 3891 0
3894 -2607 -2614 -3883 0
-3894 2607 0
-3894 2614 0
-3894 3883 0
-352 2615 3890 3892 3893 3894 0
352 -2615 0
352 -3890 0
352 -3892 0
352 -3893 0
352 -3894 0
3895 -2617 -3891 0
-3895 2617 0
-3895 3891 0
3896 -3897 -3891 0
-3896 3897 0
-3896 3891 0
3898 -3897 -2614 0
-3898 3897 0
-3898 2614 0
3899 -2617 -2614 -3883 0
-3899 2617 0
-3899 2614 0
-3899 3883 0
-355 2618 3895 3896 3898 3899 0
355 -2618 0
355 -3895 0
355 -3896 0
355 -3898 0
355 -3899 0
3900 -2611 -3897 0
-3900 2611 0
-3900 3897 0
3901 -3886 -2617 0
-3901 3886 0
-3901 2617 0
3902 -3886 -3897 0
-3902 3886 0
-3902 3897 0
3903 -2611 -2617 -3883 0
-3903 2611 0
-3903 2617 0
-3903 3883 0
-353 2620 3900 3901 3902 3903 0
353 -2620 0
353 -3900 0
353 -3901 0
353 -3902 0
353 -3903 0
3904 -2611 -3886 0
-3904 2611 0
-3904 3886 0
3905 -3886 -3886 0
-3905 3886 0
-3905 3886 0
3906 -3886 -2611 0
-3906 3886 0
-3906 2611 0
3907 -2611 -2611 -3883 0
-3907 2611 0
-3907 2611 0
-3907 3883 0
-3908 2623 3904 3905 3906 3907 0
3908 -2623 0
3908 -3904 0
3908 -3905 0
3908 -3906 0
3908 -3907 0
3909 -2169 -2145 0
-3909 2169 0
-3909 2145 0
2146 -2145 -2145 0
-2146 2145 0
-2146 2145 0
3910 -2145 -2169 0
-3910 2145 0
-3910 2169 0
3911 -2169 -2169 -2151 0
-3911 2169 0
-3911 2169 0
-3911 2151 0
-3912 2149 3909 2146 3910 3911 0
3912 -2149 0
3912 -3909 0
3912 -2146 0
3912 -3910 0
3912 -3911 0
3913 -2169 -2158 0
-3913 2169 0
-3913 2158 0
3914 -2145 -2158 0
-3914 2145 0
-3914 2158 0
3915 -2145 -2177 0
-3915 2145 0
-3915 2177 0
3916 -2169 -2177 -2151 0
-3916 2169 0
-3916 2177 0
-3916 2151 0
-524 2153 3913 3914 3915 3916 0
524 -2153 0
524 -3913 0
524 -3914 0
524 -3915 0
524 -3916 0
3917 -2169 -2165 0
-3917 2169 0
-3917 2165 0
3918 -2145 -2172 0
-3918 2145 0
-3918 2172 0
3919 -2145 -2165 0
-3919 2145 0
-3919 2165 0
3920 -2169 -2172 -2151 0
-3920 2169 0
-3920 2172 0
-3920 2151 0
-522 2160 3917 3918 3919 3920 0
522 -2160 0
522 -3917 0
522 -3918 0
522 -3919 0
522 -3920 0
3921 -2167 -2165 0
-3921 2167 0
-3921 2165 0
3922 -2144 -2165 0
-3922 2144 0
-3922 2165 0
3923 -2144 -2172 0
-3923 2144 0
-3923 2172 0
3924 -2167 -2172 -2151 0
-3924 2167 0
-3924 2172 0
-3924 2151 0
-525 2162 3921 3922 3923 3924 0
525 -2162 0
525 -3921 0
525 -3922 0
525 -3923 0
525 -3924 0
3925 -2177 -2144 0
-3925 2177 0
-3925 2144 0
3926 -2158 -2167 0
-3926 2158 0
-3926 2167 0
3927 -2158 -2144 0
-3927 2158 0
-3927 2144 0
3928 -2177 -2167 -2151 0
-3928 2177 0
-3928 2167 0
-3928 2151 0
-523 2156 3925 3926 3927 3928 0
523 -2156 0
523 -3925 0
523 -3926 0
523 -3927 0
523 -3928 0
3929 -2177 -2158 0
-3929 2177 0
-3929 2158 0
3930 -2158 -2158 0
-3930 2158 0
-3930 2158 0
3931 -2158 -2177 0
-3931 2158 0
-3931 2177 0
3932 -2177 -2177 -2151 0
-3932 2177 0
-3932 2177 0
-3932 2151 0
-3933 2183 3929 3930 3931 3932 0
3933 -2183 0
3933 -3929 0
3933 -3930 0
3933 -3931 0
3933 -3932 0
3934 -2116 -2109 0
-3934 2116 0
-3934 2109 0
2774 -2109 -2109 0
-2774 2109 0
-2774 2109 0
3935 -2109 -2116 0
-3935 2109 0
-3935 2116 0
3936 -2116 -2116 -2134 0
-3936 2116 0
-3936 2116 0
-3936 2134 0
-3937 2102 3934 2774 3935 3936 0
3937 -2102 0
3937 -3934 0
3937 -2774 0
3937 -3935 0
3937 -3936 0
3938 -2116 -2104 0
-3938 2116 0
-3938 2104 0
3939 -2109 -2104 0
-3939 2109 0
-3939 2104 0
3940 -2109 -2111 0
-3940 2109 0
-3940 2111 0
3941 -2116 -2111 -2134 0
-3941 2116 0
-3941 2111 0
-3941 2134 0
-399 2096 3938 3939 3940 3941 0
399 -2096 0
399 -3938 0
399 -3939 0
399 -3940 0
399 -3941 0
3942 -2116 -2107 0
-3942 2116 0
-3942 2107 0
3943 -2109 -2113 0
-3943 2109 0
-3943 2113 0
3944 -2109 -2107 0
-3944 2109 0
-3944 2107 0
3945 -2116 -2113 -2134 0
-3945 2116 0
-3945 2113 0
-3945 2134 0
-397 2095 3942 3943 3944 3945 0
397 -2095 0
397 -3942 0
397 -3943 0
397 -3944 0
397 -3945 0
3946 -2123 -2107 0
-3946 2123 0
-3946 2107 0
3947 -2128 -2107 0
-3947 2128 0
-3947 2107 0
3948 -2128 -2113 0
-3948 2128 0
-3948 2113 0
3949 -2123 -2113 -2134 0
-3949 2123 0
-3949 2113 0
-3949 2134 0
-400 2118 3946 3947 3948 3949 0
400 -2118 0
400 -3946 0
400 -3947 0
400 -3948 0
400 -3949 0
3950 -2111 -2128 0
-3950 2111 0
-3950 2128 0
3951 -2104 -2123 0
-3951 2104 0
-3951 2123 0
3952 -2104 -2128 0
-3952 2104 0
-3952 2128 0
3953 -2111 -2123 -2134 0
-3953 2111 0
-3953 2123 0
-3953 2134 0
-398 2120 3950 3951 3952 3953 0
398 -2120 0
398 -3950 0
398 -3951 0
398 -3952 0
398 -3953 0
3954 -2111 -2104 0
-3954 2111 0
-3954 2104 0
2130 -2104 -2104 0
-2130 2104 0
-2130 2104 0
3955 -2104 -2111 0
-3955 2104 0
-3955 2111 0
3956 -2111 -2111 -2134 0
-3956 2111 0
-3956 2111 0
-3956 2134 0
-3957 2100 3954 2130 3955 3956 0
3957 -2100 0
3957 -3954 0
3957 -2130 0
3957 -3955 0
3957 -3956 0
3958 -3959 -3959 0
-3958 3959 0
-3958 3959 0
-3960 3961 3958 0
3960 -3961 0
3960 -3958 0
3962 -3959 -3963 0
-3962 3959 0
-3962 3963 0
-1114 3964 3962 0
1114 -3964 0
1114 -3962 0
3965 -3959 -3966 0
-3965 3959 0
-3965 3966 0
-1112 3967 3965 0
1112 -3967 0
1112 -3965 0
3968 -3969 -3966 0
-3968 3969 0
-3968 3966 0
-1115 3970 3968 0
1115 -3970 0
1115 -3968 0
3971 -3963 -3969 0
-3971 3963 0
-3971 3969 0
-1113 3972 3971 0
1113 -3972 0
1113 -3971 0
3973 -3963 -3963 0
-3973 3963 0
-3973 3963 0
-3974 3975 3973 0
3974 -3975 0
3974 -3973 0
3976 -1408 -1408 0
-3976 1408 0
-3976 1408 0
-3977 1415 3976 0
3977 -1415 0
3977 -3976 0
3978 -1408 -1420 0
-3978 1408 0
-3978 1420 0
-619 1422 3978 0
619 -1422 0
619 -3978 0
3979 -1408 -1426 0
-3979 1408 0
-3979 1426 0
-617 1429 3979 0
617 -1429 0
617 -3979 0
3980 -1431 -1426 0
-3980 1431 0
-3980 1426 0
-620 1436 3980 0
620 -1436 0
620 -3980 0
3981 -1420 -1431 0
-3981 1420 0
-3981 1431 0
-618 1441 3981 0
618 -1441 0
618 -3981 0
3982 -1420 -1420 0
-3982 1420 0
-3982 1420 0
-3983 1447 3982 0
3983 -1447 0
3983 -3982 0
3984 -3985 -3986 0
-3984 3985 0
-3984 3986 0
3987 -3986 -3986 0
-3987 3986 0
-3987 3986 0
3988 -3986 -3985 0
-3988 3986 0
-3988 3985 0
3989 -3985 -3985 -2344 0
-3989 3985 0
-3989 3985 0
-3989 2344 0
-3990 3991 3984 3987 3988 3989 0
3990 -3991 0
3990 -3984 0
3990 -3987 0
3990 -3988 0
3990 -3989 0
3992 -3985 -2347 0
-3992 3985 0
-3992 2347 0
3993 -3986 -2347 0
-3993 3986 0
-3993 2347 0
3994 -3986 -2355 0
-3994 3986 0
-3994 2355 0
3995 -3985 -2355 -2344 0
-3995 3985 0
-3995 2355 0
-3995 2344 0
-494 3996 3992 3993 3994 3995 0
494 -3996 0
494 -3992 0
494 -3993 0
494 -3994 0
494 -3995 0
3997 -3985 -2350 0
-3997 3985 0
-3997 2350 0
3998 -3986 -2353 0
-3998 3986 0
-3998 2353 0
3999 -3986 -2350 0
-3999 3986 0
-3999 2350 0
4000 -3985 -2353 -2344 0
-4000 3985 0
-4000 2353 0
-4000 2344 0
-492 4001 3997 3998 3999 4000 0
492 -4001 0
492 -3997 0
492 -3998 0
492 -3999 0
492 -4000 0
4002 -2352 -2350 0
-4002 2352 0
-4002 2350 0
4003 -2342 -2350 0
-4003 2342 0
-4003 2350 0
4004 -2342 -2353 0
-4004 2342 0
-4004 2353 0
4005 -2352 -2353 -2344 0
-4005 2352 0
-4005 2353 0
-4005 2344 0
-495 2349 4002 4003 4004 4005 0
495 -2349 0
495 -4002 0
495 -4003 0
495 -4004 0
495 -4005 0
4006 -2355 -2342 0
-4006 2355 0
-4006 2342 0
4007 -2347 -2352 0
-4007 2347 0
-4007 2352 0
4008 -2347 -2342 0
-4008 2347 0
-4008 2342 0
4009 -2355 -2352 -2344 0
-4009 2355 0
-4009 2352 0
-4009 2344 0
-493 2346 4006 4007 4008 4009 0
493 -2346 0
493 -4006 0
493 -4007 0
493 -4008 0
493 -4009 0
4010 -2355 -2347 0
-4010 2355 0
-4010 2347 0
4011 -2347 -2347 0
-4011 2347 0
-4011 2347 0
4012 -2347 -2355 0
-4012 2347 0
-4012 2355 0
4013 -2355 -2355 -2344 0
-4013 2355 0
-4013 2355 0
-4013 2344 0
-4014 2358 4010 4011 4012 4013 0
4014 -2358 0
4014 -4010 0
4014 -4011 0
4014 -4012 0
4014 -4013 0
4015 -2252 -2252 0
-4015 2252 0
-4015 2252 0
-4016 2259 4015 0
4016 -2259 0
4016 -4015 0
4017 -2252 -2264 0
-4017 2252 0
-4017 2264 0
-444 2266 4017 0
444 -2266 0
444 -4017 0
4018 -2252 -2270 0
-4018 2252 0
-4018 2270 0
-442 2273 4018 0
442 -2273 0
442 -4018 0
4019 -2275 -2270 0
-4019 2275 0
-4019 2270 0
-445 2280 4019 0
445 -2280 0
445 -4019 0
4020 -2264 -2275 0
-4020 2264 0
-4020 2275 0
-443 2285 4020 0
443 -2285 0
443 -4020 0
4021 -2264 -2264 0
-4021 2264 0
-4021 2264 0
-4022 2291 4021 0
4022 -2291 0
4022 -4021 0
4023 -4024 -4025 0
-4023 4024 0
-4023 4025 0
4026 -4025 -4025 0
-4026 4025 0
-4026 4025 0
4027 -4025 -4024 0
-4027 4025 0
-4027 4024 0
4028 -4024 -4024 -4029 0
-4028 4024 0
-4028 4024 0
-4028 4029 0
-4030 4031 4023 4026 4027 4028 0
4030 -4031 0
4030 -4023 0
4030 -4026 0
4030 -4027 0
4030 -4028 0
4032 -4024 -4033 0
-4032 4024 0
-4032 4033 0
4034 -4025 -4033 0
-4034 4025 0
-4034 4033 0
4035 -4025 -4036 0
-4035 4025 0
-4035 4036 0
4037 -4024 -4036 -4029 0
-4037 4024 0
-4037 4036 0
-4037 4029 0
-234 4038 4032 4034 4035 4037 0
234 -4038 0
234 -4032 0
234 -4034 0
234 -4035 0
234 -4037 0
4039 -4024 -4040 0
-4039 4024 0
-4039 4040 0
4041 -4025 -4042 0
-4041 4025 0
-4041 4042 0
4043 -4025 -4040 0
-4043 4025 0
-4043 4040 0
4044 -4024 -4042 -4029 0
-4044 4024 0
-4044 4042 0
-4044 4029 0
-232 4045 4039 4041 4043 4044 0
232 -4045 0
232 -4039 0
232 -4041 0
232 -4043 0
232 -4044 0
4046 -4047 -4040 0
-4046 4047 0
-4046 4040 0
4048 -4049 -4040 0
-4048 4049 0
-4048 4040 0
4050 -4049 -4042 0
-4050 4049 0
-4050 4042 0
4051 -4047 -4042 -4029 0
-4051 4047 0
-4051 4042 0
-4051 4029 0
-235 4052 4046 4048 4050 4051 0
235 -4052 0
235 -4046 0
235 -4048 0
235 -4050 0
235 -4051 0
4053 -4036 -4049 0
-4053 4036 0
-4053 4049 0
4054 -4033 -4047 0
-4054 4033 0
-4054 4047 0
4055 -4033 -4049 0
-4055 4033 0
-4055 4049 0
4056 -4036 -4047 -4029 0
-4056 4036 0
-4056 4047 0
-4056 4029 0
-233 4057 4053 4054 4055 4056 0
233 -4057 0
233 -4053 0
233 -4054 0
233 -4055 0
233 -4056 0
4058 -4036 -4033 0
-4058 4036 0
-4058 4033 0
4059 -4033 -4033 0
-4059 4033 0
-4059 4033 0
4060 -4033 -4036 0
-4060 4033 0
-4060 4036 0
4061 -4036 -4036 -4029 0
-4061 4036 0
-4061 4036 0
-4061 4029 0
-4062 4063 4058 4059 4060 4061 0
4062 -4063 0
4062 -4058 0
4062 -4059 0
4062 -4060 0
4062 -4061 0
4064 -3362 -3359 0
-4064 3362 0
-4064 3359 0
4065 -3359 -3359 0
-4065 3359 0
-4065 3359 0
4066 -3359 -3362 0
-4066 3359 0
-4066 3362 0
4067 -3362 -3362 -3370 0
-4067 3362 0
-4067 3362 0
-4067 3370 0
-4068 3356 4064 4065 4066 4067 0
4068 -3356 0
4068 -4064 0
4068 -4065 0
4068 -4066 0
4068 -4067 0
4069 -3362 -3554 0
-4069 3362 0
-4069 3554 0
4070 -3359 -3554 0
-4070 3359 0
-4070 3554 0
4071 -3359 -3516 0
-4071 3359 0
-4071 3516 0
4072 -3362 -3516 -3370 0
-4072 3362 0
-4072 3516 0
-4072 3370 0
-4 3517 4069 4070 4071 4072 0
4 -3517 0
4 -4069 0
4 -4070 0
4 -4071 0
4 -4072 0
4073 -3362 -3358 0
-4073 3362 0
-4073 3358 0
4074 -3359 -3361 0
-4074 3359 0
-4074 3361 0
4075 -3359 -3358 0
-4075 3359 0
-4075 3358 0
4076 -3362 -3361 -3370 0
-4076 3362 0
-4076 3361 0
-4076 3370 0
-2 3354 4073 4074 4075 4076 0
2 -3354 0
2 -4073 0
2 -4074 0
2 -4075 0
2 -4076 0
4077 -3365 -3358 0
-4077 3365 0
-4077 3358 0
4078 -3367 -3358 0
-4078 3367 0
-4078 3358 0
4079 -3367 -3361 0
-4079 3367 0
-4079 3361 0
4080 -3365 -3361 -3370 0
-4080 3365 0
-4080 3361 0
-4080 3370 0
-5 3364 4077 4078 4079 4080 0
5 -3364 0
5 -4077 0
5 -4078 0
5 -4079 0
5 -4080 0
4081 -3516 -3367 0
-4081 3516 0
-4081 3367 0
4082 -3554 -3365 0
-4082 3554 0
-4082 3365 0
4083 -3554 -3367 0
-4083 3554 0
-4083 3367 0
4084 -3516 -3365 -3370 0
-4084 3516 0
-4084 3365 0
-4084 3370 0
-3 3521 4081 4082 4083 4084 0
3 -3521 0
3 -4081 0
3 -4082 0
3 -4083 0
3 -4084 0
4085 -3516 -3554 0
-4085 3516 0
-4085 3554 0
4086 -3554 -3554 0
-4086 3554 0
-4086 3554 0
4087 -3554 -3516 0
-4087 3554 0
-4087 3516 0
4088 -3516 -3516 -3370 0
-4088 3516 0
-4088 3516 0
-4088 3370 0
-4089 3524 4085 4086 4087 4088 0
4089 -3524 0
4089 -4085 0
4089 -4086 0
4089 -4087 0
4089 -4088 0
4090 -1433 -1409 0
-4090 1433 0
-4090 1409 0
1410 -1409 -1409 0
-1410 1409 0
-1410 1409 0
4091 -1409 -1433 0
-4091 1409 0
-4091 1433 0
4092 -1433 -1433 -1415 0
-4092 1433 0
-4092 1433 0
-4092 1415 0
-4093 1413 4090 1410 4091 4092 0
4093 -1413 0
4093 -4090 0
4093 -1410 0
4093 -4091 0
4093 -4092 0
4094 -1433 -1422 0
-4094 1433 0
-4094 1422 0
4095 -1409 -1422 0
-4095 1409 0
-4095 1422 0
4096 -1409 -1441 0
-4096 1409 0
-4096 1441 0
4097 -1433 -1441 -1415 0
-4097 1433 0
-4097 1441 0
-4097 1415 0
-164 1417 4094 4095 4096 4097 0
164 -1417 0
164 -4094 0
164 -4095 0
164 -4096 0
164 -4097 0
4098 -1433 -1429 0
-4098 1433 0
-4098 1429 0
4099 -1409 -1436 0
-4099 1409 0
-4099 1436 0
4100 -1409 -1429 0
-4100 1409 0
-4100 1429 0
4101 -1433 -1436 -1415 0
-4101 1433 0
-4101 1436 0
-4101 1415 0
-162 1424 4098 4099 4100 4101 0
162 -1424 0
162 -4098 0
162 -4099 0
162 -4100 0
162 -4101 0
4102 -1431 -1429 0
-4102 1431 0
-4102 1429 0
4103 -1408 -1429 0
-4103 1408 0
-4103 1429 0
4104 -1408 -1436 0
-4104 1408 0
-4104 1436 0
4105 -1431 -1436 -1415 0
-4105 1431 0
-4105 1436 0
-4105 1415 0
-165 1426 4102 4103 4104 4105 0
165 -1426 0
165 -4102 0
165 -4103 0
165 -4104 0
165 -4105 0
4106 -1441 -1408 0
-4106 1441 0
-4106 1408 0
4107 -1422 -1431 0
-4107 1422 0
-4107 1431 0
4108 -1422 -1408 0
-4108 1422 0
-4108 1408 0
4109 -1441 -1431 -1415 0
-4109 1441 0
-4109 1431 0
-4109 1415 0
-163 1420 4106 4107 4108 4109 0
163 -1420 0
163 -4106 0
163 -4107 0
163 -4108 0
163 -4109 0
4110 -1441 -1422 0
-4110 1441 0
-4110 1422 0
4111 -1422 -1422 0
-4111 1422 0
-4111 1422 0
4112 -1422 -1441 0
-4112 1422 0
-4112 1441 0
4113 -1441 -1441 -1415 0
-4113 1441 0
-4113 1441 0
-4113 1415 0
-4114 1447 4110 4111 4112 4113 0
4114 -1447 0
4114 -4110 0
4114 -4111 0
4114 -4112 0
4114 -4113 0
4115 -4116 -4117 0
-4115 4116 0
-4115 4117 0
4118 -4117 -4117 0
-4118 4117 0
-4118 4117 0
4119 -4117 -4116 0
-4119 4117 0
-4119 4116 0
4120 -4116 -4116 -4121 0
-4120 4116 0
-4120 4116 0
-4120 4121 0
-4122 4123 4115 4118 4119 4120 0
4122 -4123 0
4122 -4115 0
4122 -4118 0
4122 -4119 0
4122 -4120 0
4124 -4116 -4125 0
-4124 4116 0
-4124 4125 0
4126 -4117 -4125 0
-4126 4117 0
-4126 4125 0
4127 -4117 -4128 0
-4127 4117 0
-4127 4128 0
4129 -4116 -4128 -4121 0
-4129 4116 0
-4129 4128 0
-4129 4121 0
-1084 4130 4124 4126 4127 4129 0
1084 -4130 0
1084 -4124 0
1084 -4126 0
1084 -4127 0
1084 -4129 0
4131 -4116 -4132 0
-4131 4116 0
-4131 4132 0
4133 -4117 -4134 0
-4133 4117 0
-4133 4134 0
4135 -4117 -4132 0
-4135 4117 0
-4135 4132 0
4136 -4116 -4134 -4121 0
-4136 4116 0
-4136 4134 0
-4136 4121 0
-1082 4137 4131 4133 4135 4136 0
1082 -4137 0
1082 -4131 0
1082 -4133 0
1082 -4135 0
1082 -4136 0
4138 -4139 -4132 0
-4138 4139 0
-4138 4132 0
4140 -4141 -4132 0
-4140 4141 0
-4140 4132 0
4142 -4141 -4134 0
-4142 4141 0
-4142 4134 0
4143 -4139 -4134 -4121 0
-4143 4139 0
-4143 4134 0
-4143 4121 0
-1085 4144 4138 4140 4142 4143 0
1085 -4144 0
1085 -4138 0
1085 -4140 0
1085 -4142 0
1085 -4143 0
4145 -4128 -4141 0
-4145 4128 0
-4145 4141 0
4146 -4125 -4139 0
-4146 4125 0
-4146 4139 0
4147 -4125 -4141 0
-4147 4125 0
-4147 4141 0
4148 -4128 -4139 -4121 0
-4148 4128 0
-4148 4139 0
-4148 4121 0
-1083 4149 4145 4146 4147 4148 0
1083 -4149 0
1083 -4145 0
1083 -4146 0
1083 -4147 0
1083 -4148 0
4150 -4128 -4125 0
-4150 4128 0
-4150 4125 0
4151 -4125 -4125 0
-4151 4125 0
-4151 4125 0
4152 -4125 -4128 0
-4152 4125 0
-4152 4128 0
4153 -4128 -4128 -4121 0
-4153 4128 0
-4153 4128 0
-4153 4121 0
-4154 4155 4150 4151 4152 4153 0
4154 -4155 0
4154 -4150 0
4154 -4151 0
4154 -4152 0
4154 -4153 0
4156 -1662 -1662 0
-4156 1662 0
-4156 1662 0
-4157 1668 4156 0
4157 -1668 0
4157 -4156 0
4158 -1662 -1598 0
-4158 1662 0
-4158 1598 0
-424 1673 4158 0
424 -1673 0
424 -4158 0
4159 -1662 -1596 0
-4159 1662 0
-4159 1596 0
-422 1678 4159 0
422 -1678 0
422 -4159 0
4160 -1595 -1596 0
-4160 1595 0
-4160 1596 0
-425 1592 4160 0
425 -1592 0
425 -4160 0
4161 -1598 -1595 0
-4161 1598 0
-4161 1595 0
-423 1589 4161 0
423 -1589 0
423 -4161 0
4162 -1598 -1598 0
-4162 1598 0
-4162 1598 0
-4163 1601 4162 0
4163 -1601 0
4163 -4162 0
4164 -4165 -4165 0
-4164 4165 0
-4164 4165 0
-4166 4167 4164 0
4166 -4167 0
4166 -4164 0
4168 -4165 -4169 0
-4168 4165 0
-4168 4169 0
-199 4170 4168 0
199 -4170 0
199 -4168 0
4171 -4165 -4172 0
-4171 4165 0
-4171 4172 0
-197 4173 4171 0
197 -4173 0
197 -4171 0
4174 -4175 -4172 0
-4174 4175 0
-4174 4172 0
-200 4176 4174 0
200 -4176 0
200 -4174 0
4177 -4169 -4175 0
-4177 4169 0
-4177 4175 0
-198 4178 4177 0
198 -4178 0
198 -4177 0
4179 -4169 -4169 0
-4179 4169 0
-4179 4169 0
-4180 4181 4179 0
4180 -4181 0
4180 -4179 0
4182 -3301 -3282 0
-4182 3301 0
-4182 3282 0
4183 -3282 -3282 0
-4183 3282 0
-4183 3282 0
4184 -3282 -3301 0
-4184 3282 0
-4184 3301 0
4185 -3301 -3301 -3275 0
-4185 3301 0
-4185 3301 0
-4185 3275 0
-4186 3307 4182 4183 4184 4185 0
4186 -3307 0
4186 -4182 0
4186 -4183 0
4186 -4184 0
4186 -4185 0
4187 -3301 -3269 0
-4187 3301 0
-4187 3269 0
4188 -3282 -3269 0
-4188 3282 0
-4188 3269 0
4189 -3282 -3293 0
-4189 3282 0
-4189 3293 0
4190 -3301 -3293 -3275 0
-4190 3301 0
-4190 3293 0
-4190 3275 0
-944 3277 4187 4188 4189 4190 0
944 -3277 0
944 -4187 0
944 -4188 0
944 -4189 0
944 -4190 0
4191 -3301 -3268 0
-4191 3301 0
-4191 3268 0
4192 -3282 -3291 0
-4192 3282 0
-4192 3291 0
4193 -3282 -3268 0
-4193 3282 0
-4193 3268 0
4194 -3301 -3291 -3275 0
-4194 3301 0
-4194 3291 0
-4194 3275 0
-942 3280 4191 4192 4193 4194 0
942 -3280 0
942 -4191 0
942 -4192 0
942 -4193 0
942 -4194 0
4195 -3296 -3268 0
-4195 3296 0
-4195 3268 0
4196 -3289 -3268 0
-4196 3289 0
-4196 3268 0
4197 -3289 -3291 0
-4197 3289 0
-4197 3291 0
4198 -3296 -3291 -3275 0
-4198 3296 0
-4198 3291 0
-4198 3275 0
-945 3286 4195 4196 4197 4198 0
945 -3286 0
945 -4195 0
945 -4196 0
945 -4197 0
945 -4198 0
4199 -3293 -3289 0
-4199 3293 0
-4199 3289 0
4200 -3269 -3296 0
-4200 3269 0
-4200 3296 0
4201 -3269 -3289 0
-4201 3269 0
-4201 3289 0
4202 -3293 -3296 -3275 0
-4202 3293 0
-4202 3296 0
-4202 3275 0
-943 3284 4199 4200 4201 4202 0
943 -3284 0
943 -4199 0
943 -4200 0
943 -4201 0
943 -4202 0
4203 -3293 -3269 0
-4203 3293 0
-4203 3269 0
3270 -3269 -3269 0
-3270 3269 0
-3270 3269 0
4204 -3269 -3293 0
-4204 3269 0
-4204 3293 0
4205 -3293 -3293 -3275 0
-4205 3293 0
-4205 3293 0
-4205 3275 0
-4206 3273 4203 3270 4204 4205 0
4206 -3273 0
4206 -4203 0
4206 -3270 0
4206 -4204 0
4206 -4205 0
4207 -2079 -2079 0
-4207 2079 0
-4207 2079 0
-4208 2059 4207 0
4208 -2059 0
4208 -4207 0
4209 -2079 -2087 0
-4209 2079 0
-4209 2087 0
-219 2063 4209 0
219 -2063 0
219 -4209 0
4210 -2079 -2082 0
-4210 2079 0
-4210 2082 0
-217 2070 4210 0
217 -2070 0
217 -4210 0
4211 -2077 -2082 0
-4211 2077 0
-4211 2082 0
-220 2072 4211 0
220 -2072 0
220 -4211 0
4212 -2087 -2077 0
-4212 2087 0
-4212 2077 0
-218 2066 4212 0
218 -2066 0
218 -4212 0
4213 -2087 -2087 0
-4213 2087 0
-4213 2087 0
-4214 2093 4213 0
4214 -2093 0
4214 -4213 0
4215 -1678 -1673 0
-4215 1678 0
-4215 1673 0
4216 -1673 -1673 0
-4216 1673 0
-4216 1673 0
4217 -1673 -1678 0
-4217 1673 0
-4217 1678 0
4218 -1678 -1678 -1601 0
-4218 1678 0
-4218 1678 0
-4218 1601 0
-4219 1668 4215 4216 4217 4218 0
4219 -1668 0
4219 -4215 0
4219 -4216 0
4219 -4217 0
4219 -4218 0
4220 -1678 -1590 0
-4220 1678 0
-4220 1590 0
4221 -1673 -1590 0
-4221 1673 0
-4221 1590 0
4222 -1673 -1593 0
-4222 1673 0
-4222 1593 0
4223 -1678 -1593 -1601 0
-4223 1678 0
-4223 1593 0
-4223 1601 0
-94 1663 4220 4221 4222 4223 0
94 -1663 0
94 -4220 0
94 -4221 0
94 -4222 0
94 -4223 0
4224 -1678 -1598 0
-4224 1678 0
-4224 1598 0
4225 -1673 -1596 0
-4225 1673 0
-4225 1596 0
4226 -1673 -1598 0
-4226 1673 0
-4226 1598 0
4227 -1678 -1596 -1601 0
-4227 1678 0
-4227 1596 0
-4227 1601 0
-92 1662 4224 4225 4226 4227 0
92 -1662 0
92 -4224 0
92 -4225 0
92 -4226 0
92 -4227 0
4228 -1592 -1598 0
-4228 1592 0
-4228 1598 0
4229 -1589 -1598 0
-4229 1589 0
-4229 1598 0
4230 -1589 -1596 0
-4230 1589 0
-4230 1596 0
4231 -1592 -1596 -1601 0
-4231 1592 0
-4231 1596 0
-4231 1601 0
-95 1595 4228 4229 4230 4231 0
95 -1595 0
95 -4228 0
95 -4229 0
95 -4230 0
95 -4231 0
4232 -1593 -1589 0
-4232 1593 0
-4232 1589 0
4233 -1590 -1592 0
-4233 1590 0
-4233 1592 0
4234 -1590 -1589 0
-4234 1590 0
-4234 1589 0
4235 -1593 -1592 -1601 0
-4235 1593 0
-4235 1592 0
-4235 1601 0
-93 1585 4232 4233 4234 4235 0
93 -1585 0
93 -4232 0
93 -4233 0
93 -4234 0
93 -4235 0
4236 -1593 -1590 0
-4236 1593 0
-4236 1590 0
1688 -1590 -1590 0
-1688 1590 0
-1688 1590 0
4237 -1590 -1593 0
-4237 1590 0
-4237 1593 0
4238 -1593 -1593 -1601 0
-4238 1593 0
-4238 1593 0
-4238 1601 0
-4239 1587 4236 1688 4237 4238 0
4239 -1587 0
4239 -4236 0
4239 -1688 0
4239 -4237 0
4239 -4238 0
4240 -1913 -1913 0
-4240 1913 0
-4240 1913 0
-4241 1920 4240 0
4241 -1920 0
4241 -4240 0
4242 -1913 -1925 0
-4242 1913 0
-4242 1925 0
-804 1927 4242 0
804 -1927 0
804 -4242 0
4243 -1913 -1931 0
-4243 1913 0
-4243 1931 0
-802 1934 4243 0
802 -1934 0
802 -4243 0
4244 -1936 -1931 0
-4244 1936 0
-4244 1931 0
-805 1941 4244 0
805 -1941 0
805 -4244 0
4245 -1925 -1936 0
-4245 1925 0
-4245 1936 0
-803 1946 4245 0
803 -1946 0
803 -4245 0
4246 -1925 -1925 0
-4246 1925 0
-4246 1925 0
-4247 1952 4246 0
4247 -1952 0
4247 -4246 0
4248 -3526 -4249 0
-4248 3526 0
-4248 4249 0
4250 -4249 -4249 0
-4250 4249 0
-4250 4249 0
4251 -4249 -3526 0
-4251 4249 0
-4251 3526 0
4252 -3526 -3526 -4253 0
-4252 3526 0
-4252 3526 0
-4252 4253 0
-4254 3528 4248 4250 4251 4252 0
4254 -3528 0
4254 -4248 0
4254 -4250 0
4254 -4251 0
4254 -4252 0
4255 -3526 -4256 0
-4255 3526 0
-4255 4256 0
4257 -4249 -4256 0
-4257 4249 0
-4257 4256 0
4258 -4249 -3530 0
-4258 4249 0
-4258 3530 0
4259 -3526 -3530 -4253 0
-4259 3526 0
-4259 3530 0
-4259 4253 0
-269 3531 4255 4257 4258 4259 0
269 -3531 0
269 -4255 0
269 -4257 0
269 -4258 0
269 -4259 0
4260 -3526 -4261 0
-4260 3526 0
-4260 4261 0
4262 -4249 -3533 0
-4262 4249 0
-4262 3533 0
4263 -4249 -4261 0
-4263 4249 0
-4263 4261 0
4264 -3526 -3533 -4253 0
-4264 3526 0
-4264 3533 0
-4264 4253 0
-267 3534 4260 4262 4263 4264 0
267 -3534 0
267 -4260 0
267 -4262 0
267 -4263 0
267 -4264 0
4265 -3536 -4261 0
-4265 3536 0
-4265 4261 0
4266 -4267 -4261 0
-4266 4267 0
-4266 4261 0
4268 -4267 -3533 0
-4268 4267 0
-4268 3533 0
4269 -3536 -3533 -4253 0
-4269 3536 0
-4269 3533 0
-4269 4253 0
-270 3537 4265 4266 4268 4269 0
270 -3537 0
270 -4265 0
270 -4266 0
270 -4268 0
270 -4269 0
4270 -3530 -4267 0
-4270 3530 0
-4270 4267 0
4271 -4256 -3536 0
-4271 4256 0
-4271 3536 0
4272 -4256 -4267 0
-4272 4256 0
-4272 4267 0
4273 -3530 -3536 -4253 0
-4273 3530 0
-4273 3536 0
-4273 4253 0
-268 3539 4270 4271 4272 4273 0
268 -3539 0
268 -4270 0
268 -4271 0
268 -4272 0
268 -4273 0
4274 -3530 -4256 0
-4274 3530 0
-4274 4256 0
4275 -4256 -4256 0
-4275 4256 0
-4275 4256 0
4276 -4256 -3530 0
-4276 4256 0
-4276 3530 0
4277 -3530 -3530 -4253 0
-4277 3530 0
-4277 3530 0
-4277 4253 0
-4278 3542 4274 4275 4276 4277 0
4278 -3542 0
4278 -4274 0
4278 -4275 0
4278 -4276 0
4278 -4277 0
4279 -1897 -1897 0
-4279 1897 0
-4279 1897 0
-4280 1877 4279 0
4280 -1877 0
4280 -4279 0
4281 -1897 -1905 0
-4281 1897 0
-4281 1905 0
-454 1881 4281 0
454 -1881 0
454 -4281 0
4282 -1897 -1900 0
-4282 1897 0
-4282 1900 0
-452 1888 4282 0
452 -1888 0
452 -4282 0
4283 -1895 -1900 0
-4283 1895 0
-4283 1900 0
-455 1890 4283 0
455 -1890 0
455 -4283 0
4284 -1905 -1895 0
-4284 1905 0
-4284 1895 0
-453 1884 4284 0
453 -1884 0
453 -4284 0
4285 -1905 -1905 0
-4285 1905 0
-4285 1905 0
-4286 1911 4285 0
4286 -1911 0
4286 -4285 0
4287 -1678 -1678 0
-4287 1678 0
-4287 1678 0
-4288 1668 4287 0
4288 -1668 0
4288 -4287 0
4289 -1678 -1593 0
-4289 1678 0
-4289 1593 0
-394 1663 4289 0
394 -1663 0
394 -4289 0
4290 -1678 -1596 0
-4290 1678 0
-4290 1596 0
-392 1662 4290 0
392 -1662 0
392 -4290 0
4291 -1592 -1596 0
-4291 1592 0
-4291 1596 0
-395 1595 4291 0
395 -1595 0
395 -4291 0
4292 -1593 -1592 0
-4292 1593 0
-4292 1592 0
-393 1585 4292 0
393 -1585 0
393 -4292 0
4293 -1593 -1593 0
-4293 1593 0
-4293 1593 0
-4294 1587 4293 0
4294 -1587 0
4294 -4293 0
4295 -4296 -4297 0
-4295 4296 0
-4295 4297 0
4298 -4297 -4297 0
-4298 4297 0
-4298 4297 0
4299 -4297 -4296 0
-4299 4297 0
-4299 4296 0
4300 -4296 -4296 -1569 0
-4300 4296 0
-4300 4296 0
-4300 1569 0
-4301 4302 4295 4298 4299 4300 0
4301 -4302 0
4301 -4295 0
4301 -4298 0
4301 -4299 0
4301 -4300 0
4303 -4296 -1572 0
-4303 4296 0
-4303 1572 0
4304 -4297 -1572 0
-4304 4297 0
-4304 1572 0
4305 -4297 -1580 0
-4305 4297 0
-4305 1580 0
4306 -4296 -1580 -1569 0
-4306 4296 0
-4306 1580 0
-4306 1569 0
-884 4307 4303 4304 4305 4306 0
884 -4307 0
884 -4303 0
884 -4304 0
884 -4305 0
884 -4306 0
4308 -4296 -1575 0
-4308 4296 0
-4308 1575 0
4309 -4297 -1578 0
-4309 4297 0
-4309 1578 0
4310 -4297 -1575 0
-4310 4297 0
-4310 1575 0
4311 -4296 -1578 -1569 0
-4311 4296 0
-4311 1578 0
-4311 1569 0
-882 4312 4308 4309 4310 4311 0
882 -4312 0
882 -4308 0
882 -4309 0
882 -4310 0
882 -4311 0
4313 -1577 -1575 0
-4313 1577 0
-4313 1575 0
4314 -1567 -1575 0
-4314 1567 0
-4314 1575 0
4315 -1567 -1578 0
-4315 1567 0
-4315 1578 0
4316 -1577 -1578 -1569 0
-4316 1577 0
-4316 1578 0
-4316 1569 0
-885 1574 4313 4314 4315 4316 0
885 -1574 0
885 -4313 0
885 -4314 0
885 -4315 0
885 -4316 0
4317 -1580 -1567 0
-4317 1580 0
-4317 1567 0
4318 -1572 -1577 0
-4318 1572 0
-4318 1577 0
4319 -1572 -1567 0
-4319 1572 0
-4319 1567 0
4320 -1580 -1577 -1569 0
-4320 1580 0
-4320 1577 0
-4320 1569 0
-883 1571 4317 4318 4319 4320 0
883 -1571 0
883 -4317 0
883 -4318 0
883 -4319 0
883 -4320 0
4321 -1580 -1572 0
-4321 1580 0
-4321 1572 0
4322 -1572 -1572 0
-4322 1572 0
-4322 1572 0
4323 -1572 -1580 0
-4323 1572 0
-4323 1580 0
4324 -1580 -1580 -1569 0
-4324 1580 0
-4324 1580 0
-4324 1569 0
-4325 1583 4321 4322 4323 4324 0
4325 -1583 0
4325 -4321 0
4325 -4322 0
4325 -4323 0
4325 -4324 0
4326 -1813 -1789 0
-4326 1813 0
-4326 1789 0
1790 -1789 -1789 0
-1790 1789 0
-1790 1789 0
4327 -1789 -1813 0
-4327 1789 0
-4327 1813 0
4328 -1813 -1813 -1795 0
-4328 1813 0
-4328 1813 0
-4328 1795 0
-4329 1793 4326 1790 4327 4328 0
4329 -1793 0
4329 -4326 0
4329 -1790 0
4329 -4327 0
4329 -4328 0
4330 -1813 -1802 0
-4330 1813 0
-4330 1802 0
4331 -1789 -1802 0
-4331 1789 0
-4331 1802 0
4332 -1789 -1821 0
-4332 1789 0
-4332 1821 0
4333 -1813 -1821 -1795 0
-4333 1813 0
-4333 1821 0
-4333 1795 0
-184 1797 4330 4331 4332 4333 0
184 -1797 0
184 -4330 0
184 -4331 0
184 -4332 0
184 -4333 0
4334 -1813 -1809 0
-4334 1813 0
-4334 1809 0
4335 -1789 -1816 0
-4335 1789 0
-4335 1816 0
4336 -1789 -1809 0
-4336 1789 0
-4336 1809 0
4337 -1813 -1816 -1795 0
-4337 1813 0
-4337 1816 0
-4337 1795 0
-182 1804 4334 4335 4336 4337 0
182 -1804 0
182 -4334 0
182 -4335 0
182 -4336 0
182 -4337 0
4338 -1811 -1809 0
-4338 1811 0
-4338 1809 0
4339 -1788 -1809 0
-4339 1788 0
-4339 1809 0
4340 -1788 -1816 0
-4340 1788 0
-4340 1816 0
4341 -1811 -1816 -1795 0
-4341 1811 0
-4341 1816 0
-4341 1795 0
-185 1806 4338 4339 4340 4341 0
185 -1806 0
185 -4338 0
185 -4339 0
185 -4340 0
185 -4341 0
4342 -1821 -1788 0
-4342 1821 0
-4342 1788 0
4343 -1802 -1811 0
-4343 1802 0
-4343 1811 0
4344 -1802 -1788 0
-4344 1802 0
-4344 1788 0
4345 -1821 -1811 -1795 0
-4345 1821 0
-4345 1811 0
-4345 1795 0
-183 1800 4342 4343 4344 4345 0
183 -1800 0
183 -4342 0
183 -4343 0
183 -4344 0
183 -4345 0
4346 -1821 -1802 0
-4346 1821 0
-4346 1802 0
2851 -1802 -1802 0
-2851 1802 0
-2851 1802 0
4347 -1802 -1821 0
-4347 1802 0
-4347 1821 0
4348 -1821 -1821 -1795 0
-4348 1821 0
-4348 1821 0
-4348 1795 0
-4349 1827 4346 2851 4347 4348 0
4349 -1827 0
4349 -4346 0
4349 -2851 0
4349 -4347 0
4349 -4348 0
4350 -2502 -4351 0
-4350 2502 0
-4350 4351 0
4352 -4351 -4351 0
-4352 4351 0
-4352 4351 0
4353 -4351 -2502 0
-4353 4351 0
-4353 2502 0
4354 -2502 -2502 -4355 0
-4354 2502 0
-4354 2502 0
-4354 4355 0
-4356 2504 4350 4352 4353 4354 0
4356 -2504 0
4356 -4350 0
4356 -4352 0
4356 -4353 0
4356 -4354 0
4357 -2502 -4358 0
-4357 2502 0
-4357 4358 0
4359 -4351 -4358 0
-4359 4351 0
-4359 4358 0
4360 -4351 -2506 0
-4360 4351 0
-4360 2506 0
4361 -2502 -2506 -4355 0
-4361 2502 0
-4361 2506 0
-4361 4355 0
-824 2507 4357 4359 4360 4361 0
824 -2507 0
824 -4357 0
824 -4359 0
824 -4360 0
824 -4361 0
4362 -2502 -4363 0
-4362 2502 0
-4362 4363 0
4364 -4351 -2509 0
-4364 4351 0
-4364 2509 0
4365 -4351 -4363 0
-4365 4351 0
-4365 4363 0
4366 -2502 -2509 -4355 0
-4366 2502 0
-4366 2509 0
-4366 4355 0
-822 2510 4362 4364 4365 4366 0
822 -2510 0
822 -4362 0
822 -4364 0
822 -4365 0
822 -4366 0
4367 -2512 -4363 0
-4367 2512 0
-4367 4363 0
4368 -4369 -4363 0
-4368 4369 0
-4368 4363 0
4370 -4369 -2509 0
-4370 4369 0
-4370 2509 0
4371 -2512 -2509 -4355 0
-4371 2512 0
-4371 2509 0
-4371 4355 0
-825 2513 4367 4368 4370 4371 0
825 -2513 0
825 -4367 0
825 -4368 0
825 -4370 0
825 -4371 0
4372 -2506 -4369 0
-4372 2506 0
-4372 4369 0
4373 -4358 -2512 0
-4373 4358 0
-4373 2512 0
4374 -4358 -4369 0
-4374 4358 0
-4374 4369 0
4375 -2506 -2512 -4355 0
-4375 2506 0
-4375 2512 0
-4375 4355 0
-823 2515 4372 4373 4374 4375 0
823 -2515 0
823 -4372 0
823 -4373 0
823 -4374 0
823 -4375 0
4376 -2506 -4358 0
-4376 2506 0
-4376 4358 0
4377 -4358 -4358 0
-4377 4358 0
-4377 4358 0
4378 -4358 -2506 0
-4378 4358 0
-4378 2506 0
4379 -2506 -2506 -4355 0
-4379 2506 0
-4379 2506 0
-4379 4355 0
-4380 2518 4376 4377 4378 4379 0
4380 -2518 0
4380 -4376 0
4380 -4377 0
4380 -4378 0
4380 -4379 0
4381 -4382 -4383 0
-4381 4382 0
-4381 4383 0
4384 -4383 -4383 0
-4384 4383 0
-4384 4383 0
4385 -4383 -4382 0
-4385 4383 0
-4385 4382 0
4386 -4382 -4382 -4387 0
-4386 4382 0
-4386 4382 0
-4386 4387 0
-4388 4389 4381 4384 4385 4386 0
4388 -4389 0
4388 -4381 0
4388 -4384 0
4388 -4385 0
4388 -4386 0
4390 -4382 -4391 0
-4390 4382 0
-4390 4391 0
4392 -4383 -4391 0
-4392 4383 0
-4392 4391 0
4393 -4383 -4394 0
-4393 4383 0
-4393 4394 0
4395 -4382 -4394 -4387 0
-4395 4382 0
-4395 4394 0
-4395 4387 0
-609 4396 4390 4392 4393 4395 0
609 -4396 0
609 -4390 0
609 -4392 0
609 -4393 0
609 -4395 0
4397 -4382 -4398 0
-4397 4382 0
-4397 4398 0
4399 -4383 -4400 0
-4399 4383 0
-4399 4400 0
4401 -4383 -4398 0
-4401 4383 0
-4401 4398 0
4402 -4382 -4400 -4387 0
-4402 4382 0
-4402 4400 0
-4402 4387 0
-607 4403 4397 4399 4401 4402 0
607 -4403 0
607 -4397 0
607 -4399 0
607 -4401 0
607 -4402 0
4404 -4405 -4398 0
-4404 4405 0
-4404 4398 0
4406 -4407 -4398 0
-4406 4407 0
-4406 4398 0
4408 -4407 -4400 0
-4408 4407 0
-4408 4400 0
4409 -4405 -4400 -4387 0
-4409 4405 0
-4409 4400 0
-4409 4387 0
-610 4410 4404 4406 4408 4409 0
610 -4410 0
610 -4404 0
610 -4406 0
610 -4408 0
610 -4409 0
4411 -4394 -4407 0
-4411 4394 0
-4411 4407 0
4412 -4391 -4405 0
-4412 4391 0
-4412 4405 0
4413 -4391 -4407 0
-4413 4391 0
-4413 4407 0
4414 -4394 -4405 -4387 0
-4414 4394 0
-4414 4405 0
-4414 4387 0
-608 4415 4411 4412 4413 4414 0
608 -4415 0
608 -4411 0
608 -4412 0
608 -4413 0
608 -4414 0
4416 -4394 -4391 0
-4416 4394 0
-4416 4391 0
4417 -4391 -4391 0
-4417 4391 0
-4417 4391 0
4418 -4391 -4394 0
-4418 4391 0
-4418 4394 0
4419 -4394 -4394 -4387 0
-4419 4394 0
-4419 4394 0
-4419 4387 0
-4420 4421 4416 4417 4418 4419 0
4420 -4421 0
4420 -4416 0
4420 -4417 0
4420 -4418 0
4420 -4419 0
4422 -3692 -4423 0
-4422 3692 0
-4422 4423 0
4424 -4423 -4423 0
-4424 4423 0
-4424 4423 0
4425 -4423 -3692 0
-4425 4423 0
-4425 3692 0
4426 -3692 -3692 -4427 0
-4426 3692 0
-4426 3692 0
-4426 4427 0
-4428 3694 4422 4424 4425 4426 0
4428 -3694 0
4428 -4422 0
4428 -4424 0
4428 -4425 0
4428 -4426 0
4429 -3692 -4430 0
-4429 3692 0
-4429 4430 0
4431 -4423 -4430 0
-4431 4423 0
-4431 4430 0
4432 -4423 -3696 0
-4432 4423 0
-4432 3696 0
4433 -3692 -3696 -4427 0
-4433 3692 0
-4433 3696 0
-4433 4427 0
-479 3697 4429 4431 4432 4433 0
479 -3697 0
479 -4429 0
479 -4431 0
479 -4432 0
479 -4433 0
4434 -3692 -4435 0
-4434 3692 0
-4434 4435 0
4436 -4423 -3699 0
-4436 4423 0
-4436 3699 0
4437 -4423 -4435 0
-4437 4423 0
-4437 4435 0
4438 -3692 -3699 -4427 0
-4438 3692 0
-4438 3699 0
-4438 4427 0
-477 3700 4434 4436 4437 4438 0
477 -3700 0
477 -4434 0
477 -4436 0
477 -4437 0
477 -4438 0
4439 -3702 -4435 0
-4439 3702 0
-4439 4435 0
4440 -4441 -4435 0
-4440 4441 0
-4440 4435 0
4442 -4441 -3699 0
-4442 4441 0
-4442 3699 0
4443 -3702 -3699 -4427 0
-4443 3702 0
-4443 3699 0
-4443 4427 0
-480 3703 4439 4440 4442 4443 0
480 -3703 0
480 -4439 0
480 -4440 0
480 -4442 0
480 -4443 0
4444 -3696 -4441 0
-4444 3696 0
-4444 4441 0
4445 -4430 -3702 0
-4445 4430 0
-4445 3702 0
4446 -4430 -4441 0
-4446 4430 0
-4446 4441 0
4447 -3696 -3702 -4427 0
-4447 3696 0
-4447 3702 0
-4447 4427 0
-478 3705 4444 4445 4446 4447 0
478 -3705 0
478 -4444 0
478 -4445 0
478 -4446 0
478 -4447 0
4448 -3696 -4430 0
-4448 3696 0
-4448 4430 0
4449 -4430 -4430 0
-4449 4430 0
-4449 4430 0
4450 -4430 -3696 0
-4450 4430 0
-4450 3696 0
4451 -3696 -3696 -4427 0
-4451 3696 0
-4451 3696 0
-4451 4427 0
-4452 3708 4448 4449 4450 4451 0
4452 -3708 0
4452 -4448 0
4452 -4449 0
4452 -4450 0
4452 -4451 0
4453 -4296 -4296 0
-4453 4296 0
-4453 4296 0
-4454 4302 4453 0
4454 -4302 0
4454 -4453 0
4455 -4296 -1580 0
-4455 4296 0
-4455 1580 0
-1139 4307 4455 0
1139 -4307 0
1139 -4455 0
4456 -4296 -1578 0
-4456 4296 0
-4456 1578 0
-1137 4312 4456 0
1137 -4312 0
1137 -4456 0
4457 -1577 -1578 0
-4457 1577 0
-4457 1578 0
-1140 1574 4457 0
1140 -1574 0
1140 -4457 0
4458 -1580 -1577 0
-4458 1580 0
-4458 1577 0
-1138 1571 4458 0
1138 -1571 0
1138 -4458 0
4459 -1580 -1580 0
-4459 1580 0
-4459 1580 0
-4460 1583 4459 0
4460 -1583 0
4460 -4459 0
4461 -2368 -4462 0
-4461 2368 0
-4461 4462 0
4463 -4462 -4462 0
-4463 4462 0
-4463 4462 0
4464 -4462 -2368 0
-4464 4462 0
-4464 2368 0
4465 -2368 -2368 -4466 0
-4465 2368 0
-4465 2368 0
-4465 4466 0
-4467 2370 4461 4463 4464 4465 0
4467 -2370 0
4467 -4461 0
4467 -4463 0
4467 -4464 0
4467 -4465 0
4468 -2368 -4469 0
-4468 2368 0
-4468 4469 0
4470 -4462 -4469 0
-4470 4462 0
-4470 4469 0
4471 -4462 -2372 0
-4471 4462 0
-4471 2372 0
4472 -2368 -2372 -4466 0
-4472 2368 0
-4472 2372 0
-4472 4466 0
-374 2373 4468 4470 4471 4472 0
374 -2373 0
374 -4468 0
374 -4470 0
374 -4471 0
374 -4472 0
4473 -2368 -4474 0
-4473 2368 0
-4473 4474 0
4475 -4462 -2375 0
-4475 4462 0
-4475 2375 0
4476 -4462 -4474 0
-4476 4462 0
-4476 4474 0
4477 -2368 -2375 -4466 0
-4477 2368 0
-4477 2375 0
-4477 4466 0
-372 2376 4473 4475 4476 4477 0
372 -2376 0
372 -4473 0
372 -4475 0
372 -4476 0
372 -4477 0
4478 -2378 -4474 0
-4478 2378 0
-4478 4474 0
4479 -4480 -4474 0
-4479 4480 0
-4479 4474 0
4481 -4480 -2375 0
-4481 4480 0
-4481 2375 0
4482 -2378 -2375 -4466 0
-4482 2378 0
-4482 2375 0
-4482 4466 0
-375 2379 4478 4479 4481 4482 0
375 -2379 0
375 -4478 0
375 -4479 0
375 -4481 0
375 -4482 0
4483 -2372 -4480 0
-4483 2372 0
-4483 4480 0
4484 -4469 -2378 0
-4484 4469 0
-4484 2378 0
4485 -4469 -4480 0
-4485 4469 0
-4485 4480 0
4486 -2372 -2378 -4466 0
-4486 2372 0
-4486 2378 0
-4486 4466 0
-373 2381 4483 4484 4485 4486 0
373 -2381 0
373 -4483 0
373 -4484 0
373 -4485 0
373 -4486 0
4487 -2372 -4469 0
-4487 2372 0
-4487 4469 0
4488 -4469 -4469 0
-4488 4469 0
-4488 4469 0
4489 -4469 -2372 0
-4489 4469 0
-4489 2372 0
4490 -2372 -2372 -4466 0
-4490 2372 0
-4490 2372 0
-4490 4466 0
-4491 2384 4487 4488 4489 4490 0
4491 -2384 0
4491 -4487 0
4491 -4488 0
4491 -4489 0
4491 -4490 0
4492 -1449 -4493 0
-4492 1449 0
-4492 4493 0
4494 -4493 -4493 0
-4494 4493 0
-4494 4493 0
4495 -4493 -1449 0
-4495 4493 0
-4495 1449 0
4496 -1449 -1449 -4497 0
-4496 1449 0
-4496 1449 0
-4496 4497 0
-4498 1451 4492 4494 4495 4496 0
4498 -1451 0
4498 -4492 0
4498 -4494 0
4498 -4495 0
4498 -4496 0
4499 -1449 -4500 0
-4499 1449 0
-4499 4500 0
4501 -4493 -4500 0
-4501 4493 0
-4501 4500 0
4502 -4493 -1453 0
-4502 4493 0
-4502 1453 0
4503 -1449 -1453 -4497 0
-4503 1449 0
-4503 1453 0
-4503 4497 0
-729 1454 4499 4501 4502 4503 0
729 -1454 0
729 -4499 0
729 -4501 0
729 -4502 0
729 -4503 0
4504 -1449 -4505 0
-4504 1449 0
-4504 4505 0
4506 -4493 -1456 0
-4506 4493 0
-4506 1456 0
4507 -4493 -4505 0
-4507 4493 0
-4507 4505 0
4508 -1449 -1456 -4497 0
-4508 1449 0
-4508 1456 0
-4508 4497 0
-727 1457 4504 4506 4507 4508 0
727 -1457 0
727 -4504 0
727 -4506 0
727 -4507 0
727 -4508 0
4509 -1459 -4505 0
-4509 1459 0
-4509 4505 0
4510 -4511 -4505 0
-4510 4511 0
-4510 4505 0
4512 -4511 -1456 0
-4512 4511 0
-4512 1456 0
4513 -1459 -1456 -4497 0
-4513 1459 0
-4513 1456 0
-4513 4497 0
-730 1460 4509 4510 4512 4513 0
730 -1460 0
730 -4509 0
730 -4510 0
730 -4512 0
730 -4513 0
4514 -1453 -4511 0
-4514 1453 0
-4514 4511 0
4515 -4500 -1459 0
-4515 4500 0
-4515 1459 0
4516 -4500 -4511 0
-4516 4500 0
-4516 4511 0
4517 -1453 -1459 -4497 0
-4517 1453 0
-4517 1459 0
-4517 4497 0
-728 1462 4514 4515 4516 4517 0
728 -1462 0
728 -4514 0
728 -4515 0
728 -4516 0
728 -4517 0
4518 -1453 -4500 0
-4518 1453 0
-4518 4500 0
4519 -4500 -4500 0
-4519 4500 0
-4519 4500 0
4520 -4500 -1453 0
-4520 4500 0
-4520 1453 0
4521 -1453 -1453 -4497 0
-4521 1453 0
-4521 1453 0
-4521 4497 0
-4522 1465 4518 4519 4520 4521 0
4522 -1465 0
4522 -4518 0
4522 -4519 0
4522 -4520 0
4522 -4521 0
4523 -4524 -4524 0
-4523 4524 0
-4523 4524 0
-4525 4526 4523 0
4525 -4526 0
4525 -4523 0
4527 -4524 -4528 0
-4527 4524 0
-4527 4528 0
-1109 4529 4527 0
1109 -4529 0
1109 -4527 0
4530 -4524 -4531 0
-4530 4524 0
-4530 4531 0
-1107 4532 4530 0
1107 -4532 0
1107 -4530 0
4533 -4534 -4531 0
-4533 4534 0
-4533 4531 0
-1110 4535 4533 0
1110 -4535 0
1110 -4533 0
4536 -4528 -4534 0
-4536 4528 0
-4536 4534 0
-1108 4537 4536 0
1108 -4537 0
1108 -4536 0
4538 -4528 -4528 0
-4538 4528 0
-4538 4528 0
-4539 4540 4538 0
4539 -4540 0
4539 -4538 0
4541 -4542 -4542 0
-4541 4542 0
-4541 4542 0
-4543 4544 4541 0
4543 -4544 0
4543 -4541 0
4545 -4542 -1657 0
-4545 4542 0
-4545 1657 0
-474 4546 4545 0
474 -4546 0
474 -4545 0
4547 -4542 -1655 0
-4547 4542 0
-4547 1655 0
-472 4548 4547 0
472 -4548 0
472 -4547 0
4549 -1654 -1655 0
-4549 1654 0
-4549 1655 0
-475 1651 4549 0
475 -1651 0
475 -4549 0
4550 -1657 -1654 0
-4550 1657 0
-4550 1654 0
-473 1648 4550 0
473 -1648 0
473 -4550 0
4551 -1657 -1657 0
-4551 1657 0
-4551 1657 0
-4552 1660 4551 0
4552 -1660 0
4552 -4551 0
4553 -2730 -2706 0
-4553 2730 0
-4553 2706 0
2707 -2706 -2706 0
-2707 2706 0
-2707 2706 0
4554 -2706 -2730 0
-4554 2706 0
-4554 2730 0
4555 -2730 -2730 -2712 0
-4555 2730 0
-4555 2730 0
-4555 2712 0
-4556 2710 4553 2707 4554 4555 0
4556 -2710 0
4556 -4553 0
4556 -2707 0
4556 -4554 0
4556 -4555 0
4557 -2730 -2719 0
-4557 2730 0
-4557 2719 0
4558 -2706 -2719 0
-4558 2706 0
-4558 2719 0
4559 -2706 -2738 0
-4559 2706 0
-4559 2738 0
4560 -2730 -2738 -2712 0
-4560 2730 0
-4560 2738 0
-4560 2712 0
-569 2714 4557 4558 4559 4560 0
569 -2714 0
569 -4557 0
569 -4558 0
569 -4559 0
569 -4560 0
4561 -2730 -2726 0
-4561 2730 0
-4561 2726 0
4562 -2706 -2733 0
-4562 2706 0
-4562 2733 0
4563 -2706 -2726 0
-4563 2706 0
-4563 2726 0
4564 -2730 -2733 -2712 0
-4564 2730 0
-4564 2733 0
-4564 2712 0
-567 2721 4561 4562 4563 4564 0
567 -2721 0
567 -4561 0
567 -4562 0
567 -4563 0
567 -4564 0
4565 -2728 -2726 0
-4565 2728 0
-4565 2726 0
4566 -2705 -2726 0
-4566 2705 0
-4566 2726 0
4567 -2705 -2733 0
-4567 2705 0
-4567 2733 0
4568 -2728 -2733 -2712 0
-4568 2728 0
-4568 2733 0
-4568 2712 0
-570 2723 4565 4566 4567 4568 0
570 -2723 0
570 -4565 0
570 -4566 0
570 -4567 0
570 -4568 0
4569 -2738 -2705 0
-4569 2738 0
-4569 2705 0
4570 -2719 -2728 0
-4570 2719 0
-4570 2728 0
4571 -2719 -2705 0
-4571 2719 0
-4571 2705 0
4572 -2738 -2728 -2712 0
-4572 2738 0
-4572 2728 0
-4572 2712 0
-568 2717 4569 4570 4571 4572 0
568 -2717 0
568 -4569 0
568 -4570 0
568 -4571 0
568 -4572 0
4573 -2738 -2719 0
-4573 2738 0
-4573 2719 0
4574 -2719 -2719 0
-4574 2719 0
-4574 2719 0
4575 -2719 -2738 0
-4575 2719 0
-4575 2738 0
4576 -2738 -2738 -2712 0
-4576 2738 0
-4576 2738 0
-4576 2712 0
-4577 2744 4573 4574 4575 4576 0
4577 -2744 0
4577 -4573 0
4577 -4574 0
4577 -4575 0
4577 -4576 0
4578 -3710 -3710 0
-4578 3710 0
-4578 3710 0
-4579 3717 4578 0
4579 -3717 0
4579 -4578 0
4580 -3710 -3722 0
-4580 3710 0
-4580 3722 0
-1009 3724 4580 0
1009 -3724 0
1009 -4580 0
4581 -3710 -3728 0
-4581 3710 0
-4581 3728 0
-1007 3731 4581 0
1007 -3731 0
1007 -4581 0
4582 -3733 -3728 0
-4582 3733 0
-4582 3728 0
-1010 3738 4582 0
1010 -3738 0
1010 -4582 0
4583 -3722 -3733 0
-4583 3722 0
-4583 3733 0
-1008 3743 4583 0
1008 -3743 0
1008 -4583 0
4584 -3722 -3722 0
-4584 3722 0
-4584 3722 0
-4585 3749 4584 0
4585 -3749 0
4585 -4584 0
4586 -2054 -2054 0
-4586 2054 0
-4586 2054 0
-4587 2061 4586 0
4587 -2061 0
4587 -4586 0
4588 -2054 -2066 0
-4588 2054 0
-4588 2066 0
-139 2068 4588 0
139 -2068 0
139 -4588 0
4589 -2054 -2072 0
-4589 2054 0
-4589 2072 0
-137 2075 4589 0
137 -2075 0
137 -4589 0
4590 -2077 -2072 0
-4590 2077 0
-4590 2072 0
-140 2082 4590 0
140 -2082 0
140 -4590 0
4591 -2066 -2077 0
-4591 2066 0
-4591 2077 0
-138 2087 4591 0
138 -2087 0
138 -4591 0
4592 -2066 -2066 0
-4592 2066 0
-4592 2066 0
-4593 2093 4592 0
4593 -2093 0
4593 -4592 0
4594 -1492 -1468 0
-4594 1492 0
-4594 1468 0
1469 -1468 -1468 0
-1469 1468 0
-1469 1468 0
4595 -1468 -1492 0
-4595 1468 0
-4595 1492 0
4596 -1492 -1492 -1474 0
-4596 1492 0
-4596 1492 0
-4596 1474 0
-4597 1472 4594 1469 4595 4596 0
4597 -1472 0
4597 -4594 0
4597 -1469 0
4597 -4595 0
4597 -4596 0
4598 -1492 -1481 0
-4598 1492 0
-4598 1481 0
4599 -1468 -1481 0
-4599 1468 0
-4599 1481 0
4600 -1468 -1500 0
-4600 1468 0
-4600 1500 0
4601 -1492 -1500 -1474 0
-4601 1492 0
-4601 1500 0
-4601 1474 0
-984 1476 4598 4599 4600 4601 0
984 -1476 0
984 -4598 0
984 -4599 0
984 -4600 0
984 -4601 0
4602 -1492 -1488 0
-4602 1492 0
-4602 1488 0
4603 -1468 -1495 0
-4603 1468 0
-4603 1495 0
4604 -1468 -1488 0
-4604 1468 0
-4604 1488 0
4605 -1492 -1495 -1474 0
-4605 1492 0
-4605 1495 0
-4605 1474 0
-982 1483 4602 4603 4604 4605 0
982 -1483 0
982 -4602 0
982 -4603 0
982 -4604 0
982 -4605 0
4606 -1490 -1488 0
-4606 1490 0
-4606 1488 0
4607 -1467 -1488 0
-4607 1467 0
-4607 1488 0
4608 -1467 -1495 0
-4608 1467 0
-4608 1495 0
4609 -1490 -1495 -1474 0
-4609 1490 0
-4609 1495 0
-4609 1474 0
-985 1485 4606 4607 4608 4609 0
985 -1485 0
985 -4606 0
985 -4607 0
985 -4608 0
985 -4609 0
4610 -1500 -1467 0
-4610 1500 0
-4610 1467 0
4611 -1481 -1490 0
-4611 1481 0
-4611 1490 0
4612 -1481 -1467 0
-4612 1481 0
-4612 1467 0
4613 -1500 -1490 -1474 0
-4613 1500 0
-4613 1490 0
-4613 1474 0
-983 1479 4610 4611 4612 4613 0
983 -1479 0
983 -4610 0
983 -4611 0
983 -4612 0
983 -4613 0
4614 -1500 -1481 0
-4614 1500 0
-4614 1481 0
4615 -1481 -1481 0
-4615 1481 0
-4615 1481 0
4616 -1481 -1500 0
-4616 1481 0
-4616 1500 0
4617 -1500 -1500 -1474 0
-4617 1500 0
-4617 1500 0
-4617 1474 0
-4618 1506 4614 4615 4616 4617 0
4618 -1506 0
4618 -4614 0
4618 -4615 0
4618 -4616 0
4618 -4617 0
4619 -4049 -4025 0
-4619 4049 0
-4619 4025 0
4026 -4025 -4025 0
-4026 4025 0
-4026 4025 0
4620 -4025 -4049 0
-4620 4025 0
-4620 4049 0
4621 -4049 -4049 -4031 0
-4621 4049 0
-4621 4049 0
-4621 4031 0
-4622 4029 4619 4026 4620 4621 0
4622 -4029 0
4622 -4619 0
4622 -4026 0
4622 -4620 0
4622 -4621 0
4623 -4049 -4038 0
-4623 4049 0
-4623 4038 0
4624 -4025 -4038 0
-4624 4025 0
-4624 4038 0
4625 -4025 -4057 0
-4625 4025 0
-4625 4057 0
4626 -4049 -4057 -4031 0
-4626 4049 0
-4626 4057 0
-4626 4031 0
-154 4033 4623 4624 4625 4626 0
154 -4033 0
154 -4623 0
154 -4624 0
154 -4625 0
154 -4626 0
4627 -4049 -4045 0
-4627 4049 0
-4627 4045 0
4628 -4025 -4052 0
-4628 4025 0
-4628 4052 0
4629 -4025 -4045 0
-4629 4025 0
-4629 4045 0
4630 -4049 -4052 -4031 0
-4630 4049 0
-4630 4052 0
-4630 4031 0
-152 4040 4627 4628 4629 4630 0
152 -4040 0
152 -4627 0
152 -4628 0
152 -4629 0
152 -4630 0
4631 -4047 -4045 0
-4631 4047 0
-4631 4045 0
4632 -4024 -4045 0
-4632 4024 0
-4632 4045 0
4633 -4024 -4052 0
-4633 4024 0
-4633 4052 0
4634 -4047 -4052 -4031 0
-4634 4047 0
-4634 4052 0
-4634 4031 0
-155 4042 4631 4632 4633 4634 0
155 -4042 0
155 -4631 0
155 -4632 0
155 -4633 0
155 -4634 0
4635 -4057 -4024 0
-4635 4057 0
-4635 4024 0
4636 -4038 -4047 0
-4636 4038 0
-4636 4047 0
4637 -4038 -4024 0
-4637 4038 0
-4637 4024 0
4638 -4057 -4047 -4031 0
-4638 4057 0
-4638 4047 0
-4638 4031 0
-153 4036 4635 4636 4637 4638 0
153 -4036 0
153 -4635 0
153 -4636 0
153 -4637 0
153 -4638 0
4639 -4057 -4038 0
-4639 4057 0
-4639 4038 0
4640 -4038 -4038 0
-4640 4038 0
-4640 4038 0
4641 -4038 -4057 0
-4641 4038 0
-4641 4057 0
4642 -4057 -4057 -4031 0
-4642 4057 0
-4642 4057 0
-4642 4031 0
-4643 4063 4639 4640 4641 4642 0
4643 -4063 0
4643 -4639 0
4643 -4640 0
4643 -4641 0
4643 -4642 0
4644 -2120 -2120 0
-4644 2120 0
-4644 2120 0
-4645 2100 4644 0
4645 -2100 0
4645 -4644 0
4646 -2120 -2128 0
-4646 2120 0
-4646 2128 0
-934 2104 4646 0
934 -2104 0
934 -4646 0
4647 -2120 -2123 0
-4647 2120 0
-4647 2123 0
-932 2111 4647 0
932 -2111 0
932 -4647 0
4648 -2118 -2123 0
-4648 2118 0
-4648 2123 0
-935 2113 4648 0
935 -2113 0
935 -4648 0
4649 -2128 -2118 0
-4649 2128 0
-4649 2118 0
-933 2107 4649 0
933 -2107 0
933 -4649 0
4650 -2128 -2128 0
-4650 2128 0
-4650 2128 0
-4651 2134 4650 0
4651 -2134 0
4651 -4650 0
4652 -2404 -4653 0
-4652 2404 0
-4652 4653 0
4654 -4653 -4653 0
-4654 4653 0
-4654 4653 0
4655 -4653 -2404 0
-4655 4653 0
-4655 2404 0
4656 -2404 -2404 -4657 0
-4656 2404 0
-4656 2404 0
-4656 4657 0
-4658 2406 4652 4654 4655 4656 0
4658 -2406 0
4658 -4652 0
4658 -4654 0
4658 -4655 0
4658 -4656 0
4659 -2404 -4660 0
-4659 2404 0
-4659 4660 0
4661 -4653 -4660 0
-4661 4653 0
-4661 4660 0
4662 -4653 -2408 0
-4662 4653 0
-4662 2408 0
4663 -2404 -2408 -4657 0
-4663 2404 0
-4663 2408 0
-4663 4657 0
-759 2409 4659 4661 4662 4663 0
759 -2409 0
759 -4659 0
759 -4661 0
759 -4662 0
759 -4663 0
4664 -2404 -4665 0
-4664 2404 0
-4664 4665 0
4666 -4653 -2411 0
-4666 4653 0
-4666 2411 0
4667 -4653 -4665 0
-4667 4653 0
-4667 4665 0
4668 -2404 -2411 -4657 0
-4668 2404 0
-4668 2411 0
-4668 4657 0
-757 2412 4664 4666 4667 4668 0
757 -2412 0
757 -4664 0
757 -4666 0
757 -4667 0
757 -4668 0
4669 -2414 -4665 0
-4669 2414 0
-4669 4665 0
4670 -4671 -4665 0
-4670 4671 0
-4670 4665 0
4672 -4671 -2411 0
-4672 4671 0
-4672 2411 0
4673 -2414 -2411 -4657 0
-4673 2414 0
-4673 2411 0
-4673 4657 0
-760 2415 4669 4670 4672 4673 0
760 -2415 0
760 -4669 0
760 -4670 0
760 -4672 0
760 -4673 0
4674 -2408 -4671 0
-4674 2408 0
-4674 4671 0
4675 -4660 -2414 0
-4675 4660 0
-4675 2414 0
4676 -4660 -4671 0
-4676 4660 0
-4676 4671 0
4677 -2408 -2414 -4657 0
-4677 2408 0
-4677 2414 0
-4677 4657 0
-758 2417 4674 4675 4676 4677 0
758 -2417 0
758 -4674 0
758 -4675 0
758 -4676 0
758 -4677 0
4678 -2408 -4660 0
-4678 2408 0
-4678 4660 0
4679 -4660 -4660 0
-4679 4660 0
-4679 4660 0
4680 -4660 -2408 0
-4680 4660 0
-4680 2408 0
4681 -2408 -2408 -4657 0
-4681 2408 0
-4681 2408 0
-4681 4657 0
-4682 2420 4678 4679 4680 4681 0
4682 -2420 0
4682 -4678 0
4682 -4679 0
4682 -4680 0
4682 -4681 0
4683 -2440 -2422 0
-4683 2440 0
-4683 2422 0
2423 -2422 -2422 0
-2423 2422 0
-2423 2422 0
4684 -2422 -2440 0
-4684 2422 0
-4684 2440 0
4685 -2440 -2440 -1997 0
-4685 2440 0
-4685 2440 0
-4685 1997 0
-4686 2426 4683 2423 4684 4685 0
4686 -2426 0
4686 -4683 0
4686 -2423 0
4686 -4684 0
4686 -4685 0
4687 -2440 -2000 0
-4687 2440 0
-4687 2000 0
4688 -2422 -2000 0
-4688 2422 0
-4688 2000 0
4689 -2422 -2008 0
-4689 2422 0
-4689 2008 0
4690 -2440 -2008 -1997 0
-4690 2440 0
-4690 2008 0
-4690 1997 0
-44 2429 4687 4688 4689 4690 0
44 -2429 0
44 -4687 0
44 -4688 0
44 -4689 0
44 -4690 0
4691 -2440 -2003 0
-4691 2440 0
-4691 2003 0
4692 -2422 -2006 0
-4692 2422 0
-4692 2006 0
4693 -2422 -2003 0
-4693 2422 0
-4693 2003 0
4694 -2440 -2006 -1997 0
-4694 2440 0
-4694 2006 0
-4694 1997 0
-42 2434 4691 4692 4693 4694 0
42 -2434 0
42 -4691 0
42 -4692 0
42 -4693 0
42 -4694 0
4695 -2005 -2003 0
-4695 2005 0
-4695 2003 0
4696 -1995 -2003 0
-4696 1995 0
-4696 2003 0
4697 -1995 -2006 0
-4697 1995 0
-4697 2006 0
4698 -2005 -2006 -1997 0
-4698 2005 0
-4698 2006 0
-4698 1997 0
-45 2002 4695 4696 4697 4698 0
45 -2002 0
45 -4695 0
45 -4696 0
45 -4697 0
45 -4698 0
4699 -2008 -1995 0
-4699 2008 0
-4699 1995 0
4700 -2000 -2005 0
-4700 2000 0
-4700 2005 0
4701 -2000 -1995 0
-4701 2000 0
-4701 1995 0
4702 -2008 -2005 -1997 0
-4702 2008 0
-4702 2005 0
-4702 1997 0
-43 1999 4699 4700 4701 4702 0
43 -1999 0
43 -4699 0
43 -4700 0
43 -4701 0
43 -4702 0
4703 -2008 -2000 0
-4703 2008 0
-4703 2000 0
4704 -2000 -2000 0
-4704 2000 0
-4704 2000 0
4705 -2000 -2008 0
-4705 2000 0
-4705 2008 0
4706 -2008 -2008 -1997 0
-4706 2008 0
-4706 2008 0
-4706 1997 0
-4707 2011 4703 4704 4705 4706 0
4707 -2011 0
4707 -4703 0
4707 -4704 0
4707 -4705 0
4707 -4706 0
4708 -3289 -3289 0
-4708 3289 0
-4708 3289 0
-4709 3275 4708 0
4709 -3275 0
4709 -4708 0
4710 -3289 -3284 0
-4710 3289 0
-4710 3284 0
-1134 3269 4710 0
1134 -3269 0
1134 -4710 0
4711 -3289 -3286 0
-4711 3289 0
-4711 3286 0
-1132 3268 4711 0
1132 -3268 0
1132 -4711 0
4712 -3296 -3286 0
-4712 3296 0
-4712 3286 0
-1135 3291 4712 0
1135 -3291 0
1135 -4712 0
4713 -3284 -3296 0
-4713 3284 0
-4713 3296 0
-1133 3293 4713 0
1133 -3293 0
1133 -4713 0
4714 -3284 -3284 0
-4714 3284 0
-4714 3284 0
-4715 3273 4714 0
4715 -3273 0
4715 -4714 0
4716 -3448 -3430 0
-4716 3448 0
-4716 3430 0
3431 -3430 -3430 0
-3431 3430 0
-3431 3430 0
4717 -3430 -3448 0
-4717 3430 0
-4717 3448 0
4718 -3448 -3448 -2909 0
-4718 3448 0
-4718 3448 0
-4718 2909 0
-4719 3434 4716 3431 4717 4718 0
4719 -3434 0
4719 -4716 0
4719 -3431 0
4719 -4717 0
4719 -4718 0
4720 -3448 -2912 0
-4720 3448 0
-4720 2912 0
4721 -3430 -2912 0
-4721 3430 0
-4721 2912 0
4722 -3430 -2920 0
-4722 3430 0
-4722 2920 0
4723 -3448 -2920 -2909 0
-4723 3448 0
-4723 2920 0
-4723 2909 0
-579 3437 4720 4721 4722 4723 0
579 -3437 0
579 -4720 0
579 -4721 0
579 -4722 0
579 -4723 0
4724 -3448 -2915 0
-4724 3448 0
-4724 2915 0
4725 -3430 -2918 0
-4725 3430 0
-4725 2918 0
4726 -3430 -2915 0
-4726 3430 0
-4726 2915 0
4727 -3448 -2918 -2909 0
-4727 3448 0
-4727 2918 0
-4727 2909 0
-577 3442 4724 4725 4726 4727 0
577 -3442 0
577 -4724 0
577 -4725 0
577 -4726 0
577 -4727 0
4728 -2917 -2915 0
-4728 2917 0
-4728 2915 0
4729 -2907 -2915 0
-4729 2907 0
-4729 2915 0
4730 -2907 -2918 0
-4730 2907 0
-4730 2918 0
4731 -2917 -2918 -2909 0
-4731 2917 0
-4731 2918 0
-4731 2909 0
-580 2914 4728 4729 4730 4731 0
580 -2914 0
580 -4728 0
580 -4729 0
580 -4730 0
580 -4731 0
4732 -2920 -2907 0
-4732 2920 0
-4732 2907 0
4733 -2912 -2917 0
-4733 2912 0
-4733 2917 0
4734 -2912 -2907 0
-4734 2912 0
-4734 2907 0
4735 -2920 -2917 -2909 0
-4735 2920 0
-4735 2917 0
-4735 2909 0
-578 2911 4732 4733 4734 4735 0
578 -2911 0
578 -4732 0
578 -4733 0
578 -4734 0
578 -4735 0
4736 -2920 -2912 0
-4736 2920 0
-4736 2912 0
4737 -2912 -2912 0
-4737 2912 0
-4737 2912 0
4738 -2912 -2920 0
-4738 2912 0
-4738 2920 0
4739 -2920 -2920 -2909 0
-4739 2920 0
-4739 2920 0
-4739 2909 0
-4740 2923 4736 4737 4738 4739 0
4740 -2923 0
4740 -4736 0
4740 -4737 0
4740 -4738 0
4740 -4739 0
4741 -4024 -4024 0
-4741 4024 0
-4741 4024 0
-4742 4031 4741 0
4742 -4031 0
4742 -4741 0
4743 -4024 -4036 0
-4743 4024 0
-4743 4036 0
-604 4038 4743 0
604 -4038 0
604 -4743 0
4744 -4024 -4042 0
-4744 4024 0
-4744 4042 0
-602 4045 4744 0
602 -4045 0
602 -4744 0
4745 -4047 -4042 0
-4745 4047 0
-4745 4042 0
-605 4052 4745 0
605 -4052 0
605 -4745 0
4746 -4036 -4047 0
-4746 4036 0
-4746 4047 0
-603 4057 4746 0
603 -4057 0
603 -4746 0
4747 -4036 -4036 0
-4747 4036 0
-4747 4036 0
-4748 4063 4747 0
4748 -4063 0
4748 -4747 0
4749 -1693 -4750 0
-4749 1693 0
-4749 4750 0
4751 -4750 -4750 0
-4751 4750 0
-4751 4750 0
4752 -4750 -1693 0
-4752 4750 0
-4752 1693 0
4753 -1693 -1693 -4754 0
-4753 1693 0
-4753 1693 0
-4753 4754 0
-4755 1695 4749 4751 4752 4753 0
4755 -1695 0
4755 -4749 0
4755 -4751 0
4755 -4752 0
4755 -4753 0
4756 -1693 -4757 0
-4756 1693 0
-4756 4757 0
4758 -4750 -4757 0
-4758 4750 0
-4758 4757 0
4759 -4750 -1697 0
-4759 4750 0
-4759 1697 0
4760 -1693 -1697 -4754 0
-4760 1693 0
-4760 1697 0
-4760 4754 0
-794 1698 4756 4758 4759 4760 0
794 -1698 0
794 -4756 0
794 -4758 0
794 -4759 0
794 -4760 0
4761 -1693 -4762 0
-4761 1693 0
-4761 4762 0
4763 -4750 -1700 0
-4763 4750 0
-4763 1700 0
4764 -4750 -4762 0
-4764 4750 0
-4764 4762 0
4765 -1693 -1700 -4754 0
-4765 1693 0
-4765 1700 0
-4765 4754 0
-792 1701 4761 4763 4764 4765 0
792 -1701 0
792 -4761 0
792 -4763 0
792 -4764 0
792 -4765 0
4766 -1703 -4762 0
-4766 1703 0
-4766 4762 0
4767 -4768 -4762 0
-4767 4768 0
-4767 4762 0
4769 -4768 -1700 0
-4769 4768 0
-4769 1700 0
4770 -1703 -1700 -4754 0
-4770 1703 0
-4770 1700 0
-4770 4754 0
-795 1704 4766 4767 4769 4770 0
795 -1704 0
795 -4766 0
795 -4767 0
795 -4769 0
795 -4770 0
4771 -1697 -4768 0
-4771 1697 0
-4771 4768 0
4772 -4757 -1703 0
-4772 4757 0
-4772 1703 0
4773 -4757 -4768 0
-4773 4757 0
-4773 4768 0
4774 -1697 -1703 -4754 0
-4774 1697 0
-4774 1703 0
-4774 4754 0
-793 1706 4771 4772 4773 4774 0
793 -1706 0
793 -4771 0
793 -4772 0
793 -4773 0
793 -4774 0
4775 -1697 -4757 0
-4775 1697 0
-4775 4757 0
4776 -4757 -4757 0
-4776 4757 0
-4776 4757 0
4777 -4757 -1697 0
-4777 4757 0
-4777 1697 0
4778 -1697 -1697 -4754 0
-4778 1697 0
-4778 1697 0
-4778 4754 0
-4779 1709 4775 4776 4777 4778 0
4779 -1709 0
4779 -4775 0
4779 -4776 0
4779 -4777 0
4779 -4778 0
4780 -3448 -3448 0
-4780 3448 0
-4780 3448 0
-4781 3434 4780 0
4781 -3434 0
4781 -4780 0
4782 -3448 -2920 0
-4782 3448 0
-4782 2920 0
-954 3437 4782 0
954 -3437 0
954 -4782 0
4783 -3448 -2918 0
-4783 3448 0
-4783 2918 0
-952 3442 4783 0
952 -3442 0
952 -4783 0
4784 -2917 -2918 0
-4784 2917 0
-4784 2918 0
-955 2914 4784 0
955 -2914 0
955 -4784 0
4785 -2920 -2917 0
-4785 2920 0
-4785 2917 0
-953 2911 4785 0
953 -2911 0
953 -4785 0
4786 -2920 -2920 0
-4786 2920 0
-4786 2920 0
-4787 2923 4786 0
4787 -2923 0
4787 -4786 0
4788 -3348 -3348 0
-4788 3348 0
-4788 3348 0
-4789 3344 4788 0
4789 -3344 0
4789 -4788 0
4790 -3348 -3255 0
-4790 3348 0
-4790 3255 0
-849 3466 4790 0
849 -3466 0
849 -4790 0
4791 -3348 -3253 0
-4791 3348 0
-4791 3253 0
-847 3342 4791 0
847 -3342 0
847 -4791 0
4792 -3252 -3253 0
-4792 3252 0
-4792 3253 0
-850 3249 4792 0
850 -3249 0
850 -4792 0
4793 -3255 -3252 0
-4793 3255 0
-4793 3252 0
-848 3246 4793 0
848 -3246 0
848 -4793 0
4794 -3255 -3255 0
-4794 3255 0
-4794 3255 0
-4795 3258 4794 0
4795 -3258 0
4795 -4794 0
4796 -3776 -3776 0
-4796 3776 0
-4796 3776 0
-4797 3783 4796 0
4797 -3783 0
4797 -4796 0
4798 -3776 -3788 0
-4798 3776 0
-4798 3788 0
-799 3790 4798 0
799 -3790 0
799 -4798 0
4799 -3776 -3794 0
-4799 3776 0
-4799 3794 0
-797 3797 4799 0
797 -3797 0
797 -4799 0
4800 -3799 -3794 0
-4800 3799 0
-4800 3794 0
-800 3804 4800 0
800 -3804 0
800 -4800 0
4801 -3788 -3799 0
-4801 3788 0
-4801 3799 0
-798 3809 4801 0
798 -3809 0
798 -4801 0
4802 -3788 -3788 0
-4802 3788 0
-4802 3788 0
-4803 3815 4802 0
4803 -3815 0
4803 -4802 0
4804 -2650 -2626 0
-4804 2650 0
-4804 2626 0
2627 -2626 -2626 0
-2627 2626 0
-2627 2626 0
4805 -2626 -2650 0
-4805 2626 0
-4805 2650 0
4806 -2650 -2650 -2632 0
-4806 2650 0
-4806 2650 0
-4806 2632 0
-4807 2630 4804 2627 4805 4806 0
4807 -2630 0
4807 -4804 0
4807 -2627 0
4807 -4805 0
4807 -4806 0
4808 -2650 -2639 0
-4808 2650 0
-4808 2639 0
4809 -2626 -2639 0
-4809 2626 0
-4809 2639 0
4810 -2626 -2658 0
-4810 2626 0
-4810 2658 0
4811 -2650 -2658 -2632 0
-4811 2650 0
-4811 2658 0
-4811 2632 0
-109 2634 4808 4809 4810 4811 0
109 -2634 0
109 -4808 0
109 -4809 0
109 -4810 0
109 -4811 0
4812 -2650 -2646 0
-4812 2650 0
-4812 2646 0
4813 -2626 -2653 0
-4813 2626 0
-4813 2653 0
4814 -2626 -2646 0
-4814 2626 0
-4814 2646 0
4815 -2650 -2653 -2632 0
-4815 2650 0
-4815 2653 0
-4815 2632 0
-107 2641 4812 4813 4814 4815 0
107 -2641 0
107 -4812 0
107 -4813 0
107 -4814 0
107 -4815 0
4816 -2648 -2646 0
-4816 2648 0
-4816 2646 0
4817 -2625 -2646 0
-4817 2625 0
-4817 2646 0
4818 -2625 -2653 0
-4818 2625 0
-4818 2653 0
4819 -2648 -2653 -2632 0
-4819 2648 0
-4819 2653 0
-4819 2632 0
-110 2643 4816 4817 4818 4819 0
110 -2643 0
110 -4816 0
110 -4817 0
110 -4818 0
110 -4819 0
4820 -2658 -2625 0
-4820 2658 0
-4820 2625 0
4821 -2639 -2648 0
-4821 2639 0
-4821 2648 0
4822 -2639 -2625 0
-4822 2639 0
-4822 2625 0
4823 -2658 -2648 -2632 0
-4823 2658 0
-4823 2648 0
-4823 2632 0
-108 2637 4820 4821 4822 4823 0
108 -2637 0
108 -4820 0
108 -4821 0
108 -4822 0
108 -4823 0
4824 -2658 -2639 0
-4824 2658 0
-4824 2639 0
4825 -2639 -2639 0
-4825 2639 0
-4825 2639 0
4826 -2639 -2658 0
-4826 2639 0
-4826 2658 0
4827 -2658 -2658 -2632 0
-4827 2658 0
-4827 2658 0
-4827 2632 0
-4828 2664 4824 4825 4826 4827 0
4828 -2664 0
4828 -4824 0
4828 -4825 0
4828 -4826 0
4828 -4827 0
4829 -4830 -4830 0
-4829 4830 0
-4829 4830 0
-4831 4832 4829 0
4831 -4832 0
4831 -4829 0
4833 -4830 -4834 0
-4833 4830 0
-4833 4834 0
-694 4835 4833 0
694 -4835 0
694 -4833 0
4836 -4830 -4837 0
-4836 4830 0
-4836 4837 0
-692 4838 4836 0
692 -4838 0
692 -4836 0
4839 -4840 -4837 0
-4839 4840 0
-4839 4837 0
-695 4841 4839 0
695 -4841 0
695 -4839 0
4842 -4834 -4840 0
-4842 4834 0
-4842 4840 0
-693 4843 4842 0
693 -4843 0
693 -4842 0
4844 -4834 -4834 0
-4844 4834 0
-4844 4834 0
-4845 4846 4844 0
4845 -4846 0
4845 -4844 0
4847 -2641 -2641 0
-4847 2641 0
-4847 2641 0
-4848 2630 4847 0
4848 -2630 0
4848 -4847 0
4849 -2641 -2646 0
-4849 2641 0
-4849 2646 0
-384 2626 4849 0
384 -2626 0
384 -4849 0
4850 -2641 -2653 0
-4850 2641 0
-4850 2653 0
-382 2650 4850 0
382 -2650 0
382 -4850 0
4851 -2643 -2653 0
-4851 2643 0
-4851 2653 0
-385 2648 4851 0
385 -2648 0
385 -4851 0
4852 -2646 -2643 0
-4852 2646 0
-4852 2643 0
-383 2625 4852 0
383 -2625 0
383 -4852 0
4853 -2646 -2646 0
-4853 2646 0
-4853 2646 0
-4854 2632 4853 0
4854 -2632 0
4854 -4853 0
4855 -2079 -2055 0
-4855 2079 0
-4855 2055 0
2056 -2055 -2055 0
-2056 2055 0
-2056 2055 0
4856 -2055 -2079 0
-4856 2055 0
-4856 2079 0
4857 -2079 -2079 -2061 0
-4857 2079 0
-4857 2079 0
-4857 2061 0
-4858 2059 4855 2056 4856 4857 0
4858 -2059 0
4858 -4855 0
4858 -2056 0
4858 -4856 0
4858 -4857 0
4859 -2079 -2068 0
-4859 2079 0
-4859 2068 0
4860 -2055 -2068 0
-4860 2055 0
-4860 2068 0
4861 -2055 -2087 0
-4861 2055 0
-4861 2087 0
4862 -2079 -2087 -2061 0
-4862 2079 0
-4862 2087 0
-4862 2061 0
-39 2063 4859 4860 4861 4862 0
39 -2063 0
39 -4859 0
39 -4860 0
39 -4861 0
39 -4862 0
4863 -2079 -2075 0
-4863 2079 0
-4863 2075 0
4864 -2055 -2082 0
-4864 2055 0
-4864 2082 0
4865 -2055 -2075 0
-4865 2055 0
-4865 2075 0
4866 -2079 -2082 -2061 0
-4866 2079 0
-4866 2082 0
-4866 2061 0
-37 2070 4863 4864 4865 4866 0
37 -2070 0
37 -4863 0
37 -4864 0
37 -4865 0
37 -4866 0
4867 -2077 -2075 0
-4867 2077 0
-4867 2075 0
4868 -2054 -2075 0
-4868 2054 0
-4868 2075 0
4869 -2054 -2082 0
-4869 2054 0
-4869 2082 0
4870 -2077 -2082 -2061 0
-4870 2077 0
-4870 2082 0
-4870 2061 0
-40 2072 4867 4868 4869 4870 0
40 -2072 0
40 -4867 0
40 -4868 0
40 -4869 0
40 -4870 0
4871 -2087 -2054 0
-4871 2087 0
-4871 2054 0
4872 -2068 -2077 0
-4872 2068 0
-4872 2077 0
4873 -2068 -2054 0
-4873 2068 0
-4873 2054 0
4874 -2087 -2077 -2061 0
-4874 2087 0
-4874 2077 0
-4874 2061 0
-38 2066 4871 4872 4873 4874 0
38 -2066 0
38 -4871 0
38 -4872 0
38 -4873 0
38 -4874 0
4875 -2087 -2068 0
-4875 2087 0
-4875 2068 0
4876 -2068 -2068 0
-4876 2068 0
-4876 2068 0
4877 -2068 -2087 0
-4877 2068 0
-4877 2087 0
4878 -2087 -2087 -2061 0
-4878 2087 0
-4878 2087 0
-4878 2061 0
-4879 2093 4875 4876 4877 4878 0
4879 -2093 0
4879 -4875 0
4879 -4876 0
4879 -4877 0
4879 -4878 0
4880 -4881 -4882 0
-4880 4881 0
-4880 4882 0
4883 -4882 -4882 0
-4883 4882 0
-4883 4882 0
4884 -4882 -4881 0
-4884 4882 0
-4884 4881 0
4885 -4881 -4881 -4886 0
-4885 4881 0
-4885 4881 0
-4885 4886 0
-4887 4888 4880 4883 4884 4885 0
4887 -4888 0
4887 -4880 0
4887 -4883 0
4887 -4884 0
4887 -4885 0
4889 -4881 -4890 0
-4889 4881 0
-4889 4890 0
4891 -4882 -4890 0
-4891 4882 0
-4891 4890 0
4892 -4882 -4893 0
-4892 4882 0
-4892 4893 0
4894 -4881 -4893 -4886 0
-4894 4881 0
-4894 4893 0
-4894 4886 0
-689 4895 4889 4891 4892 4894 0
689 -4895 0
689 -4889 0
689 -4891 0
689 -4892 0
689 -4894 0
4896 -4881 -4897 0
-4896 4881 0
-4896 4897 0
4898 -4882 -4899 0
-4898 4882 0
-4898 4899 0
4900 -4882 -4897 0
-4900 4882 0
-4900 4897 0
4901 -4881 -4899 -4886 0
-4901 4881 0
-4901 4899 0
-4901 4886 0
-687 4902 4896 4898 4900 4901 0
687 -4902 0
687 -4896 0
687 -4898 0
687 -4900 0
687 -4901 0
4903 -4904 -4897 0
-4903 4904 0
-4903 4897 0
4905 -4906 -4897 0
-4905 4906 0
-4905 4897 0
4907 -4906 -4899 0
-4907 4906 0
-4907 4899 0
4908 -4904 -4899 -4886 0
-4908 4904 0
-4908 4899 0
-4908 4886 0
-690 4909 4903 4905 4907 4908 0
690 -4909 0
690 -4903 0
690 -4905 0
690 -4907 0
690 -4908 0
4910 -4893 -4906 0
-4910 4893 0
-4910 4906 0
4911 -4890 -4904 0
-4911 4890 0
-4911 4904 0
4912 -4890 -4906 0
-4912 4890 0
-4912 4906 0
4913 -4893 -4904 -4886 0
-4913 4893 0
-4913 4904 0
-4913 4886 0
-688 4914 4910 4911 4912 4913 0
688 -4914 0
688 -4910 0
688 -4911 0
688 -4912 0
688 -4913 0
4915 -4893 -4890 0
-4915 4893 0
-4915 4890 0
4916 -4890 -4890 0
-4916 4890 0
-4916 4890 0
4917 -4890 -4893 0
-4917 4890 0
-4917 4893 0
4918 -4893 -4893 -4886 0
-4918 4893 0
-4918 4893 0
-4918 4886 0
-4919 4920 4915 4916 4917 4918 0
4919 -4920 0
4919 -4915 0
4919 -4916 0
4919 -4917 0
4919 -4918 0
4921 -1331 -4922 0
-4921 1331 0
-4921 4922 0
4923 -4922 -4922 0
-4923 4922 0
-4923 4922 0
4924 -4922 -1331 0
-4924 4922 0
-4924 1331 0
4925 -1331 -1331 -4926 0
-4925 1331 0
-4925 1331 0
-4925 4926 0
-4927 1333 4921 4923 4924 4925 0
4927 -1333 0
4927 -4921 0
4927 -4923 0
4927 -4924 0
4927 -4925 0
4928 -1331 -4929 0
-4928 1331 0
-4928 4929 0
4930 -4922 -4929 0
-4930 4922 0
-4930 4929 0
4931 -4922 -1335 0
-4931 4922 0
-4931 1335 0
4932 -1331 -1335 -4926 0
-4932 1331 0
-4932 1335 0
-4932 4926 0
-1044 1336 4928 4930 4931 4932 0
1044 -1336 0
1044 -4928 0
1044 -4930 0
1044 -4931 0
1044 -4932 0
4933 -1331 -4934 0
-4933 1331 0
-4933 4934 0
4935 -4922 -1338 0
-4935 4922 0
-4935 1338 0
4936 -4922 -4934 0
-4936 4922 0
-4936 4934 0
4937 -1331 -1338 -4926 0
-4937 1331 0
-4937 1338 0
-4937 4926 0
-1042 1339 4933 4935 4936 4937 0
1042 -1339 0
1042 -4933 0
1042 -4935 0
1042 -4936 0
1042 -4937 0
4938 -1341 -4934 0
-4938 1341 0
-4938 4934 0
4939 -4940 -4934 0
-4939 4940 0
-4939 4934 0
4941 -4940 -1338 0
-4941 4940 0
-4941 1338 0
4942 -1341 -1338 -4926 0
-4942 1341 0
-4942 1338 0
-4942 4926 0
-1045 1342 4938 4939 4941 4942 0
1045 -1342 0
1045 -4938 0
1045 -4939 0
1045 -4941 0
1045 -4942 0
4943 -1335 -4940 0
-4943 1335 0
-4943 4940 0
4944 -4929 -1341 0
-4944 4929 0
-4944 1341 0
4945 -4929 -4940 0
-4945 4929 0
-4945 4940 0
4946 -1335 -1341 -4926 0
-4946 1335 0
-4946 1341 0
-4946 4926 0
-1043 1344 4943 4944 4945 4946 0
1043 -1344 0
1043 -4943 0
1043 -4944 0
1043 -4945 0
1043 -4946 0
4947 -1335 -4929 0
-4947 1335 0
-4947 4929 0
4948 -4929 -4929 0
-4948 4929 0
-4948 4929 0
4949 -4929 -1335 0
-4949 4929 0
-4949 1335 0
4950 -1335 -1335 -4926 0
-4950 1335 0
-4950 1335 0
-4950 4926 0
-4951 1347 4947 4948 4949 4950 0
4951 -1347 0
4951 -4947 0
4951 -4948 0
4951 -4949 0
4951 -4950 0
4952 -4953 -4954 0
-4952 4953 0
-4952 4954 0
4955 -4954 -4954 0
-4955 4954 0
-4955 4954 0
4956 -4954 -4953 0
-4956 4954 0
-4956 4953 0
4957 -4953 -4953 -4958 0
-4957 4953 0
-4957 4953 0
-4957 4958 0
-4959 4960 4952 4955 4956 4957 0
4959 -4960 0
4959 -4952 0
4959 -4955 0
4959 -4956 0
4959 -4957 0
4961 -4953 -4962 0
-4961 4953 0
-4961 4962 0
4963 -4954 -4962 0
-4963 4954 0
-4963 4962 0
4964 -4954 -4965 0
-4964 4954 0
-4964 4965 0
4966 -4953 -4965 -4958 0
-4966 4953 0
-4966 4965 0
-4966 4958 0
-289 4967 4961 4963 4964 4966 0
289 -4967 0
289 -4961 0
289 -4963 0
289 -4964 0
289 -4966 0
4968 -4953 -4969 0
-4968 4953 0
-4968 4969 0
4970 -4954 -4971 0
-4970 4954 0
-4970 4971 0
4972 -4954 -4969 0
-4972 4954 0
-4972 4969 0
4973 -4953 -4971 -4958 0
-4973 4953 0
-4973 4971 0
-4973 4958 0
-287 4974 4968 4970 4972 4973 0
287 -4974 0
287 -4968 0
287 -4970 0
287 -4972 0
287 -4973 0
4975 -4976 -4969 0
-4975 4976 0
-4975 4969 0
4977 -4978 -4969 0
-4977 4978 0
-4977 4969 0
4979 -4978 -4971 0
-4979 4978 0
-4979 4971 0
4980 -4976 -4971 -4958 0
-4980 4976 0
-4980 4971 0
-4980 4958 0
-290 4981 4975 4977 4979 4980 0
290 -4981 0
290 -4975 0
290 -4977 0
290 -4979 0
290 -4980 0
4982 -4965 -4978 0
-4982 4965 0
-4982 4978 0
4983 -4962 -4976 0
-4983 4962 0
-4983 4976 0
4984 -4962 -4978 0
-4984 4962 0
-4984 4978 0
4985 -4965 -4976 -4958 0
-4985 4965 0
-4985 4976 0
-4985 4958 0
-288 4986 4982 4983 4984 4985 0
288 -4986 0
288 -4982 0
288 -4983 0
288 -4984 0
288 -4985 0
4987 -4965 -4962 0
-4987 4965 0
-4987 4962 0
4988 -4962 -4962 0
-4988 4962 0
-4988 4962 0
4989 -4962 -4965 0
-4989 4962 0
-4989 4965 0
4990 -4965 -4965 -4958 0
-4990 4965 0
-4990 4965 0
-4990 4958 0
-4991 4992 4987 4988 4989 4990 0
4991 -4992 0
4991 -4987 0
4991 -4988 0
4991 -4989 0
4991 -4990 0
4993 -3592 -4994 0
-4993 3592 0
-4993 4994 0
4995 -4994 -4994 0
-4995 4994 0
-4995 4994 0
4996 -4994 -3592 0
-4996 4994 0
-4996 3592 0
4997 -3592 -3592 -4998 0
-4997 3592 0
-4997 3592 0
-4997 4998 0
-4999 3594 4993 4995 4996 4997 0
4999 -3594 0
4999 -4993 0
4999 -4995 0
4999 -4996 0
4999 -4997 0
5000 -3592 -5001 0
-5000 3592 0
-5000 5001 0
5002 -4994 -5001 0
-5002 4994 0
-5002 5001 0
5003 -4994 -3596 0
-5003 4994 0
-5003 3596 0
5004 -3592 -3596 -4998 0
-5004 3592 0
-5004 3596 0
-5004 4998 0
-274 3597 5000 5002 5003 5004 0
274 -3597 0
274 -5000 0
274 -5002 0
274 -5003 0
274 -5004 0
5005 -3592 -5006 0
-5005 3592 0
-5005 5006 0
5007 -4994 -3599 0
-5007 4994 0
-5007 3599 0
5008 -4994 -5006 0
-5008 4994 0
-5008 5006 0
5009 -3592 -3599 -4998 0
-5009 3592 0
-5009 3599 0
-5009 4998 0
-272 3600 5005 5007 5008 5009 0
272 -3600 0
272 -5005 0
272 -5007 0
272 -5008 0
272 -5009 0
5010 -3602 -5006 0
-5010 3602 0
-5010 5006 0
5011 -5012 -5006 0
-5011 5012 0
-5011 5006 0
5013 -5012 -3599 0
-5013 5012 0
-5013 3599 0
5014 -3602 -3599 -4998 0
-5014 3602 0
-5014 3599 0
-5014 4998 0
-275 3603 5010 5011 5013 5014 0
275 -3603 0
275 -5010 0
275 -5011 0
275 -5013 0
275 -5014 0
5015 -3596 -5012 0
-5015 3596 0
-5015 5012 0
5016 -5001 -3602 0
-5016 5001 0
-5016 3602 0
5017 -5001 -5012 0
-5017 5001 0
-5017 5012 0
5018 -3596 -3602 -4998 0
-5018 3596 0
-5018 3602 0
-5018 4998 0
-273 3605 5015 5016 5017 5018 0
273 -3605 0
273 -5015 0
273 -5016 0
273 -5017 0
273 -5018 0
5019 -3596 -5001 0
-5019 3596 0
-5019 5001 0
5020 -5001 -5001 0
-5020 5001 0
-5020 5001 0
5021 -5001 -3596 0
-5021 5001 0
-5021 3596 0
5022 -3596 -3596 -4998 0
-5022 3596 0
-5022 3596 0
-5022 4998 0
-5023 3608 5019 5020 5021 5022 0
5023 -3608 0
5023 -5019 0
5023 -5020 0
5023 -5021 0
5023 -5022 0
5024 -5025 -5025 0
-5024 5025 0
-5024 5025 0
-5026 5027 5024 0
5026 -5027 0
5026 -5024 0
5028 -5025 -5029 0
-5028 5025 0
-5028 5029 0
-1014 5030 5028 0
1014 -5030 0
1014 -5028 0
5031 -5025 -5032 0
-5031 5025 0
-5031 5032 0
-1012 5033 5031 0
1012 -5033 0
1012 -5031 0
5034 -5035 -5032 0
-5034 5035 0
-5034 5032 0
-1015 5036 5034 0
1015 -5036 0
1015 -5034 0
5037 -5029 -5035 0
-5037 5029 0
-5037 5035 0
-1013 5038 5037 0
1013 -5038 0
1013 -5037 0
5039 -5029 -5029 0
-5039 5029 0
-5039 5029 0
-5040 5041 5039 0
5040 -5041 0
5040 -5039 0
5042 -4441 -4441 0
-5042 4441 0
-5042 4441 0
-5043 4427 5042 0
5043 -4427 0
5043 -5042 0
5044 -4441 -3705 0
-5044 4441 0
-5044 3705 0
-969 4430 5044 0
969 -4430 0
969 -5044 0
5045 -4441 -3703 0
-5045 4441 0
-5045 3703 0
-967 4435 5045 0
967 -4435 0
967 -5045 0
5046 -3702 -3703 0
-5046 3702 0
-5046 3703 0
-970 3699 5046 0
970 -3699 0
970 -5046 0
5047 -3705 -3702 0
-5047 3705 0
-5047 3702 0
-968 3696 5047 0
968 -3696 0
968 -5047 0
5048 -3705 -3705 0
-5048 3705 0
-5048 3705 0
-5049 3708 5048 0
5049 -3708 0
5049 -5048 0
5050 -1567 -4297 0
-5050 1567 0
-5050 4297 0
4298 -4297 -4297 0
-4298 4297 0
-4298 4297 0
5051 -4297 -1567 0
-5051 4297 0
-5051 1567 0
5052 -1567 -1567 -4302 0
-5052 1567 0
-5052 1567 0
-5052 4302 0
-5053 1569 5050 4298 5051 5052 0
5053 -1569 0
5053 -5050 0
5053 -4298 0
5053 -5051 0
5053 -5052 0
5054 -1567 -4307 0
-5054 1567 0
-5054 4307 0
5055 -4297 -4307 0
-5055 4297 0
-5055 4307 0
5056 -4297 -1571 0
-5056 4297 0
-5056 1571 0
5057 -1567 -1571 -4302 0
-5057 1567 0
-5057 1571 0
-5057 4302 0
-964 1572 5054 5055 5056 5057 0
964 -1572 0
964 -5054 0
964 -5055 0
964 -5056 0
964 -5057 0
5058 -1567 -4312 0
-5058 1567 0
-5058 4312 0
5059 -4297 -1574 0
-5059 4297 0
-5059 1574 0
5060 -4297 -4312 0
-5060 4297 0
-5060 4312 0
5061 -1567 -1574 -4302 0
-5061 1567 0
-5061 1574 0
-5061 4302 0
-962 1575 5058 5059 5060 5061 0
962 -1575 0
962 -5058 0
962 -5059 0
962 -5060 0
962 -5061 0
5062 -1577 -4312 0
-5062 1577 0
-5062 4312 0
5063 -4296 -4312 0
-5063 4296 0
-5063 4312 0
5064 -4296 -1574 0
-5064 4296 0
-5064 1574 0
5065 -1577 -1574 -4302 0
-5065 1577 0
-5065 1574 0
-5065 4302 0
-965 1578 5062 5063 5064 5065 0
965 -1578 0
965 -5062 0
965 -5063 0
965 -5064 0
965 -5065 0
5066 -1571 -4296 0
-5066 1571 0
-5066 4296 0
5067 -4307 -1577 0
-5067 4307 0
-5067 1577 0
5068 -4307 -4296 0
-5068 4307 0
-5068 4296 0
5069 -1571 -1577 -4302 0
-5069 1571 0
-5069 1577 0
-5069 4302 0
-963 1580 5066 5067 5068 5069 0
963 -1580 0
963 -5066 0
963 -5067 0
963 -5068 0
963 -5069 0
5070 -1571 -4307 0
-5070 1571 0
-5070 4307 0
5071 -4307 -4307 0
-5071 4307 0
-5071 4307 0
5072 -4307 -1571 0
-5072 4307 0
-5072 1571 0
5073 -1571 -1571 -4302 0
-5073 1571 0
-5073 1571 0
-5073 4302 0
-5074 1583 5070 5071 5072 5073 0
5074 -1583 0
5074 -5070 0
5074 -5071 0
5074 -5072 0
5074 -5073 0
5075 -1526 -1526 0
-5075 1526 0
-5075 1526 0
-5076 1533 5075 0
5076 -1533 0
5076 -5075 0
5077 -1526 -1538 0
-5077 1526 0
-5077 1538 0
-859 1540 5077 0
859 -1540 0
859 -5077 0
5078 -1526 -1544 0
-5078 1526 0
-5078 1544 0
-857 1547 5078 0
857 -1547 0
857 -5078 0
5079 -1549 -1544 0
-5079 1549 0
-5079 1544 0
-860 1554 5079 0
860 -1554 0
860 -5079 0
5080 -1538 -1549 0
-5080 1538 0
-5080 1549 0
-858 1559 5080 0
858 -1559 0
858 -5080 0
5081 -1538 -1538 0
-5081 1538 0
-5081 1538 0
-5082 1565 5081 0
5082 -1565 0
5082 -5081 0
5083 -2461 -2461 0
-5083 2461 0
-5083 2461 0
-5084 2468 5083 0
5084 -2468 0
5084 -5083 0
5085 -2461 -2473 0
-5085 2461 0
-5085 2473 0
-299 2475 5085 0
299 -2475 0
299 -5085 0
5086 -2461 -2479 0
-5086 2461 0
-5086 2479 0
-297 2482 5086 0
297 -2482 0
297 -5086 0
5087 -2484 -2479 0
-5087 2484 0
-5087 2479 0
-300 2489 5087 0
300 -2489 0
300 -5087 0
5088 -2473 -2484 0
-5088 2473 0
-5088 2484 0
-298 2494 5088 0
298 -2494 0
298 -5088 0
5089 -2473 -2473 0
-5089 2473 0
-5089 2473 0
-5090 2500 5089 0
5090 -2500 0
5090 -5089 0
5091 -5092 -5092 0
-5091 5092 0
-5091 5092 0
-5093 5094 5091 0
5093 -5094 0
5093 -5091 0
5095 -5092 -5096 0
-5095 5092 0
-5095 5096 0
-724 5097 5095 0
724 -5097 0
724 -5095 0
5098 -5092 -5099 0
-5098 5092 0
-5098 5099 0
-722 5100 5098 0
722 -5100 0
722 -5098 0
5101 -5102 -5099 0
-5101 5102 0
-5101 5099 0
-725 5103 5101 0
725 -5103 0
725 -5101 0
5104 -5096 -5102 0
-5104 5096 0
-5104 5102 0
-723 5105 5104 0
723 -5105 0
723 -5104 0
5106 -5096 -5096 0
-5106 5096 0
-5106 5096 0
-5107 5108 5106 0
5107 -5108 0
5107 -5106 0
5109 -1585 -1663 0
-5109 1585 0
-5109 1663 0
1664 -1663 -1663 0
-1664 1663 0
-1664 1663 0
5110 -1663 -1585 0
-5110 1663 0
-5110 1585 0
5111 -1585 -1585 -1668 0
-5111 1585 0
-5111 1585 0
-5111 1668 0
-5112 1587 5109 1664 5110 5111 0
5112 -1587 0
5112 -5109 0
5112 -1664 0
5112 -5110 0
5112 -5111 0
5113 -1585 -1673 0
-5113 1585 0
-5113 1673 0
5114 -1663 -1673 0
-5114 1663 0
-5114 1673 0
5115 -1663 -1589 0
-5115 1663 0
-5115 1589 0
5116 -1585 -1589 -1668 0
-5116 1585 0
-5116 1589 0
-5116 1668 0
-194 1590 5113 5114 5115 5116 0
194 -1590 0
194 -5113 0
194 -5114 0
194 -5115 0
194 -5116 0
5117 -1585 -1678 0
-5117 1585 0
-5117 1678 0
5118 -1663 -1592 0
-5118 1663 0
-5118 1592 0
5119 -1663 -1678 0
-5119 1663 0
-5119 1678 0
5120 -1585 -1592 -1668 0
-5120 1585 0
-5120 1592 0
-5120 1668 0
-192 1593 5117 5118 5119 5120 0
192 -1593 0
192 -5117 0
192 -5118 0
192 -5119 0
192 -5120 0
5121 -1595 -1678 0
-5121 1595 0
-5121 1678 0
5122 -1662 -1678 0
-5122 1662 0
-5122 1678 0
5123 -1662 -1592 0
-5123 1662 0
-5123 1592 0
5124 -1595 -1592 -1668 0
-5124 1595 0
-5124 1592 0
-5124 1668 0
-195 1596 5121 5122 5123 5124 0
195 -1596 0
195 -5121 0
195 -5122 0
195 -5123 0
195 -5124 0
5125 -1589 -1662 0
-5125 1589 0
-5125 1662 0
5126 -1673 -1595 0
-5126 1673 0
-5126 1595 0
5127 -1673 -1662 0
-5127 1673 0
-5127 1662 0
5128 -1589 -1595 -1668 0
-5128 1589 0
-5128 1595 0
-5128 1668 0
-193 1598 5125 5126 5127 5128 0
193 -1598 0
193 -5125 0
193 -5126 0
193 -5127 0
193 -5128 0
5129 -1589 -1673 0
-5129 1589 0
-5129 1673 0
4216 -1673 -1673 0
-4216 1673 0
-4216 1673 0
5130 -1673 -1589 0
-5130 1673 0
-5130 1589 0
5131 -1589 -1589 -1668 0
-5131 1589 0
-5131 1589 0
-5131 1668 0
-5132 1601 5129 4216 5130 5131 0
5132 -1601 0
5132 -5129 0
5132 -4216 0
5132 -5130 0
5132 -5131 0
5133 -5134 -5135 0
-5133 5134 0
-5133 5135 0
5136 -5135 -5135 0
-5136 5135 0
-5136 5135 0
5137 -5135 -5134 0
-5137 5135 0
-5137 5134 0
5138 -5134 -5134 -4167 0
-5138 5134 0
-5138 5134 0
-5138 4167 0
-5139 5140 5133 5136 5137 5138 0
5139 -5140 0
5139 -5133 0
5139 -5136 0
5139 -5137 0
5139 -5138 0
5141 -5134 -4170 0
-5141 5134 0
-5141 4170 0
5142 -5135 -4170 0
-5142 5135 0
-5142 4170 0
5143 -5135 -4178 0
-5143 5135 0
-5143 4178 0
5144 -5134 -4178 -4167 0
-5144 5134 0
-5144 4178 0
-5144 4167 0
-14 5145 5141 5142 5143 5144 0
14 -5145 0
14 -5141 0
14 -5142 0
14 -5143 0
14 -5144 0
5146 -5134 -4173 0
-5146 5134 0
-5146 4173 0
5147 -5135 -4176 0
-5147 5135 0
-5147 4176 0
5148 -5135 -4173 0
-5148 5135 0
-5148 4173 0
5149 -5134 -4176 -4167 0
-5149 5134 0
-5149 4176 0
-5149 4167 0
-12 5150 5146 5147 5148 5149 0
12 -5150 0
12 -5146 0
12 -5147 0
12 -5148 0
12 -5149 0
5151 -4175 -4173 0
-5151 4175 0
-5151 4173 0
5152 -4165 -4173 0
-5152 4165 0
-5152 4173 0
5153 -4165 -4176 0
-5153 4165 0
-5153 4176 0
5154 -4175 -4176 -4167 0
-5154 4175 0
-5154 4176 0
-5154 4167 0
-15 4172 5151 5152 5153 5154 0
15 -4172 0
15 -5151 0
15 -5152 0
15 -5153 0
15 -5154 0
5155 -4178 -4165 0
-5155 4178 0
-5155 4165 0
5156 -4170 -4175 0
-5156 4170 0
-5156 4175 0
5157 -4170 -4165 0
-5157 4170 0
-5157 4165 0
5158 -4178 -4175 -4167 0
-5158 4178 0
-5158 4175 0
-5158 4167 0
-13 4169 5155 5156 5157 5158 0
13 -4169 0
13 -5155 0
13 -5156 0
13 -5157 0
13 -5158 0
5159 -4178 -4170 0
-5159 4178 0
-5159 4170 0
5160 -4170 -4170 0
-5160 4170 0
-5160 4170 0
5161 -4170 -4178 0
-5161 4170 0
-5161 4178 0
5162 -4178 -4178 -4167 0
-5162 4178 0
-5162 4178 0
-5162 4167 0
-5163 4181 5159 5160 5161 5162 0
5163 -4181 0
5163 -5159 0
5163 -5160 0
5163 -5161 0
5163 -5162 0
5164 -2641 -2634 0
-5164 2641 0
-5164 2634 0
2660 -2634 -2634 0
-2660 2634 0
-2660 2634 0
5165 -2634 -2641 0
-5165 2634 0
-5165 2641 0
5166 -2641 -2641 -2664 0
-5166 2641 0
-5166 2641 0
-5166 2664 0
-5167 2630 5164 2660 5165 5166 0
5167 -2630 0
5167 -5164 0
5167 -2660 0
5167 -5165 0
5167 -5166 0
5168 -2641 -2639 0
-5168 2641 0
-5168 2639 0
5169 -2634 -2639 0
-5169 2634 0
-5169 2639 0
5170 -2634 -2646 0
-5170 2634 0
-5170 2646 0
5171 -2641 -2646 -2664 0
-5171 2641 0
-5171 2646 0
-5171 2664 0
-89 2626 5168 5169 5170 5171 0
89 -2626 0
89 -5168 0
89 -5169 0
89 -5170 0
89 -5171 0
5172 -2641 -2658 0
-5172 2641 0
-5172 2658 0
5173 -2634 -2653 0
-5173 2634 0
-5173 2653 0
5174 -2634 -2658 0
-5174 2634 0
-5174 2658 0
5175 -2641 -2653 -2664 0
-5175 2641 0
-5175 2653 0
-5175 2664 0
-87 2650 5172 5173 5174 5175 0
87 -2650 0
87 -5172 0
87 -5173 0
87 -5174 0
87 -5175 0
5176 -2643 -2658 0
-5176 2643 0
-5176 2658 0
5177 -2637 -2658 0
-5177 2637 0
-5177 2658 0
5178 -2637 -2653 0
-5178 2637 0
-5178 2653 0
5179 -2643 -2653 -2664 0
-5179 2643 0
-5179 2653 0
-5179 2664 0
-90 2648 5176 5177 5178 5179 0
90 -2648 0
90 -5176 0
90 -5177 0
90 -5178 0
90 -5179 0
5180 -2646 -2637 0
-5180 2646 0
-5180 2637 0
5181 -2639 -2643 0
-5181 2639 0
-5181 2643 0
5182 -2639 -2637 0
-5182 2639 0
-5182 2637 0
5183 -2646 -2643 -2664 0
-5183 2646 0
-5183 2643 0
-5183 2664 0
-88 2625 5180 5181 5182 5183 0
88 -2625 0
88 -5180 0
88 -5181 0
88 -5182 0
88 -5183 0
5184 -2646 -2639 0
-5184 2646 0
-5184 2639 0
4825 -2639 -2639 0
-4825 2639 0
-4825 2639 0
5185 -2639 -2646 0
-5185 2639 0
-5185 2646 0
5186 -2646 -2646 -2664 0
-5186 2646 0
-5186 2646 0
-5186 2664 0
-5187 2632 5184 4825 5185 5186 0
5187 -2632 0
5187 -5184 0
5187 -4825 0
5187 -5185 0
5187 -5186 0
5188 -2730 -2730 0
-5188 2730 0
-5188 2730 0
-5189 2710 5188 0
5189 -2710 0
5189 -5188 0
5190 -2730 -2738 0
-5190 2730 0
-5190 2738 0
-949 2714 5190 0
949 -2714 0
949 -5190 0
5191 -2730 -2733 0
-5191 2730 0
-5191 2733 0
-947 2721 5191 0
947 -2721 0
947 -5191 0
5192 -2728 -2733 0
-5192 2728 0
-5192 2733 0
-950 2723 5192 0
950 -2723 0
950 -5192 0
5193 -2738 -2728 0
-5193 2738 0
-5193 2728 0
-948 2717 5193 0
948 -2717 0
948 -5193 0
5194 -2738 -2738 0
-5194 2738 0
-5194 2738 0
-5195 2744 5194 0
5195 -2744 0
5195 -5194 0
5196 -5197 -5198 0
-5196 5197 0
-5196 5198 0
5199 -5198 -5198 0
-5199 5198 0
-5199 5198 0
5200 -5198 -5197 0
-5200 5198 0
-5200 5197 0
5201 -5197 -5197 -3651 0
-5201 5197 0
-5201 5197 0
-5201 3651 0
-5202 5203 5196 5199 5200 5201 0
5202 -5203 0
5202 -5196 0
5202 -5199 0
5202 -5200 0
5202 -5201 0
5204 -5197 -3654 0
-5204 5197 0
-5204 3654 0
5205 -5198 -3654 0
-5205 5198 0
-5205 3654 0
5206 -5198 -3662 0
-5206 5198 0
-5206 3662 0
5207 -5197 -3662 -3651 0
-5207 5197 0
-5207 3662 0
-5207 3651 0
-509 5208 5204 5205 5206 5207 0
509 -5208 0
509 -5204 0
509 -5205 0
509 -5206 0
509 -5207 0
5209 -5197 -3657 0
-5209 5197 0
-5209 3657 0
5210 -5198 -3660 0
-5210 5198 0
-5210 3660 0
5211 -5198 -3657 0
-5211 5198 0
-5211 3657 0
5212 -5197 -3660 -3651 0
-5212 5197 0
-5212 3660 0
-5212 3651 0
-507 5213 5209 5210 5211 5212 0
507 -5213 0
507 -5209 0
507 -5210 0
507 -5211 0
507 -5212 0
5214 -3659 -3657 0
-5214 3659 0
-5214 3657 0
5215 -3649 -3657 0
-5215 3649 0
-5215 3657 0
5216 -3649 -3660 0
-5216 3649 0
-5216 3660 0
5217 -3659 -3660 -3651 0
-5217 3659 0
-5217 3660 0
-5217 3651 0
-510 3656 5214 5215 5216 5217 0
510 -3656 0
510 -5214 0
510 -5215 0
510 -5216 0
510 -5217 0
5218 -3662 -3649 0
-5218 3662 0
-5218 3649 0
5219 -3654 -3659 0
-5219 3654 0
-5219 3659 0
5220 -3654 -3649 0
-5220 3654 0
-5220 3649 0
5221 -3662 -3659 -3651 0
-5221 3662 0
-5221 3659 0
-5221 3651 0
-508 3653 5218 5219 5220 5221 0
508 -3653 0
508 -5218 0
508 -5219 0
508 -5220 0
508 -5221 0
5222 -3662 -3654 0
-5222 3662 0
-5222 3654 0
5223 -3654 -3654 0
-5223 3654 0
-5223 3654 0
5224 -3654 -3662 0
-5224 3654 0
-5224 3662 0
5225 -3662 -3662 -3651 0
-5225 3662 0
-5225 3662 0
-5225 3651 0
-5226 3665 5222 5223 5224 5225 0
5226 -3665 0
5226 -5222 0
5226 -5223 0
5226 -5224 0
5226 -5225 0
5227 -1241 -5228 0
-5227 1241 0
-5227 5228 0
5229 -5228 -5228 0
-5229 5228 0
-5229 5228 0
5230 -5228 -1241 0
-5230 5228 0
-5230 1241 0
5231 -1241 -1241 -5232 0
-5231 1241 0
-5231 1241 0
-5231 5232 0
-5233 1243 5227 5229 5230 5231 0
5233 -1243 0
5233 -5227 0
5233 -5229 0
5233 -5230 0
5233 -5231 0
5234 -1241 -5235 0
-5234 1241 0
-5234 5235 0
5236 -5228 -5235 0
-5236 5228 0
-5236 5235 0
5237 -5228 -1245 0
-5237 5228 0
-5237 1245 0
5238 -1241 -1245 -5232 0
-5238 1241 0
-5238 1245 0
-5238 5232 0
-74 1246 5234 5236 5237 5238 0
74 -1246 0
74 -5234 0
74 -5236 0
74 -5237 0
74 -5238 0
5239 -1241 -5240 0
-5239 1241 0
-5239 5240 0
5241 -5228 -1248 0
-5241 5228 0
-5241 1248 0
5242 -5228 -5240 0
-5242 5228 0
-5242 5240 0
5243 -1241 -1248 -5232 0
-5243 1241 0
-5243 1248 0
-5243 5232 0
-72 1249 5239 5241 5242 5243 0
72 -1249 0
72 -5239 0
72 -5241 0
72 -5242 0
72 -5243 0
5244 -1251 -5240 0
-5244 1251 0
-5244 5240 0
5245 -5246 -5240 0
-5245 5246 0
-5245 5240 0
5247 -5246 -1248 0
-5247 5246 0
-5247 1248 0
5248 -1251 -1248 -5232 0
-5248 1251 0
-5248 1248 0
-5248 5232 0
-75 1252 5244 5245 5247 5248 0
75 -1252 0
75 -5244 0
75 -5245 0
75 -5247 0
75 -5248 0
5249 -1245 -5246 0
-5249 1245 0
-5249 5246 0
5250 -5235 -1251 0
-5250 5235 0
-5250 1251 0
5251 -5235 -5246 0
-5251 5235 0
-5251 5246 0
5252 -1245 -1251 -5232 0
-5252 1245 0
-5252 1251 0
-5252 5232 0
-73 1254 5249 5250 5251 5252 0
73 -1254 0
73 -5249 0
73 -5250 0
73 -5251 0
73 -5252 0
5253 -1245 -5235 0
-5253 1245 0
-5253 5235 0
5254 -5235 -5235 0
-5254 5235 0
-5254 5235 0
5255 -5235 -1245 0
-5255 5235 0
-5255 1245 0
5256 -1245 -1245 -5232 0
-5256 1245 0
-5256 1245 0
-5256 5232 0
-5257 1257 5253 5254 5255 5256 0
5257 -1257 0
5257 -5253 0
5257 -5254 0
5257 -5255 0
5257 -5256 0
5258 -4407 -4383 0
-5258 4407 0
-5258 4383 0
4384 -4383 -4383 0
-4384 4383 0
-4384 4383 0
5259 -4383 -4407 0
-5259 4383 0
-5259 4407 0
5260 -4407 -4407 -4389 0
-5260 4407 0
-5260 4407 0
-5260 4389 0
-5261 4387 5258 4384 5259 5260 0
5261 -4387 0
5261 -5258 0
5261 -4384 0
5261 -5259 0
5261 -5260 0
5262 -4407 -4396 0
-5262 4407 0
-5262 4396 0
5263 -4383 -4396 0
-5263 4383 0
-5263 4396 0
5264 -4383 -4415 0
-5264 4383 0
-5264 4415 0
5265 -4407 -4415 -4389 0
-5265 4407 0
-5265 4415 0
-5265 4389 0
-489 4391 5262 5263 5264 5265 0
489 -4391 0
489 -5262 0
489 -5263 0
489 -5264 0
489 -5265 0
5266 -4407 -4403 0
-5266 4407 0
-5266 4403 0
5267 -4383 -4410 0
-5267 4383 0
-5267 4410 0
5268 -4383 -4403 0
-5268 4383 0
-5268 4403 0
5269 -4407 -4410 -4389 0
-5269 4407 0
-5269 4410 0
-5269 4389 0
-487 4398 5266 5267 5268 5269 0
487 -4398 0
487 -5266 0
487 -5267 0
487 -5268 0
487 -5269 0
5270 -4405 -4403 0
-5270 4405 0
-5270 4403 0
5271 -4382 -4403 0
-5271 4382 0
-5271 4403 0
5272 -4382 -4410 0
-5272 4382 0
-5272 4410 0
5273 -4405 -4410 -4389 0
-5273 4405 0
-5273 4410 0
-5273 4389 0
-490 4400 5270 5271 5272 5273 0
490 -4400 0
490 -5270 0
490 -5271 0
490 -5272 0
490 -5273 0
5274 -4415 -4382 0
-5274 4415 0
-5274 4382 0
5275 -4396 -4405 0
-5275 4396 0
-5275 4405 0
5276 -4396 -4382 0
-5276 4396 0
-5276 4382 0
5277 -4415 -4405 -4389 0
-5277 4415 0
-5277 4405 0
-5277 4389 0
-488 4394 5274 5275 5276 5277 0
488 -4394 0
488 -5274 0
488 -5275 0
488 -5276 0
488 -5277 0
5278 -4415 -4396 0
-5278 4415 0
-5278 4396 0
5279 -4396 -4396 0
-5279 4396 0
-5279 4396 0
5280 -4396 -4415 0
-5280 4396 0
-5280 4415 0
5281 -4415 -4415 -4389 0
-5281 4415 0
-5281 4415 0
-5281 4389 0
-5282 4421 5278 5279 5280 5281 0
5282 -4421 0
5282 -5278 0
5282 -5279 0
5282 -5280 0
5282 -5281 0
5283 -1644 -5284 0
-5283 1644 0
-5283 5284 0
5285 -5284 -5284 0
-5285 5284 0
-5285 5284 0
5286 -5284 -1644 0
-5286 5284 0
-5286 1644 0
5287 -1644 -1644 -4544 0
-5287 1644 0
-5287 1644 0
-5287 4544 0
-5288 1646 5283 5285 5286 5287 0
5288 -1646 0
5288 -5283 0
5288 -5285 0
5288 -5286 0
5288 -5287 0
5289 -1644 -4546 0
-5289 1644 0
-5289 4546 0
5290 -5284 -4546 0
-5290 5284 0
-5290 4546 0
5291 -5284 -1648 0
-5291 5284 0
-5291 1648 0
5292 -1644 -1648 -4544 0
-5292 1644 0
-5292 1648 0
-5292 4544 0
-229 1649 5289 5290 5291 5292 0
229 -1649 0
229 -5289 0
229 -5290 0
229 -5291 0
229 -5292 0
5293 -1644 -4548 0
-5293 1644 0
-5293 4548 0
5294 -5284 -1651 0
-5294 5284 0
-5294 1651 0
5295 -5284 -4548 0
-5295 5284 0
-5295 4548 0
5296 -1644 -1651 -4544 0
-5296 1644 0
-5296 1651 0
-5296 4544 0
-227 1652 5293 5294 5295 5296 0
227 -1652 0
227 -5293 0
227 -5294 0
227 -5295 0
227 -5296 0
5297 -1654 -4548 0
-5297 1654 0
-5297 4548 0
5298 -4542 -4548 0
-5298 4542 0
-5298 4548 0
5299 -4542 -1651 0
-5299 4542 0
-5299 1651 0
5300 -1654 -1651 -4544 0
-5300 1654 0
-5300 1651 0
-5300 4544 0
-230 1655 5297 5298 5299 5300 0
230 -1655 0
230 -5297 0
230 -5298 0
230 -5299 0
230 -5300 0
5301 -1648 -4542 0
-5301 1648 0
-5301 4542 0
5302 -4546 -1654 0
-5302 4546 0
-5302 1654 0
5303 -4546 -4542 0
-5303 4546 0
-5303 4542 0
5304 -1648 -1654 -4544 0
-5304 1648 0
-5304 1654 0
-5304 4544 0
-228 1657 5301 5302 5303 5304 0
228 -1657 0
228 -5301 0
228 -5302 0
228 -5303 0
228 -5304 0
5305 -1648 -4546 0
-5305 1648 0
-5305 4546 0
5306 -4546 -4546 0
-5306 4546 0
-5306 4546 0
5307 -4546 -1648 0
-5307 4546 0
-5307 1648 0
5308 -1648 -1648 -4544 0
-5308 1648 0
-5308 1648 0
-5308 4544 0
-5309 1660 5305 5306 5307 5308 0
5309 -1660 0
5309 -5305 0
5309 -5306 0
5309 -5307 0
5309 -5308 0
5310 -2440 -2440 0
-5310 2440 0
-5310 2440 0
-5311 2426 5310 0
5311 -2426 0
5311 -5310 0
5312 -2440 -2008 0
-5312 2440 0
-5312 2008 0
-239 2429 5312 0
239 -2429 0
239 -5312 0
5313 -2440 -2006 0
-5313 2440 0
-5313 2006 0
-237 2434 5313 0
237 -2434 0
237 -5313 0
5314 -2005 -2006 0
-5314 2005 0
-5314 2006 0
-240 2002 5314 0
240 -2002 0
240 -5314 0
5315 -2008 -2005 0
-5315 2008 0
-5315 2005 0
-238 1999 5315 0
238 -1999 0
238 -5315 0
5316 -2008 -2008 0
-5316 2008 0
-5316 2008 0
-5317 2011 5316 0
5317 -2011 0
5317 -5316 0
5318 -5319 -5320 0
-5318 5319 0
-5318 5320 0
5321 -5320 -5320 0
-5321 5320 0
-5321 5320 0
5322 -5320 -5319 0
-5322 5320 0
-5322 5319 0
5323 -5319 -5319 -5324 0
-5323 5319 0
-5323 5319 0
-5323 5324 0
-5325 5326 5318 5321 5322 5323 0
5325 -5326 0
5325 -5318 0
5325 -5321 0
5325 -5322 0
5325 -5323 0
5327 -5319 -5328 0
-5327 5319 0
-5327 5328 0
5329 -5320 -5328 0
-5329 5320 0
-5329 5328 0
5330 -5320 -5331 0
-5330 5320 0
-5330 5331 0
5332 -5319 -5331 -5324 0
-5332 5319 0
-5332 5331 0
-5332 5324 0
-699 5333 5327 5329 5330 5332 0
699 -5333 0
699 -5327 0
699 -5329 0
699 -5330 0
699 -5332 0
5334 -5319 -5335 0
-5334 5319 0
-5334 5335 0
5336 -5320 -5337 0
-5336 5320 0
-5336 5337 0
5338 -5320 -5335 0
-5338 5320 0
-5338 5335 0
5339 -5319 -5337 -5324 0
-5339 5319 0
-5339 5337 0
-5339 5324 0
-697 5340 5334 5336 5338 5339 0
697 -5340 0
697 -5334 0
697 -5336 0
697 -5338 0
697 -5339 0
5341 -5342 -5335 0
-5341 5342 0
-5341 5335 0
5343 -5344 -5335 0
-5343 5344 0
-5343 5335 0
5345 -5344 -5337 0
-5345 5344 0
-5345 5337 0
5346 -5342 -5337 -5324 0
-5346 5342 0
-5346 5337 0
-5346 5324 0
-700 5347 5341 5343 5345 5346 0
700 -5347 0
700 -5341 0
700 -5343 0
700 -5345 0
700 -5346 0
5348 -5331 -5344 0
-5348 5331 0
-5348 5344 0
5349 -5328 -5342 0
-5349 5328 0
-5349 5342 0
5350 -5328 -5344 0
-5350 5328 0
-5350 5344 0
5351 -5331 -5342 -5324 0
-5351 5331 0
-5351 5342 0
-5351 5324 0
-698 5352 5348 5349 5350 5351 0
698 -5352 0
698 -5348 0
698 -5349 0
698 -5350 0
698 -5351 0
5353 -5331 -5328 0
-5353 5331 0
-5353 5328 0
5354 -5328 -5328 0
-5354 5328 0
-5354 5328 0
5355 -5328 -5331 0
-5355 5328 0
-5355 5331 0
5356 -5331 -5331 -5324 0
-5356 5331 0
-5356 5331 0
-5356 5324 0
-5357 5358 5353 5354 5355 5356 0
5357 -5358 0
5357 -5353 0
5357 -5354 0
5357 -5355 0
5357 -5356 0
5359 -3959 -5360 0
-5359 3959 0
-5359 5360 0
5361 -5360 -5360 0
-5361 5360 0
-5361 5360 0
5362 -5360 -3959 0
-5362 5360 0
-5362 3959 0
5363 -3959 -3959 -5364 0
-5363 3959 0
-5363 3959 0
-5363 5364 0
-5365 3961 5359 5361 5362 5363 0
5365 -3961 0
5365 -5359 0
5365 -5361 0
5365 -5362 0
5365 -5363 0
5366 -3959 -5367 0
-5366 3959 0
-5366 5367 0
5368 -5360 -5367 0
-5368 5360 0
-5368 5367 0
5369 -5360 -3963 0
-5369 5360 0
-5369 3963 0
5370 -3959 -3963 -5364 0
-5370 3959 0
-5370 3963 0
-5370 5364 0
-819 3964 5366 5368 5369 5370 0
819 -3964 0
819 -5366 0
819 -5368 0
819 -5369 0
819 -5370 0
5371 -3959 -5372 0
-5371 3959 0
-5371 5372 0
5373 -5360 -3966 0
-5373 5360 0
-5373 3966 0
5374 -5360 -5372 0
-5374 5360 0
-5374 5372 0
5375 -3959 -3966 -5364 0
-5375 3959 0
-5375 3966 0
-5375 5364 0
-817 3967 5371 5373 5374 5375 0
817 -3967 0
817 -5371 0
817 -5373 0
817 -5374 0
817 -5375 0
5376 -3969 -5372 0
-5376 3969 0
-5376 5372 0
5377 -5378 -5372 0
-5377 5378 0
-5377 5372 0
5379 -5378 -3966 0
-5379 5378 0
-5379 3966 0
5380 -3969 -3966 -5364 0
-5380 3969 0
-5380 3966 0
-5380 5364 0
-820 3970 5376 5377 5379 5380 0
820 -3970 0
820 -5376 0
820 -5377 0
820 -5379 0
820 -5380 0
5381 -3963 -5378 0
-5381 3963 0
-5381 5378 0
5382 -5367 -3969 0
-5382 5367 0
-5382 3969 0
5383 -5367 -5378 0
-5383 5367 0
-5383 5378 0
5384 -3963 -3969 -5364 0
-5384 3963 0
-5384 3969 0
-5384 5364 0
-818 3972 5381 5382 5383 5384 0
818 -3972 0
818 -5381 0
818 -5382 0
818 -5383 0
818 -5384 0
5385 -3963 -5367 0
-5385 3963 0
-5385 5367 0
5386 -5367 -5367 0
-5386 5367 0
-5386 5367 0
5387 -5367 -3963 0
-5387 5367 0
-5387 3963 0
5388 -3963 -3963 -5364 0
-5388 3963 0
-5388 3963 0
-5388 5364 0
-5389 3975 5385 5386 5387 5388 0
5389 -3975 0
5389 -5385 0
5389 -5386 0
5389 -5387 0
5389 -5388 0
5390 -1770 -5391 0
-5390 1770 0
-5390 5391 0
5392 -5391 -5391 0
-5392 5391 0
-5392 5391 0
5393 -5391 -1770 0
-5393 5391 0
-5393 1770 0
5394 -1770 -1770 -5395 0
-5394 1770 0
-5394 1770 0
-5394 5395 0
-5396 1772 5390 5392 5393 5394 0
5396 -1772 0
5396 -5390 0
5396 -5392 0
5396 -5393 0
5396 -5394 0
5397 -1770 -5398 0
-5397 1770 0
-5397 5398 0
5399 -5391 -5398 0
-5399 5391 0
-5399 5398 0
5400 -5391 -1774 0
-5400 5391 0
-5400 1774 0
5401 -1770 -1774 -5395 0
-5401 1770 0
-5401 1774 0
-5401 5395 0
-349 1775 5397 5399 5400 5401 0
349 -1775 0
349 -5397 0
349 -5399 0
349 -5400 0
349 -5401 0
5402 -1770 -5403 0
-5402 1770 0
-5402 5403 0
5404 -5391 -1777 0
-5404 5391 0
-5404 1777 0
5405 -5391 -5403 0
-5405 5391 0
-5405 5403 0
5406 -1770 -1777 -5395 0
-5406 1770 0
-5406 1777 0
-5406 5395 0
-347 1778 5402 5404 5405 5406 0
347 -1778 0
347 -5402 0
347 -5404 0
347 -5405 0
347 -5406 0
5407 -1780 -5403 0
-5407 1780 0
-5407 5403 0
5408 -5409 -5403 0
-5408 5409 0
-5408 5403 0
5410 -5409 -1777 0
-5410 5409 0
-5410 1777 0
5411 -1780 -1777 -5395 0
-5411 1780 0
-5411 1777 0
-5411 5395 0
-350 1781 5407 5408 5410 5411 0
350 -1781 0
350 -5407 0
350 -5408 0
350 -5410 0
350 -5411 0
5412 -1774 -5409 0
-5412 1774 0
-5412 5409 0
5413 -5398 -1780 0
-5413 5398 0
-5413 1780 0
5414 -5398 -5409 0
-5414 5398 0
-5414 5409 0
5415 -1774 -1780 -5395 0
-5415 1774 0
-5415 1780 0
-5415 5395 0
-348 1783 5412 5413 5414 5415 0
348 -1783 0
348 -5412 0
348 -5413 0
348 -5414 0
348 -5415 0
5416 -1774 -5398 0
-5416 1774 0
-5416 5398 0
5417 -5398 -5398 0
-5417 5398 0
-5417 5398 0
5418 -5398 -1774 0
-5418 5398 0
-5418 1774 0
5419 -1774 -1774 -5395 0
-5419 1774 0
-5419 1774 0
-5419 5395 0
-5420 1786 5416 5417 5418 5419 0
5420 -1786 0
5420 -5416 0
5420 -5417 0
5420 -5418 0
5420 -5419 0
5421 -4049 -4049 0
-5421 4049 0
-5421 4049 0
-5422 4029 5421 0
5422 -4029 0
5422 -5421 0
5423 -4049 -4057 0
-5423 4049 0
-5423 4057 0
-484 4033 5423 0
484 -4033 0
484 -5423 0
5424 -4049 -4052 0
-5424 4049 0
-5424 4052 0
-482 4040 5424 0
482 -4040 0
482 -5424 0
5425 -4047 -4052 0
-5425 4047 0
-5425 4052 0
-485 4042 5425 0
485 -4042 0
485 -5425 0
5426 -4057 -4047 0
-5426 4057 0
-5426 4047 0
-483 4036 5426 0
483 -4036 0
483 -5426 0
5427 -4057 -4057 0
-5427 4057 0
-5427 4057 0
-5428 4063 5427 0
5428 -4063 0
5428 -5427 0
5429 -1367 -1367 0
-5429 1367 0
-5429 1367 0
-5430 1374 5429 0
5430 -1374 0
5430 -5429 0
5431 -1367 -1379 0
-5431 1367 0
-5431 1379 0
-634 1381 5431 0
634 -1381 0
634 -5431 0
5432 -1367 -1385 0
-5432 1367 0
-5432 1385 0
-632 1388 5432 0
632 -1388 0
632 -5432 0
5433 -1390 -1385 0
-5433 1390 0
-5433 1385 0
-635 1395 5433 0
635 -1395 0
635 -5433 0
5434 -1379 -1390 0
-5434 1379 0
-5434 1390 0
-633 1400 5434 0
633 -1400 0
633 -5434 0
5435 -1379 -1379 0
-5435 1379 0
-5435 1379 0
-5436 1406 5435 0
5436 -1406 0
5436 -5435 0
5437 -3193 -3193 0
-5437 3193 0
-5437 3193 0
-5438 3200 5437 0
5438 -3200 0
5438 -5437 0
5439 -3193 -3205 0
-5439 3193 0
-5439 3205 0
-1019 3207 5439 0
1019 -3207 0
1019 -5439 0
5440 -3193 -3211 0
-5440 3193 0
-5440 3211 0
-1017 3214 5440 0
1017 -3214 0
1017 -5440 0
5441 -3216 -3211 0
-5441 3216 0
-5441 3211 0
-1020 3221 5441 0
1020 -3221 0
1020 -5441 0
5442 -3205 -3216 0
-5442 3205 0
-5442 3216 0
-1018 3226 5442 0
1018 -3226 0
1018 -5442 0
5443 -3205 -3205 0
-5443 3205 0
-5443 3205 0
-5444 3232 5443 0
5444 -3232 0
5444 -5443 0
5445 -1813 -1813 0
-5445 1813 0
-5445 1813 0
-5446 1793 5445 0
5446 -1793 0
5446 -5445 0
5447 -1813 -1821 0
-5447 1813 0
-5447 1821 0
-529 1797 5447 0
529 -1797 0
529 -5447 0
5448 -1813 -1816 0
-5448 1813 0
-5448 1816 0
-527 1804 5448 0
527 -1804 0
527 -5448 0
5449 -1811 -1816 0
-5449 1811 0
-5449 1816 0
-530 1806 5449 0
530 -1806 0
530 -5449 0
5450 -1821 -1811 0
-5450 1821 0
-5450 1811 0
-528 1800 5450 0
528 -1800 0
528 -5450 0
5451 -1821 -1821 0
-5451 1821 0
-5451 1821 0
-5452 1827 5451 0
5452 -1827 0
5452 -5451 0
5453 -3342 -3466 0
-5453 3342 0
-5453 3466 0
3483 -3466 -3466 0
-3483 3466 0
-3483 3466 0
5454 -3466 -3342 0
-5454 3466 0
-5454 3342 0
5455 -3342 -3342 -3258 0
-5455 3342 0
-5455 3342 0
-5455 3258 0
-5456 3344 5453 3483 5454 5455 0
5456 -3344 0
5456 -5453 0
5456 -3483 0
5456 -5454 0
5456 -5455 0
5457 -3342 -3247 0
-5457 3342 0
-5457 3247 0
5458 -3466 -3247 0
-5458 3466 0
-5458 3247 0
5459 -3466 -3250 0
-5459 3466 0
-5459 3250 0
5460 -3342 -3250 -3258 0
-5460 3342 0
-5460 3250 0
-5460 3258 0
-389 3346 5457 5458 5459 5460 0
389 -3346 0
389 -5457 0
389 -5458 0
389 -5459 0
389 -5460 0
5461 -3342 -3255 0
-5461 3342 0
-5461 3255 0
5462 -3466 -3253 0
-5462 3466 0
-5462 3253 0
5463 -3466 -3255 0
-5463 3466 0
-5463 3255 0
5464 -3342 -3253 -3258 0
-5464 3342 0
-5464 3253 0
-5464 3258 0
-387 3348 5461 5462 5463 5464 0
387 -3348 0
387 -5461 0
387 -5462 0
387 -5463 0
387 -5464 0
5465 -3249 -3255 0
-5465 3249 0
-5465 3255 0
5466 -3246 -3255 0
-5466 3246 0
-5466 3255 0
5467 -3246 -3253 0
-5467 3246 0
-5467 3253 0
5468 -3249 -3253 -3258 0
-5468 3249 0
-5468 3253 0
-5468 3258 0
-390 3252 5465 5466 5467 5468 0
390 -3252 0
390 -5465 0
390 -5466 0
390 -5467 0
390 -5468 0
5469 -3250 -3246 0
-5469 3250 0
-5469 3246 0
5470 -3247 -3249 0
-5470 3247 0
-5470 3249 0
5471 -3247 -3246 0
-5471 3247 0
-5471 3246 0
5472 -3250 -3249 -3258 0
-5472 3250 0
-5472 3249 0
-5472 3258 0
-388 3242 5469 5470 5471 5472 0
388 -3242 0
388 -5469 0
388 -5470 0
388 -5471 0
388 -5472 0
5473 -3250 -3247 0
-5473 3250 0
-5473 3247 0
3771 -3247 -3247 0
-3771 3247 0
-3771 3247 0
5474 -3247 -3250 0
-5474 3247 0
-5474 3250 0
5475 -3250 -3250 -3258 0
-5475 3250 0
-5475 3250 0
-5475 3258 0
-5476 3244 5473 3771 5474 5475 0
5476 -3244 0
5476 -5473 0
5476 -3771 0
5476 -5474 0
5476 -5475 0
5477 -1954 -1954 0
-5477 1954 0
-5477 1954 0
-5478 1961 5477 0
5478 -1961 0
5478 -5477 0
5479 -1954 -1966 0
-5479 1954 0
-5479 1966 0
-1059 1968 5479 0
1059 -1968 0
1059 -5479 0
5480 -1954 -1972 0
-5480 1954 0
-5480 1972 0
-1057 1975 5480 0
1057 -1975 0
1057 -5480 0
5481 -1977 -1972 0
-5481 1977 0
-5481 1972 0
-1060 1982 5481 0
1060 -1982 0
1060 -5481 0
5482 -1966 -1977 0
-5482 1966 0
-5482 1977 0
-1058 1987 5482 0
1058 -1987 0
1058 -5482 0
5483 -1966 -1966 0
-5483 1966 0
-5483 1966 0
-5484 1993 5483 0
5484 -1993 0
5484 -5483 0
5485 -2342 -3986 0
-5485 2342 0
-5485 3986 0
3987 -3986 -3986 0
-3987 3986 0
-3987 3986 0
5486 -3986 -2342 0
-5486 3986 0
-5486 2342 0
5487 -2342 -2342 -3991 0
-5487 2342 0
-5487 2342 0
-5487 3991 0
-5488 2344 5485 3987 5486 5487 0
5488 -2344 0
5488 -5485 0
5488 -3987 0
5488 -5486 0
5488 -5487 0
5489 -2342 -3996 0
-5489 2342 0
-5489 3996 0
5490 -3986 -3996 0
-5490 3986 0
-5490 3996 0
5491 -3986 -2346 0
-5491 3986 0
-5491 2346 0
5492 -2342 -2346 -3991 0
-5492 2342 0
-5492 2346 0
-5492 3991 0
-614 2347 5489 5490 5491 5492 0
614 -2347 0
614 -5489 0
614 -5490 0
614 -5491 0
614 -5492 0
5493 -2342 -4001 0
-5493 2342 0
-5493 4001 0
5494 -3986 -2349 0
-5494 3986 0
-5494 2349 0
5495 -3986 -4001 0
-5495 3986 0
-5495 4001 0
5496 -2342 -2349 -3991 0
-5496 2342 0
-5496 2349 0
-5496 3991 0
-612 2350 5493 5494 5495 5496 0
612 -2350 0
612 -5493 0
612 -5494 0
612 -5495 0
612 -5496 0
5497 -2352 -4001 0
-5497 2352 0
-5497 4001 0
5498 -3985 -4001 0
-5498 3985 0
-5498 4001 0
5499 -3985 -2349 0
-5499 3985 0
-5499 2349 0
5500 -2352 -2349 -3991 0
-5500 2352 0
-5500 2349 0
-5500 3991 0
-615 2353 5497 5498 5499 5500 0
615 -2353 0
615 -5497 0
615 -5498 0
615 -5499 0
615 -5500 0
5501 -2346 -3985 0
-5501 2346 0
-5501 3985 0
5502 -3996 -2352 0
-5502 3996 0
-5502 2352 0
5503 -3996 -3985 0
-5503 3996 0
-5503 3985 0
5504 -2346 -2352 -3991 0
-5504 2346 0
-5504 2352 0
-5504 3991 0
-613 2355 5501 5502 5503 5504 0
613 -2355 0
613 -5501 0
613 -5502 0
613 -5503 0
613 -5504 0
5505 -2346 -3996 0
-5505 2346 0
-5505 3996 0
5506 -3996 -3996 0
-5506 3996 0
-5506 3996 0
5507 -3996 -2346 0
-5507 3996 0
-5507 2346 0
5508 -2346 -2346 -3991 0
-5508 2346 0
-5508 2346 0
-5508 3991 0
-5509 2358 5505 5506 5507 5508 0
5509 -2358 0
5509 -5505 0
5509 -5506 0
5509 -5507 0
5509 -5508 0
5510 -4830 -5511 0
-5510 4830 0
-5510 5511 0
5512 -5511 -5511 0
-5512 5511 0
-5512 5511 0
5513 -5511 -4830 0
-5513 5511 0
-5513 4830 0
5514 -4830 -4830 -5515 0
-5514 4830 0
-5514 4830 0
-5514 5515 0
-5516 4832 5510 5512 5513 5514 0
5516 -4832 0
5516 -5510 0
5516 -5512 0
5516 -5513 0
5516 -5514 0
5517 -4830 -5518 0
-5517 4830 0
-5517 5518 0
5519 -5511 -5518 0
-5519 5511 0
-5519 5518 0
5520 -5511 -4834 0
-5520 5511 0
-5520 4834 0
5521 -4830 -4834 -5515 0
-5521 4830 0
-5521 4834 0
-5521 5515 0
-294 4835 5517 5519 5520 5521 0
294 -4835 0
294 -5517 0
294 -5519 0
294 -5520 0
294 -5521 0
5522 -4830 -5523 0
-5522 4830 0
-5522 5523 0
5524 -5511 -4837 0
-5524 5511 0
-5524 4837 0
5525 -5511 -5523 0
-5525 5511 0
-5525 5523 0
5526 -4830 -4837 -5515 0
-5526 4830 0
-5526 4837 0
-5526 5515 0
-292 4838 5522 5524 5525 5526 0
292 -4838 0
292 -5522 0
292 -5524 0
292 -5525 0
292 -5526 0
5527 -4840 -5523 0
-5527 4840 0
-5527 5523 0
5528 -5529 -5523 0
-5528 5529 0
-5528 5523 0
5530 -5529 -4837 0
-5530 5529 0
-5530 4837 0
5531 -4840 -4837 -5515 0
-5531 4840 0
-5531 4837 0
-5531 5515 0
-295 4841 5527 5528 5530 5531 0
295 -4841 0
295 -5527 0
295 -5528 0
295 -5530 0
295 -5531 0
5532 -4834 -5529 0
-5532 4834 0
-5532 5529 0
5533 -5518 -4840 0
-5533 5518 0
-5533 4840 0
5534 -5518 -5529 0
-5534 5518 0
-5534 5529 0
5535 -4834 -4840 -5515 0
-5535 4834 0
-5535 4840 0
-5535 5515 0
-293 4843 5532 5533 5534 5535 0
293 -4843 0
293 -5532 0
293 -5533 0
293 -5534 0
293 -5535 0
5536 -4834 -5518 0
-5536 4834 0
-5536 5518 0
5537 -5518 -5518 0
-5537 5518 0
-5537 5518 0
5538 -5518 -4834 0
-5538 5518 0
-5538 4834 0
5539 -4834 -4834 -5515 0
-5539 4834 0
-5539 4834 0
-5539 5515 0
-5540 4846 5536 5537 5538 5539 0
5540 -4846 0
5540 -5536 0
5540 -5537 0
5540 -5538 0
5540 -5539 0
5541 -3866 -3848 0
-5541 3866 0
-5541 3848 0
3849 -3848 -3848 0
-3849 3848 0
-3849 3848 0
5542 -3848 -3866 0
-5542 3848 0
-5542 3866 0
5543 -3866 -3866 -1225 0
-5543 3866 0
-5543 3866 0
-5543 1225 0
-5544 3852 5541 3849 5542 5543 0
5544 -3852 0
5544 -5541 0
5544 -3849 0
5544 -5542 0
5544 -5543 0
5545 -3866 -1228 0
-5545 3866 0
-5545 1228 0
5546 -3848 -1228 0
-5546 3848 0
-5546 1228 0
5547 -3848 -1236 0
-5547 3848 0
-5547 1236 0
5548 -3866 -1236 -1225 0
-5548 3866 0
-5548 1236 0
-5548 1225 0
-224 3855 5545 5546 5547 5548 0
224 -3855 0
224 -5545 0
224 -5546 0
224 -5547 0
224 -5548 0
5549 -3866 -1231 0
-5549 3866 0
-5549 1231 0
5550 -3848 -1234 0
-5550 3848 0
-5550 1234 0
5551 -3848 -1231 0
-5551 3848 0
-5551 1231 0
5552 -3866 -1234 -1225 0
-5552 3866 0
-5552 1234 0
-5552 1225 0
-222 3860 5549 5550 5551 5552 0
222 -3860 0
222 -5549 0
222 -5550 0
222 -5551 0
222 -5552 0
5553 -1233 -1231 0
-5553 1233 0
-5553 1231 0
5554 -1223 -1231 0
-5554 1223 0
-5554 1231 0
5555 -1223 -1234 0
-5555 1223 0
-5555 1234 0
5556 -1233 -1234 -1225 0
-5556 1233 0
-5556 1234 0
-5556 1225 0
-225 1230 5553 5554 5555 5556 0
225 -1230 0
225 -5553 0
225 -5554 0
225 -5555 0
225 -5556 0
5557 -1236 -1223 0
-5557 1236 0
-5557 1223 0
5558 -1228 -1233 0
-5558 1228 0
-5558 1233 0
5559 -1228 -1223 0
-5559 1228 0
-5559 1223 0
5560 -1236 -1233 -1225 0
-5560 1236 0
-5560 1233 0
-5560 1225 0
-223 1227 5557 5558 5559 5560 0
223 -1227 0
223 -5557 0
223 -5558 0
223 -5559 0
223 -5560 0
5561 -1236 -1228 0
-5561 1236 0
-5561 1228 0
5562 -1228 -1228 0
-5562 1228 0
-5562 1228 0
5563 -1228 -1236 0
-5563 1228 0
-5563 1236 0
5564 -1236 -1236 -1225 0
-5564 1236 0
-5564 1236 0
-5564 1225 0
-5565 1239 5561 5562 5563 5564 0
5565 -1239 0
5565 -5561 0
5565 -5562 0
5565 -5563 0
5565 -5564 0
5566 -5134 -5134 0
-5566 5134 0
-5566 5134 0
-5567 5140 5566 0
5567 -5140 0
5567 -5566 0
5568 -5134 -4178 0
-5568 5134 0
-5568 4178 0
-119 5145 5568 0
119 -5145 0
119 -5568 0
5569 -5134 -4176 0
-5569 5134 0
-5569 4176 0
-117 5150 5569 0
117 -5150 0
117 -5569 0
5570 -4175 -4176 0
-5570 4175 0
-5570 4176 0
-120 4172 5570 0
120 -4172 0
120 -5570 0
5571 -4178 -4175 0
-5571 4178 0
-5571 4175 0
-118 4169 5571 0
118 -4169 0
118 -5571 0
5572 -4178 -4178 0
-5572 4178 0
-5572 4178 0
-5573 4181 5572 0
5573 -4181 0
5573 -5572 0
5574 -2293 -5575 0
-5574 2293 0
-5574 5575 0
5576 -5575 -5575 0
-5576 5575 0
-5576 5575 0
5577 -5575 -2293 0
-5577 5575 0
-5577 2293 0
5578 -2293 -2293 -5579 0
-5578 2293 0
-5578 2293 0
-5578 5579 0
-5580 2295 5574 5576 5577 5578 0
5580 -2295 0
5580 -5574 0
5580 -5576 0
5580 -5577 0
5580 -5578 0
5581 -2293 -5582 0
-5581 2293 0
-5581 5582 0
5583 -5575 -5582 0
-5583 5575 0
-5583 5582 0
5584 -5575 -2297 0
-5584 5575 0
-5584 2297 0
5585 -2293 -2297 -5579 0
-5585 2293 0
-5585 2297 0
-5585 5579 0
-324 2298 5581 5583 5584 5585 0
324 -2298 0
324 -5581 0
324 -5583 0
324 -5584 0
324 -5585 0
5586 -2293 -5587 0
-5586 2293 0
-5586 5587 0
5588 -5575 -2300 0
-5588 5575 0
-5588 2300 0
5589 -5575 -5587 0
-5589 5575 0
-5589 5587 0
5590 -2293 -2300 -5579 0
-5590 2293 0
-5590 2300 0
-5590 5579 0
-322 2301 5586 5588 5589 5590 0
322 -2301 0
322 -5586 0
322 -5588 0
322 -5589 0
322 -5590 0
5591 -2303 -5587 0
-5591 2303 0
-5591 5587 0
5592 -5593 -5587 0
-5592 5593 0
-5592 5587 0
5594 -5593 -2300 0
-5594 5593 0
-5594 2300 0
5595 -2303 -2300 -5579 0
-5595 2303 0
-5595 2300 0
-5595 5579 0
-325 2304 5591 5592 5594 5595 0
325 -2304 0
325 -5591 0
325 -5592 0
325 -5594 0
325 -5595 0
5596 -2297 -5593 0
-5596 2297 0
-5596 5593 0
5597 -5582 -2303 0
-5597 5582 0
-5597 2303 0
5598 -5582 -5593 0
-5598 5582 0
-5598 5593 0
5599 -2297 -2303 -5579 0
-5599 2297 0
-5599 2303 0
-5599 5579 0
-323 2306 5596 5597 5598 5599 0
323 -2306 0
323 -5596 0
323 -5597 0
323 -5598 0
323 -5599 0
5600 -2297 -5582 0
-5600 2297 0
-5600 5582 0
5601 -5582 -5582 0
-5601 5582 0
-5601 5582 0
5602 -5582 -2297 0
-5602 5582 0
-5602 2297 0
5603 -2297 -2297 -5579 0
-5603 2297 0
-5603 2297 0
-5603 5579 0
-5604 2309 5600 5601 5602 5603 0
5604 -2309 0
5604 -5600 0
5604 -5601 0
5604 -5602 0
5604 -5603 0
5605 -4881 -4881 0
-5605 4881 0
-5605 4881 0
-5606 4888 5605 0
5606 -4888 0
5606 -5605 0
5607 -4881 -4893 0
-5607 4881 0
-5607 4893 0
-1029 4895 5607 0
1029 -4895 0
1029 -5607 0
5608 -4881 -4899 0
-5608 4881 0
-5608 4899 0
-1027 4902 5608 0
1027 -4902 0
1027 -5608 0
5609 -4904 -4899 0
-5609 4904 0
-5609 4899 0
-1030 4909 5609 0
1030 -4909 0
1030 -5609 0
5610 -4893 -4904 0
-5610 4893 0
-5610 4904 0
-1028 4914 5610 0
1028 -4914 0
1028 -5610 0
5611 -4893 -4893 0
-5611 4893 0
-5611 4893 0
-5612 4920 5611 0
5612 -4920 0
5612 -5611 0
5613 -3301 -3301 0
-5613 3301 0
-5613 3301 0
-5614 3307 5613 0
5614 -3307 0
5614 -5613 0
5615 -3301 -3293 0
-5615 3301 0
-5615 3293 0
-1154 3277 5615 0
1154 -3277 0
1154 -5615 0
5616 -3301 -3291 0
-5616 3301 0
-5616 3291 0
-1152 3280 5616 0
1152 -3280 0
1152 -5616 0
5617 -3296 -3291 0
-5617 3296 0
-5617 3291 0
-1155 3286 5617 0
1155 -3286 0
1155 -5617 0
5618 -3293 -3296 0
-5618 3293 0
-5618 3296 0
-1153 3284 5618 0
1153 -3284 0
1153 -5618 0
5619 -3293 -3293 0
-5619 3293 0
-5619 3293 0
-5620 3273 5619 0
5620 -3273 0
5620 -5619 0
5621 -4524 -5622 0
-5621 4524 0
-5621 5622 0
5623 -5622 -5622 0
-5623 5622 0
-5623 5622 0
5624 -5622 -4524 0
-5624 5622 0
-5624 4524 0
5625 -4524 -4524 -5626 0
-5625 4524 0
-5625 4524 0
-5625 5626 0
-5627 4526 5621 5623 5624 5625 0
5627 -4526 0
5627 -5621 0
5627 -5623 0
5627 -5624 0
5627 -5625 0
5628 -4524 -5629 0
-5628 4524 0
-5628 5629 0
5630 -5622 -5629 0
-5630 5622 0
-5630 5629 0
5631 -5622 -4528 0
-5631 5622 0
-5631 4528 0
5632 -4524 -4528 -5626 0
-5632 4524 0
-5632 4528 0
-5632 5626 0
-809 4529 5628 5630 5631 5632 0
809 -4529 0
809 -5628 0
809 -5630 0
809 -5631 0
809 -5632 0
5633 -4524 -5634 0
-5633 4524 0
-5633 5634 0
5635 -5622 -4531 0
-5635 5622 0
-5635 4531 0
5636 -5622 -5634 0
-5636 5622 0
-5636 5634 0
5637 -4524 -4531 -5626 0
-5637 4524 0
-5637 4531 0
-5637 5626 0
-807 4532 5633 5635 5636 5637 0
807 -4532 0
807 -5633 0
807 -5635 0
807 -5636 0
807 -5637 0
5638 -4534 -5634 0
-5638 4534 0
-5638 5634 0
5639 -5640 -5634 0
-5639 5640 0
-5639 5634 0
5641 -5640 -4531 0
-5641 5640 0
-5641 4531 0
5642 -4534 -4531 -5626 0
-5642 4534 0
-5642 4531 0
-5642 5626 0
-810 4535 5638 5639 5641 5642 0
810 -4535 0
810 -5638 0
810 -5639 0
810 -5641 0
810 -5642 0
5643 -4528 -5640 0
-5643 4528 0
-5643 5640 0
5644 -5629 -4534 0
-5644 5629 0
-5644 4534 0
5645 -5629 -5640 0
-5645 5629 0
-5645 5640 0
5646 -4528 -4534 -5626 0
-5646 4528 0
-5646 4534 0
-5646 5626 0
-808 4537 5643 5644 5645 5646 0
808 -4537 0
808 -5643 0
808 -5644 0
808 -5645 0
808 -5646 0
5647 -4528 -5629 0
-5647 4528 0
-5647 5629 0
5648 -5629 -5629 0
-5648 5629 0
-5648 5629 0
5649 -5629 -4528 0
-5649 5629 0
-5649 4528 0
5650 -4528 -4528 -5626 0
-5650 4528 0
-5650 4528 0
-5650 5626 0
-5651 4540 5647 5648 5649 5650 0
5651 -4540 0
5651 -5647 0
5651 -5648 0
5651 -5649 0
5651 -5650 0
5652 -4407 -4407 0
-5652 4407 0
-5652 4407 0
-5653 4387 5652 0
5653 -4387 0
5653 -5652 0
5654 -4407 -4415 0
-5654 4407 0
-5654 4415 0
-894 4391 5654 0
894 -4391 0
894 -5654 0
5655 -4407 -4410 0
-5655 4407 0
-5655 4410 0
-892 4398 5655 0
892 -4398 0
892 -5655 0
5656 -4405 -4410 0
-5656 4405 0
-5656 4410 0
-895 4400 5656 0
895 -4400 0
895 -5656 0
5657 -4415 -4405 0
-5657 4415 0
-5657 4405 0
-893 4394 5657 0
893 -4394 0
893 -5657 0
5658 -4415 -4415 0
-5658 4415 0
-5658 4415 0
-5659 4421 5658 0
5659 -4421 0
5659 -5658 0
5660 -4165 -5135 0
-5660 4165 0
-5660 5135 0
5136 -5135 -5135 0
-5136 5135 0
-5136 5135 0
5661 -5135 -4165 0
-5661 5135 0
-5661 4165 0
5662 -4165 -4165 -5140 0
-5662 4165 0
-5662 4165 0
-5662 5140 0
-5663 4167 5660 5136 5661 5662 0
5663 -4167 0
5663 -5660 0
5663 -5136 0
5663 -5661 0
5663 -5662 0
5664 -4165 -5145 0
-5664 4165 0
-5664 5145 0
5665 -5135 -5145 0
-5665 5135 0
-5665 5145 0
5666 -5135 -4169 0
-5666 5135 0
-5666 4169 0
5667 -4165 -4169 -5140 0
-5667 4165 0
-5667 4169 0
-5667 5140 0
-34 4170 5664 5665 5666 5667 0
34 -4170 0
34 -5664 0
34 -5665 0
34 -5666 0
34 -5667 0
5668 -4165 -5150 0
-5668 4165 0
-5668 5150 0
5669 -5135 -4172 0
-5669 5135 0
-5669 4172 0
5670 -5135 -5150 0
-5670 5135 0
-5670 5150 0
5671 -4165 -4172 -5140 0
-5671 4165 0
-5671 4172 0
-5671 5140 0
-32 4173 5668 5669 5670 5671 0
32 -4173 0
32 -5668 0
32 -5669 0
32 -5670 0
32 -5671 0
5672 -4175 -5150 0
-5672 4175 0
-5672 5150 0
5673 -5134 -5150 0
-5673 5134 0
-5673 5150 0
5674 -5134 -4172 0
-5674 5134 0
-5674 4172 0
5675 -4175 -4172 -5140 0
-5675 4175 0
-5675 4172 0
-5675 5140 0
-35 4176 5672 5673 5674 5675 0
35 -4176 0
35 -5672 0
35 -5673 0
35 -5674 0
35 -5675 0
5676 -4169 -5134 0
-5676 4169 0
-5676 5134 0
5677 -5145 -4175 0
-5677 5145 0
-5677 4175 0
5678 -5145 -5134 0
-5678 5145 0
-5678 5134 0
5679 -4169 -4175 -5140 0
-5679 4169 0
-5679 4175 0
-5679 5140 0
-33 4178 5676 5677 5678 5679 0
33 -4178 0
33 -5676 0
33 -5677 0
33 -5678 0
33 -5679 0
5680 -4169 -5145 0
-5680 4169 0
-5680 5145 0
5681 -5145 -5145 0
-5681 5145 0
-5681 5145 0
5682 -5145 -4169 0
-5682 5145 0
-5682 4169 0
5683 -4169 -4169 -5140 0
-5683 4169 0
-5683 4169 0
-5683 5140 0
-5684 4181 5680 5681 5682 5683 0
5684 -4181 0
5684 -5680 0
5684 -5681 0
5684 -5682 0
5684 -5683 0
5685 -5686 -5687 0
-5685 5686 0
-5685 5687 0
5688 -5687 -5687 0
-5688 5687 0
-5688 5687 0
5689 -5687 -5686 0
-5689 5687 0
-5689 5686 0
5690 -5686 -5686 -5691 0
-5690 5686 0
-5690 5686 0
-5690 5691 0
-5692 5693 5685 5688 5689 5690 0
5692 -5693 0
5692 -5685 0
5692 -5688 0
5692 -5689 0
5692 -5690 0
5694 -5686 -5695 0
-5694 5686 0
-5694 5695 0
5696 -5687 -5695 0
-5696 5687 0
-5696 5695 0
5697 -5687 -5698 0
-5697 5687 0
-5697 5698 0
5699 -5686 -5698 -5691 0
-5699 5686 0
-5699 5698 0
-5699 5691 0
-1024 5700 5694 5696 5697 5699 0
1024 -5700 0
1024 -5694 0
1024 -5696 0
1024 -5697 0
1024 -5699 0
5701 -5686 -5702 0
-5701 5686 0
-5701 5702 0
5703 -5687 -5704 0
-5703 5687 0
-5703 5704 0
5705 -5687 -5702 0
-5705 5687 0
-5705 5702 0
5706 -5686 -5704 -5691 0
-5706 5686 0
-5706 5704 0
-5706 5691 0
-1022 5707 5701 5703 5705 5706 0
1022 -5707 0
1022 -5701 0
1022 -5703 0
1022 -5705 0
1022 -5706 0
5708 -5709 -5702 0
-5708 5709 0
-5708 5702 0
5710 -5711 -5702 0
-5710 5711 0
-5710 5702 0
5712 -5711 -5704 0
-5712 5711 0
-5712 5704 0
5713 -5709 -5704 -5691 0
-5713 5709 0
-5713 5704 0
-5713 5691 0
-1025 5714 5708 5710 5712 5713 0
1025 -5714 0
1025 -5708 0
1025 -5710 0
1025 -5712 0
1025 -5713 0
5715 -5698 -5711 0
-5715 5698 0
-5715 5711 0
5716 -5695 -5709 0
-5716 5695 0
-5716 5709 0
5717 -5695 -5711 0
-5717 5695 0
-5717 5711 0
5718 -5698 -5709 -5691 0
-5718 5698 0
-5718 5709 0
-5718 5691 0
-1023 5719 5715 5716 5717 5718 0
1023 -5719 0
1023 -5715 0
1023 -5716 0
1023 -5717 0
1023 -5718 0
5720 -5698 -5695 0
-5720 5698 0
-5720 5695 0
5721 -5695 -5695 0
-5721 5695 0
-5721 5695 0
5722 -5695 -5698 0
-5722 5695 0
-5722 5698 0
5723 -5698 -5698 -5691 0
-5723 5698 0
-5723 5698 0
-5723 5691 0
-5724 5725 5720 5721 5722 5723 0
5724 -5725 0
5724 -5720 0
5724 -5721 0
5724 -5722 0
5724 -5723 0
5726 -3175 -5727 0
-5726 3175 0
-5726 5727 0
5728 -5727 -5727 0
-5728 5727 0
-5728 5727 0
5729 -5727 -3175 0
-5729 5727 0
-5729 3175 0
5730 -3175 -3175 -5731 0
-5730 3175 0
-5730 3175 0
-5730 5731 0
-5732 3177 5726 5728 5729 5730 0
5732 -3177 0
5732 -5726 0
5732 -5728 0
5732 -5729 0
5732 -5730 0
5733 -3175 -5734 0
-5733 3175 0
-5733 5734 0
5735 -5727 -5734 0
-5735 5727 0
-5735 5734 0
5736 -5727 -3179 0
-5736 5727 0
-5736 3179 0
5737 -3175 -3179 -5731 0
-5737 3175 0
-5737 3179 0
-5737 5731 0
-334 3180 5733 5735 5736 5737 0
334 -3180 0
334 -5733 0
334 -5735 0
334 -5736 0
334 -5737 0
5738 -3175 -5739 0
-5738 3175 0
-5738 5739 0
5740 -5727 -3182 0
-5740 5727 0
-5740 3182 0
5741 -5727 -5739 0
-5741 5727 0
-5741 5739 0
5742 -3175 -3182 -5731 0
-5742 3175 0
-5742 3182 0
-5742 5731 0
-332 3183 5738 5740 5741 5742 0
332 -3183 0
332 -5738 0
332 -5740 0
332 -5741 0
332 -5742 0
5743 -3185 -5739 0
-5743 3185 0
-5743 5739 0
5744 -5745 -5739 0
-5744 5745 0
-5744 5739 0
5746 -5745 -3182 0
-5746 5745 0
-5746 3182 0
5747 -3185 -3182 -5731 0
-5747 3185 0
-5747 3182 0
-5747 5731 0
-335 3186 5743 5744 5746 5747 0
335 -3186 0
335 -5743 0
335 -5744 0
335 -5746 0
335 -5747 0
5748 -3179 -5745 0
-5748 3179 0
-5748 5745 0
5749 -5734 -3185 0
-5749 5734 0
-5749 3185 0
5750 -5734 -5745 0
-5750 5734 0
-5750 5745 0
5751 -3179 -3185 -5731 0
-5751 3179 0
-5751 3185 0
-5751 5731 0
-333 3188 5748 5749 5750 5751 0
333 -3188 0
333 -5748 0
333 -5749 0
333 -5750 0
333 -5751 0
5752 -3179 -5734 0
-5752 3179 0
-5752 5734 0
5753 -5734 -5734 0
-5753 5734 0
-5753 5734 0
5754 -5734 -3179 0
-5754 5734 0
-5754 3179 0
5755 -3179 -3179 -5731 0
-5755 3179 0
-5755 3179 0
-5755 5731 0
-5756 3191 5752 5753 5754 5755 0
5756 -3191 0
5756 -5752 0
5756 -5753 0
5756 -5754 0
5756 -5755 0
5757 -5319 -5319 0
-5757 5319 0
-5757 5319 0
-5758 5326 5757 0
5758 -5326 0
5758 -5757 0
5759 -5319 -5331 0
-5759 5319 0
-5759 5331 0
-1034 5333 5759 0
1034 -5333 0
1034 -5759 0
5760 -5319 -5337 0
-5760 5319 0
-5760 5337 0
-1032 5340 5760 0
1032 -5340 0
1032 -5760 0
5761 -5342 -5337 0
-5761 5342 0
-5761 5337 0
-1035 5347 5761 0
1035 -5347 0
1035 -5761 0
5762 -5331 -5342 0
-5762 5331 0
-5762 5342 0
-1033 5352 5762 0
1033 -5352 0
1033 -5762 0
5763 -5331 -5331 0
-5763 5331 0
-5763 5331 0
-5764 5358 5763 0
5764 -5358 0
5764 -5763 0
5765 -3521 -3517 0
-5765 3521 0
-5765 3517 0
5766 -3517 -3517 0
-5766 3517 0
-5766 3517 0
5767 -3517 -3521 0
-5767 3517 0
-5767 3521 0
5768 -3521 -3521 -3356 0
-5768 3521 0
-5768 3521 0
-5768 3356 0
-5769 3524 5765 5766 5767 5768 0
5769 -3524 0
5769 -5765 0
5769 -5766 0
5769 -5767 0
5769 -5768 0
5770 -3521 -3359 0
-5770 3521 0
-5770 3359 0
5771 -3517 -3359 0
-5771 3517 0
-5771 3359 0
5772 -3517 -3367 0
-5772 3517 0
-5772 3367 0
5773 -3521 -3367 -3356 0
-5773 3521 0
-5773 3367 0
-5773 3356 0
-29 3554 5770 5771 5772 5773 0
29 -3554 0
29 -5770 0
29 -5771 0
29 -5772 0
29 -5773 0
5774 -3521 -3362 0
-5774 3521 0
-5774 3362 0
5775 -3517 -3365 0
-5775 3517 0
-5775 3365 0
5776 -3517 -3362 0
-5776 3517 0
-5776 3362 0
5777 -3521 -3365 -3356 0
-5777 3521 0
-5777 3365 0
-5777 3356 0
-27 3516 5774 5775 5776 5777 0
27 -3516 0
27 -5774 0
27 -5775 0
27 -5776 0
27 -5777 0
5778 -3364 -3362 0
-5778 3364 0
-5778 3362 0
5779 -3354 -3362 0
-5779 3354 0
-5779 3362 0
5780 -3354 -3365 0
-5780 3354 0
-5780 3365 0
5781 -3364 -3365 -3356 0
-5781 3364 0
-5781 3365 0
-5781 3356 0
-30 3361 5778 5779 5780 5781 0
30 -3361 0
30 -5778 0
30 -5779 0
30 -5780 0
30 -5781 0
5782 -3367 -3354 0
-5782 3367 0
-5782 3354 0
5783 -3359 -3364 0
-5783 3359 0
-5783 3364 0
5784 -3359 -3354 0
-5784 3359 0
-5784 3354 0
5785 -3367 -3364 -3356 0
-5785 3367 0
-5785 3364 0
-5785 3356 0
-28 3358 5782 5783 5784 5785 0
28 -3358 0
28 -5782 0
28 -5783 0
28 -5784 0
28 -5785 0
5786 -3367 -3359 0
-5786 3367 0
-5786 3359 0
4065 -3359 -3359 0
-4065 3359 0
-4065 3359 0
5787 -3359 -3367 0
-5787 3359 0
-5787 3367 0
5788 -3367 -3367 -3356 0
-5788 3367 0
-5788 3367 0
-5788 3356 0
-5789 3370 5786 4065 5787 5788 0
5789 -3370 0
5789 -5786 0
5789 -4065 0
5789 -5787 0
5789 -5788 0
5790 -1551 -1527 0
-5790 1551 0
-5790 1527 0
1528 -1527 -1527 0
-1528 1527 0
-1528 1527 0
5791 -1527 -1551 0
-5791 1527 0
-5791 1551 0
5792 -1551 -1551 -1533 0
-5792 1551 0
-5792 1551 0
-5792 1533 0
-5793 1531 5790 1528 5791 5792 0
5793 -1531 0
5793 -5790 0
5793 -1528 0
5793 -5791 0
5793 -5792 0
5794 -1551 -1540 0
-5794 1551 0
-5794 1540 0
5795 -1527 -1540 0
-5795 1527 0
-5795 1540 0
5796 -1527 -1559 0
-5796 1527 0
-5796 1559 0
5797 -1551 -1559 -1533 0
-5797 1551 0
-5797 1559 0
-5797 1533 0
-554 1535 5794 5795 5796 5797 0
554 -1535 0
554 -5794 0
554 -5795 0
554 -5796 0
554 -5797 0
5798 -1551 -1547 0
-5798 1551 0
-5798 1547 0
5799 -1527 -1554 0
-5799 1527 0
-5799 1554 0
5800 -1527 -1547 0
-5800 1527 0
-5800 1547 0
5801 -1551 -1554 -1533 0
-5801 1551 0
-5801 1554 0
-5801 1533 0
-552 1542 5798 5799 5800 5801 0
552 -1542 0
552 -5798 0
552 -5799 0
552 -5800 0
552 -5801 0
5802 -1549 -1547 0
-5802 1549 0
-5802 1547 0
5803 -1526 -1547 0
-5803 1526 0
-5803 1547 0
5804 -1526 -1554 0
-5804 1526 0
-5804 1554 0
5805 -1549 -1554 -1533 0
-5805 1549 0
-5805 1554 0
-5805 1533 0
-555 1544 5802 5803 5804 5805 0
555 -1544 0
555 -5802 0
555 -5803 0
555 -5804 0
555 -5805 0
5806 -1559 -1526 0
-5806 1559 0
-5806 1526 0
5807 -1540 -1549 0
-5807 1540 0
-5807 1549 0
5808 -1540 -1526 0
-5808 1540 0
-5808 1526 0
5809 -1559 -1549 -1533 0
-5809 1559 0
-5809 1549 0
-5809 1533 0
-553 1538 5806 5807 5808 5809 0
553 -1538 0
553 -5806 0
553 -5807 0
553 -5808 0
553 -5809 0
5810 -1559 -1540 0
-5810 1559 0
-5810 1540 0
1847 -1540 -1540 0
-1847 1540 0
-1847 1540 0
5811 -1540 -1559 0
-5811 1540 0
-5811 1559 0
5812 -1559 -1559 -1533 0
-5812 1559 0
-5812 1559 0
-5812 1533 0
-5813 1565 5810 1847 5811 5812 0
5813 -1565 0
5813 -5810 0
5813 -1847 0
5813 -5811 0
5813 -5812 0
5814 -3985 -3985 0
-5814 3985 0
-5814 3985 0
-5815 3991 5814 0
5815 -3991 0
5815 -5814 0
5816 -3985 -2355 0
-5816 3985 0
-5816 2355 0
-899 3996 5816 0
899 -3996 0
899 -5816 0
5817 -3985 -2353 0
-5817 3985 0
-5817 2353 0
-897 4001 5817 0
897 -4001 0
897 -5817 0
5818 -2352 -2353 0
-5818 2352 0
-5818 2353 0
-900 2349 5818 0
900 -2349 0
900 -5818 0
5819 -2355 -2352 0
-5819 2355 0
-5819 2352 0
-898 2346 5819 0
898 -2346 0
898 -5819 0
5820 -2355 -2355 0
-5820 2355 0
-5820 2355 0
-5821 2358 5820 0
5821 -2358 0
5821 -5820 0
5822 -2991 -2991 0
-5822 2991 0
-5822 2991 0
-5823 2971 5822 0
5823 -2971 0
5823 -5822 0
5824 -2991 -2999 0
-5824 2991 0
-5824 2999 0
-559 2975 5824 0
559 -2975 0
559 -5824 0
5825 -2991 -2994 0
-5825 2991 0
-5825 2994 0
-557 2982 5825 0
557 -2982 0
557 -5825 0
5826 -2989 -2994 0
-5826 2989 0
-5826 2994 0
-560 2984 5826 0
560 -2984 0
560 -5826 0
5827 -2999 -2989 0
-5827 2999 0
-5827 2989 0
-558 2978 5827 0
558 -2978 0
558 -5827 0
5828 -2999 -2999 0
-5828 2999 0
-5828 2999 0
-5829 3005 5828 0
5829 -3005 0
5829 -5828 0
5830 -2144 -2144 0
-5830 2144 0
-5830 2144 0
-5831 2151 5830 0
5831 -2151 0
5831 -5830 0
5832 -2144 -2156 0
-5832 2144 0
-5832 2156 0
-999 2158 5832 0
999 -2158 0
999 -5832 0
5833 -2144 -2162 0
-5833 2144 0
-5833 2162 0
-997 2165 5833 0
997 -2165 0
997 -5833 0
5834 -2167 -2162 0
-5834 2167 0
-5834 2162 0
-1000 2172 5834 0
1000 -2172 0
1000 -5834 0
5835 -2156 -2167 0
-5835 2156 0
-5835 2167 0
-998 2177 5835 0
998 -2177 0
998 -5835 0
5836 -2156 -2156 0
-5836 2156 0
-5836 2156 0
-5837 2183 5836 0
5837 -2183 0
5837 -5836 0
5838 -2116 -2116 0
-5838 2116 0
-5838 2116 0
-5839 2102 5838 0
5839 -2102 0
5839 -5838 0
5840 -2116 -2111 0
-5840 2116 0
-5840 2111 0
-834 2096 5840 0
834 -2096 0
834 -5840 0
5841 -2116 -2113 0
-5841 2116 0
-5841 2113 0
-832 2095 5841 0
832 -2095 0
832 -5841 0
5842 -2123 -2113 0
-5842 2123 0
-5842 2113 0
-835 2118 5842 0
835 -2118 0
835 -5842 0
5843 -2111 -2123 0
-5843 2111 0
-5843 2123 0
-833 2120 5843 0
833 -2120 0
833 -5843 0
5844 -2111 -2111 0
-5844 2111 0
-5844 2111 0
-5845 2100 5844 0
5845 -2100 0
5845 -5844 0
5846 -2991 -2967 0
-5846 2991 0
-5846 2967 0
2968 -2967 -2967 0
-2968 2967 0
-2968 2967 0
5847 -2967 -2991 0
-5847 2967 0
-5847 2991 0
5848 -2991 -2991 -2973 0
-5848 2991 0
-5848 2991 0
-5848 2973 0
-5849 2971 5846 2968 5847 5848 0
5849 -2971 0
5849 -5846 0
5849 -2968 0
5849 -5847 0
5849 -5848 0
5850 -2991 -2980 0
-5850 2991 0
-5850 2980 0
5851 -2967 -2980 0
-5851 2967 0
-5851 2980 0
5852 -2967 -2999 0
-5852 2967 0
-5852 2999 0
5853 -2991 -2999 -2973 0
-5853 2991 0
-5853 2999 0
-5853 2973 0
-204 2975 5850 5851 5852 5853 0
204 -2975 0
204 -5850 0
204 -5851 0
204 -5852 0
204 -5853 0
5854 -2991 -2987 0
-5854 2991 0
-5854 2987 0
5855 -2967 -2994 0
-5855 2967 0
-5855 2994 0
5856 -2967 -2987 0
-5856 2967 0
-5856 2987 0
5857 -2991 -2994 -2973 0
-5857 2991 0
-5857 2994 0
-5857 2973 0
-202 2982 5854 5855 5856 5857 0
202 -2982 0
202 -5854 0
202 -5855 0
202 -5856 0
202 -5857 0
5858 -2989 -2987 0
-5858 2989 0
-5858 2987 0
5859 -2966 -2987 0
-5859 2966 0
-5859 2987 0
5860 -2966 -2994 0
-5860 2966 0
-5860 2994 0
5861 -2989 -2994 -2973 0
-5861 2989 0
-5861 2994 0
-5861 2973 0
-205 2984 5858 5859 5860 5861 0
205 -2984 0
205 -5858 0
205 -5859 0
205 -5860 0
205 -5861 0
5862 -2999 -2966 0
-5862 2999 0
-5862 2966 0
5863 -2980 -2989 0
-5863 2980 0
-5863 2989 0
5864 -2980 -2966 0
-5864 2980 0
-5864 2966 0
5865 -2999 -2989 -2973 0
-5865 2999 0
-5865 2989 0
-5865 2973 0
-203 2978 5862 5863 5864 5865 0
203 -2978 0
203 -5862 0
203 -5863 0
203 -5864 0
203 -5865 0
5866 -2999 -2980 0
-5866 2999 0
-5866 2980 0
5867 -2980 -2980 0
-5867 2980 0
-5867 2980 0
5868 -2980 -2999 0
-5868 2980 0
-5868 2999 0
5869 -2999 -2999 -2973 0
-5869 2999 0
-5869 2999 0
-5869 2973 0
-5870 3005 5866 5867 5868 5869 0
5870 -3005 0
5870 -5866 0
5870 -5867 0
5870 -5868 0
5870 -5869 0
5871 -2013 -2013 0
-5871 2013 0
-5871 2013 0
-5872 2020 5871 0
5872 -2020 0
5872 -5871 0
5873 -2013 -2025 0
-5873 2013 0
-5873 2025 0
-1194 2027 5873 0
1194 -2027 0
1194 -5873 0
5874 -2013 -2031 0
-5874 2013 0
-5874 2031 0
-1192 2034 5874 0
1192 -2034 0
1192 -5874 0
5875 -2036 -2031 0
-5875 2036 0
-5875 2031 0
-1195 2041 5875 0
1195 -2041 0
1195 -5875 0
5876 -2025 -2036 0
-5876 2025 0
-5876 2036 0
-1193 2046 5876 0
1193 -2046 0
1193 -5876 0
5877 -2025 -2025 0
-5877 2025 0
-5877 2025 0
-5878 2052 5877 0
5878 -2052 0
5878 -5877 0
5879 -1392 -1392 0
-5879 1392 0
-5879 1392 0
-5880 1372 5879 0
5880 -1372 0
5880 -5879 0
5881 -1392 -1400 0
-5881 1392 0
-5881 1400 0
-514 1376 5881 0
514 -1376 0
514 -5881 0
5882 -1392 -1395 0
-5882 1392 0
-5882 1395 0
-512 1383 5882 0
512 -1383 0
512 -5882 0
5883 -1390 -1395 0
-5883 1390 0
-5883 1395 0
-515 1385 5883 0
515 -1385 0
515 -5883 0
5884 -1400 -1390 0
-5884 1400 0
-5884 1390 0
-513 1379 5884 0
513 -1379 0
513 -5884 0
5885 -1400 -1400 0
-5885 1400 0
-5885 1400 0
-5886 1406 5885 0
5886 -1406 0
5886 -5885 0
5887 -1467 -1467 0
-5887 1467 0
-5887 1467 0
-5888 1474 5887 0
5888 -1474 0
5888 -5887 0
5889 -1467 -1479 0
-5889 1467 0
-5889 1479 0
-1144 1481 5889 0
1144 -1481 0
1144 -5889 0
5890 -1467 -1485 0
-5890 1467 0
-5890 1485 0
-1142 1488 5890 0
1142 -1488 0
1142 -5890 0
5891 -1490 -1485 0
-5891 1490 0
-5891 1485 0
-1145 1495 5891 0
1145 -1495 0
1145 -5891 0
5892 -1479 -1490 0
-5892 1479 0
-5892 1490 0
-1143 1500 5892 0
1143 -1500 0
1143 -5892 0
5893 -1479 -1479 0
-5893 1479 0
-5893 1479 0
-5894 1506 5893 0
5894 -1506 0
5894 -5893 0
5895 -3268 -3268 0
-5895 3268 0
-5895 3268 0
-5896 3275 5895 0
5896 -3275 0
5896 -5895 0
5897 -3268 -3280 0
-5897 3268 0
-5897 3280 0
-1129 3282 5897 0
1129 -3282 0
1129 -5897 0
5898 -3268 -3286 0
-5898 3268 0
-5898 3286 0
-1127 3289 5898 0
1127 -3289 0
1127 -5898 0
5899 -3291 -3286 0
-5899 3291 0
-5899 3286 0
-1130 3296 5899 0
1130 -3296 0
1130 -5899 0
5900 -3280 -3291 0
-5900 3280 0
-5900 3291 0
-1128 3301 5900 0
1128 -3301 0
1128 -5900 0
5901 -3280 -3280 0
-5901 3280 0
-5901 3280 0
-5902 3307 5901 0
5902 -3307 0
5902 -5901 0
5903 -1508 -5904 0
-5903 1508 0
-5903 5904 0
5905 -5904 -5904 0
-5905 5904 0
-5905 5904 0
5906 -5904 -1508 0
-5906 5904 0
-5906 1508 0
5907 -1508 -1508 -5908 0
-5907 1508 0
-5907 1508 0
-5907 5908 0
-5909 1510 5903 5905 5906 5907 0
5909 -1510 0
5909 -5903 0
5909 -5905 0
5909 -5906 0
5909 -5907 0
5910 -1508 -5911 0
-5910 1508 0
-5910 5911 0
5912 -5904 -5911 0
-5912 5904 0
-5912 5911 0
5913 -5904 -1512 0
-5913 5904 0
-5913 1512 0
5914 -1508 -1512 -5908 0
-5914 1508 0
-5914 1512 0
-5914 5908 0
-1124 1513 5910 5912 5913 5914 0
1124 -1513 0
1124 -5910 0
1124 -5912 0
1124 -5913 0
1124 -5914 0
5915 -1508 -5916 0
-5915 1508 0
-5915 5916 0
5917 -5904 -1515 0
-5917 5904 0
-5917 1515 0
5918 -5904 -5916 0
-5918 5904 0
-5918 5916 0
5919 -1508 -1515 -5908 0
-5919 1508 0
-5919 1515 0
-5919 5908 0
-1122 1516 5915 5917 5918 5919 0
1122 -1516 0
1122 -5915 0
1122 -5917 0
1122 -5918 0
1122 -5919 0
5920 -1518 -5916 0
-5920 1518 0
-5920 5916 0
5921 -5922 -5916 0
-5921 5922 0
-5921 5916 0
5923 -5922 -1515 0
-5923 5922 0
-5923 1515 0
5924 -1518 -1515 -5908 0
-5924 1518 0
-5924 1515 0
-5924 5908 0
-1125 1519 5920 5921 5923 5924 0
1125 -1519 0
1125 -5920 0
1125 -5921 0
1125 -5923 0
1125 -5924 0
5925 -1512 -5922 0
-5925 1512 0
-5925 5922 0
5926 -5911 -1518 0
-5926 5911 0
-5926 1518 0
5927 -5911 -5922 0
-5927 5911 0
-5927 5922 0
5928 -1512 -1518 -5908 0
-5928 1512 0
-5928 1518 0
-5928 5908 0
-1123 1521 5925 5926 5927 5928 0
1123 -1521 0
1123 -5925 0
1123 -5926 0
1123 -5927 0
1123 -5928 0
5929 -1512 -5911 0
-5929 1512 0
-5929 5911 0
5930 -5911 -5911 0
-5930 5911 0
-5930 5911 0
5931 -5911 -1512 0
-5931 5911 0
-5931 1512 0
5932 -1512 -1512 -5908 0
-5932 1512 0
-5932 1512 0
-5932 5908 0
-5933 1524 5929 5930 5931 5932 0
5933 -1524 0
5933 -5929 0
5933 -5930 0
5933 -5931 0
5933 -5932 0
5934 -2650 -2650 0
-5934 2650 0
-5934 2650 0
-5935 2630 5934 0
5935 -2630 0
5935 -5934 0
5936 -2650 -2658 0
-5936 2650 0
-5936 2658 0
-414 2634 5936 0
414 -2634 0
414 -5936 0
5937 -2650 -2653 0
-5937 2650 0
-5937 2653 0
-412 2641 5937 0
412 -2641 0
412 -5937 0
5938 -2648 -2653 0
-5938 2648 0
-5938 2653 0
-415 2643 5938 0
415 -2643 0
415 -5938 0
5939 -2658 -2648 0
-5939 2658 0
-5939 2648 0
-413 2637 5939 0
413 -2637 0
413 -5939 0
5940 -2658 -2658 0
-5940 2658 0
-5940 2658 0
-5941 2664 5940 0
5941 -2664 0
5941 -5940 0
5942 -5943 -5943 0
-5942 5943 0
-5942 5943 0
-5944 5945 5942 0
5944 -5945 0
5944 -5942 0
5946 -5943 -5947 0
-5946 5943 0
-5946 5947 0
-339 5948 5946 0
339 -5948 0
339 -5946 0
5949 -5943 -5950 0
-5949 5943 0
-5949 5950 0
-337 5951 5949 0
337 -5951 0
337 -5949 0
5952 -5953 -5950 0
-5952 5953 0
-5952 5950 0
-340 5954 5952 0
340 -5954 0
340 -5952 0
5955 -5947 -5953 0
-5955 5947 0
-5955 5953 0
-338 5956 5955 0
338 -5956 0
338 -5955 0
5957 -5947 -5947 0
-5957 5947 0
-5957 5947 0
-5958 5959 5957 0
5958 -5959 0
5958 -5957 0
5960 -3649 -5198 0
-5960 3649 0
-5960 5198 0
5199 -5198 -5198 0
-5199 5198 0
-5199 5198 0
5961 -5198 -3649 0
-5961 5198 0
-5961 3649 0
5962 -3649 -3649 -5203 0
-5962 3649 0
-5962 3649 0
-5962 5203 0
-5963 3651 5960 5199 5961 5962 0
5963 -3651 0
5963 -5960 0
5963 -5199 0
5963 -5961 0
5963 -5962 0
5964 -3649 -5208 0
-5964 3649 0
-5964 5208 0
5965 -5198 -5208 0
-5965 5198 0
-5965 5208 0
5966 -5198 -3653 0
-5966 5198 0
-5966 3653 0
5967 -3649 -3653 -5203 0
-5967 3649 0
-5967 3653 0
-5967 5203 0
-629 3654 5964 5965 5966 5967 0
629 -3654 0
629 -5964 0
629 -5965 0
629 -5966 0
629 -5967 0
5968 -3649 -5213 0
-5968 3649 0
-5968 5213 0
5969 -5198 -3656 0
-5969 5198 0
-5969 3656 0
5970 -5198 -5213 0
-5970 5198 0
-5970 5213 0
5971 -3649 -3656 -5203 0
-5971 3649 0
-5971 3656 0
-5971 5203 0
-627 3657 5968 5969 5970 5971 0
627 -3657 0
627 -5968 0
627 -5969 0
627 -5970 0
627 -5971 0
5972 -3659 -5213 0
-5972 3659 0
-5972 5213 0
5973 -5197 -5213 0
-5973 5197 0
-5973 5213 0
5974 -5197 -3656 0
-5974 5197 0
-5974 3656 0
5975 -3659 -3656 -5203 0
-5975 3659 0
-5975 3656 0
-5975 5203 0
-630 3660 5972 5973 5974 5975 0
630 -3660 0
630 -5972 0
630 -5973 0
630 -5974 0
630 -5975 0
5976 -3653 -5197 0
-5976 3653 0
-5976 5197 0
5977 -5208 -3659 0
-5977 5208 0
-5977 3659 0
5978 -5208 -5197 0
-5978 5208 0
-5978 5197 0
5979 -3653 -3659 -5203 0
-5979 3653 0
-5979 3659 0
-5979 5203 0
-628 3662 5976 5977 5978 5979 0
628 -3662 0
628 -5976 0
628 -5977 0
628 -5978 0
628 -5979 0
5980 -3653 -5208 0
-5980 3653 0
-5980 5208 0
5981 -5208 -5208 0
-5981 5208 0
-5981 5208 0
5982 -5208 -3653 0
-5982 5208 0
-5982 3653 0
5983 -3653 -3653 -5203 0
-5983 3653 0
-5983 3653 0
-5983 5203 0
-5984 3665 5980 5981 5982 5983 0
5984 -3665 0
5984 -5980 0
5984 -5981 0
5984 -5982 0
5984 -5983 0
5985 -2925 -2925 0
-5985 2925 0
-5985 2925 0
-5986 2932 5985 0
5986 -2932 0
5986 -5985 0
5987 -2925 -2937 0
-5987 2925 0
-5987 2937 0
-649 2939 5987 0
649 -2939 0
649 -5987 0
5988 -2925 -2943 0
-5988 2925 0
-5988 2943 0
-647 2946 5988 0
647 -2946 0
647 -5988 0
5989 -2948 -2943 0
-5989 2948 0
-5989 2943 0
-650 2953 5989 0
650 -2953 0
650 -5989 0
5990 -2937 -2948 0
-5990 2937 0
-5990 2948 0
-648 2958 5990 0
648 -2958 0
648 -5990 0
5991 -2937 -2937 0
-5991 2937 0
-5991 2937 0
-5992 2964 5991 0
5992 -2964 0
5992 -5991 0
5993 -3289 -3282 0
-5993 3289 0
-5993 3282 0
4183 -3282 -3282 0
-4183 3282 0
-4183 3282 0
5994 -3282 -3289 0
-5994 3282 0
-5994 3289 0
5995 -3289 -3289 -3307 0
-5995 3289 0
-5995 3289 0
-5995 3307 0
-5996 3275 5993 4183 5994 5995 0
5996 -3275 0
5996 -5993 0
5996 -4183 0
5996 -5994 0
5996 -5995 0
5997 -3289 -3277 0
-5997 3289 0
-5997 3277 0
5998 -3282 -3277 0
-5998 3282 0
-5998 3277 0
5999 -3282 -3284 0
-5999 3282 0
-5999 3284 0
6000 -3289 -3284 -3307 0
-6000 3289 0
-6000 3284 0
-6000 3307 0
-864 3269 5997 5998 5999 6000 0
864 -3269 0
864 -5997 0
864 -5998 0
864 -5999 0
864 -6000 0
6001 -3289 -3280 0
-6001 3289 0
-6001 3280 0
6002 -3282 -3286 0
-6002 3282 0
-6002 3286 0
6003 -3282 -3280 0
-6003 3282 0
-6003 3280 0
6004 -3289 -3286 -3307 0
-6004 3289 0
-6004 3286 0
-6004 3307 0
-862 3268 6001 6002 6003 6004 0
862 -3268 0
862 -6001 0
862 -6002 0
862 -6003 0
862 -6004 0
6005 -3296 -3280 0
-6005 3296 0
-6005 3280 0
6006 -3301 -3280 0
-6006 3301 0
-6006 3280 0
6007 -3301 -3286 0
-6007 3301 0
-6007 3286 0
6008 -3296 -3286 -3307 0
-6008 3296 0
-6008 3286 0
-6008 3307 0
-865 3291 6005 6006 6007 6008 0
865 -3291 0
865 -6005 0
865 -6006 0
865 -6007 0
865 -6008 0
6009 -3284 -3301 0
-6009 3284 0
-6009 3301 0
6010 -3277 -3296 0
-6010 3277 0
-6010 3296 0
6011 -3277 -3301 0
-6011 3277 0
-6011 3301 0
6012 -3284 -3296 -3307 0
-6012 3284 0
-6012 3296 0
-6012 3307 0
-863 3293 6009 6010 6011 6012 0
863 -3293 0
863 -6009 0
863 -6010 0
863 -6011 0
863 -6012 0
6013 -3284 -3277 0
-6013 3284 0
-6013 3277 0
3303 -3277 -3277 0
-3303 3277 0
-3303 3277 0
6014 -3277 -3284 0
-6014 3277 0
-6014 3284 0
6015 -3284 -3284 -3307 0
-6015 3284 0
-6015 3284 0
-6015 3307 0
-6016 3273 6013 3303 6014 6015 0
6016 -3273 0
6016 -6013 0
6016 -3303 0
6016 -6014 0
6016 -6015 0
6017 -6018 -6018 0
-6017 6018 0
-6017 6018 0
-6019 6020 6017 0
6019 -6020 0
6019 -6017 0
6021 -6018 -1842 0
-6021 6018 0
-6021 1842 0
-1169 6022 6021 0
1169 -6022 0
1169 -6021 0
6023 -6018 -1840 0
-6023 6018 0
-6023 1840 0
-1167 6024 6023 0
1167 -6024 0
1167 -6023 0
6025 -1839 -1840 0
-6025 1839 0
-6025 1840 0
-1170 1836 6025 0
1170 -1836 0
1170 -6025 0
6026 -1842 -1839 0
-6026 1842 0
-6026 1839 0
-1168 1833 6026 0
1168 -1833 0
1168 -6026 0
6027 -1842 -1842 0
-6027 1842 0
-6027 1842 0
-6028 1845 6027 0
6028 -1845 0
6028 -6027 0
6029 -6018 -6030 0
-6029 6018 0
-6029 6030 0
6031 -6030 -6030 0
-6031 6030 0
-6031 6030 0
6032 -6030 -6018 0
-6032 6030 0
-6032 6018 0
6033 -6018 -6018 -1831 0
-6033 6018 0
-6033 6018 0
-6033 1831 0
-6034 6020 6029 6031 6032 6033 0
6034 -6020 0
6034 -6029 0
6034 -6031 0
6034 -6032 0
6034 -6033 0
6035 -6018 -1834 0
-6035 6018 0
-6035 1834 0
6036 -6030 -1834 0
-6036 6030 0
-6036 1834 0
6037 -6030 -1842 0
-6037 6030 0
-6037 1842 0
6038 -6018 -1842 -1831 0
-6038 6018 0
-6038 1842 0
-6038 1831 0
-1004 6022 6035 6036 6037 6038 0
1004 -6022 0
1004 -6035 0
1004 -6036 0
1004 -6037 0
1004 -6038 0
6039 -6018 -1837 0
-6039 6018 0
-6039 1837 0
6040 -6030 -1840 0
-6040 6030 0
-6040 1840 0
6041 -6030 -1837 0
-6041 6030 0
-6041 1837 0
6042 -6018 -1840 -1831 0
-6042 6018 0
-6042 1840 0
-6042 1831 0
-1002 6024 6039 6040 6041 6042 0
1002 -6024 0
1002 -6039 0
1002 -6040 0
1002 -6041 0
1002 -6042 0
6043 -1839 -1837 0
-6043 1839 0
-6043 1837 0
6044 -1829 -1837 0
-6044 1829 0
-6044 1837 0
6045 -1829 -1840 0
-6045 1829 0
-6045 1840 0
6046 -1839 -1840 -1831 0
-6046 1839 0
-6046 1840 0
-6046 1831 0
-1005 1836 6043 6044 6045 6046 0
1005 -1836 0
1005 -6043 0
1005 -6044 0
1005 -6045 0
1005 -6046 0
6047 -1842 -1829 0
-6047 1842 0
-6047 1829 0
6048 -1834 -1839 0
-6048 1834 0
-6048 1839 0
6049 -1834 -1829 0
-6049 1834 0
-6049 1829 0
6050 -1842 -1839 -1831 0
-6050 1842 0
-6050 1839 0
-6050 1831 0
-1003 1833 6047 6048 6049 6050 0
1003 -1833 0
1003 -6047 0
1003 -6048 0
1003 -6049 0
1003 -6050 0
6051 -1842 -1834 0
-6051 1842 0
-6051 1834 0
6052 -1834 -1834 0
-6052 1834 0
-6052 1834 0
6053 -1834 -1842 0
-6053 1834 0
-6053 1842 0
6054 -1842 -1842 -1831 0
-6054 1842 0
-6054 1842 0
-6054 1831 0
-6055 1845 6051 6052 6053 6054 0
6055 -1845 0
6055 -6051 0
6055 -6052 0
6055 -6053 0
6055 -6054 0
6056 -1829 -6030 0
-6056 1829 0
-6056 6030 0
6031 -6030 -6030 0
-6031 6030 0
-6031 6030 0
6057 -6030 -1829 0
-6057 6030 0
-6057 1829 0
6058 -1829 -1829 -6020 0
-6058 1829 0
-6058 1829 0
-6058 6020 0
-6059 1831 6056 6031 6057 6058 0
6059 -1831 0
6059 -6056 0
6059 -6031 0
6059 -6057 0
6059 -6058 0
6060 -1829 -6022 0
-6060 1829 0
-6060 6022 0
6061 -6030 -6022 0
-6061 6030 0
-6061 6022 0
6062 -6030 -1833 0
-6062 6030 0
-6062 1833 0
6063 -1829 -1833 -6020 0
-6063 1829 0
-6063 1833 0
-6063 6020 0
-924 1834 6060 6061 6062 6063 0
924 -1834 0
924 -6060 0
924 -6061 0
924 -6062 0
924 -6063 0
6064 -1829 -6024 0
-6064 1829 0
-6064 6024 0
6065 -6030 -1836 0
-6065 6030 0
-6065 1836 0
6066 -6030 -6024 0
-6066 6030 0
-6066 6024 0
6067 -1829 -1836 -6020 0
-6067 1829 0
-6067 1836 0
-6067 6020 0
-922 1837 6064 6065 6066 6067 0
922 -1837 0
922 -6064 0
922 -6065 0
922 -6066 0
922 -6067 0
6068 -1839 -6024 0
-6068 1839 0
-6068 6024 0
6069 -6018 -6024 0
-6069 6018 0
-6069 6024 0
6070 -6018 -1836 0
-6070 6018 0
-6070 1836 0
6071 -1839 -1836 -6020 0
-6071 1839 0
-6071 1836 0
-6071 6020 0
-925 1840 6068 6069 6070 6071 0
925 -1840 0
925 -6068 0
925 -6069 0
925 -6070 0
925 -6071 0
6072 -1833 -6018 0
-6072 1833 0
-6072 6018 0
6073 -6022 -1839 0
-6073 6022 0
-6073 1839 0
6074 -6022 -6018 0
-6074 6022 0
-6074 6018 0
6075 -1833 -1839 -6020 0
-6075 1833 0
-6075 1839 0
-6075 6020 0
-923 1842 6072 6073 6074 6075 0
923 -1842 0
923 -6072 0
923 -6073 0
923 -6074 0
923 -6075 0
6076 -1833 -6022 0
-6076 1833 0
-6076 6022 0
6077 -6022 -6022 0
-6077 6022 0
-6077 6022 0
6078 -6022 -1833 0
-6078 6022 0
-6078 1833 0
6079 -1833 -1833 -6020 0
-6079 1833 0
-6079 1833 0
-6079 6020 0
-6080 1845 6076 6077 6078 6079 0
6080 -1845 0
6080 -6076 0
6080 -6077 0
6080 -6078 0
6080 -6079 0
6081 -4953 -4953 0
-6081 4953 0
-6081 4953 0
-6082 4960 6081 0
6082 -4960 0
6082 -6081 0
6083 -4953 -4965 0
-6083 4953 0
-6083 4965 0
-684 4967 6083 0
684 -4967 0
684 -6083 0
6084 -4953 -4971 0
-6084 4953 0
-6084 4971 0
-682 4974 6084 0
682 -4974 0
682 -6084 0
6085 -4976 -4971 0
-6085 4976 0
-6085 4971 0
-685 4981 6085 0
685 -4981 0
685 -6085 0
6086 -4965 -4976 0
-6086 4965 0
-6086 4976 0
-683 4986 6086 0
683 -4986 0
683 -6086 0
6087 -4965 -4965 0
-6087 4965 0
-6087 4965 0
-6088 4992 6087 0
6088 -4992 0
6088 -6087 0
6089 -3866 -3866 0
-6089 3866 0
-6089 3866 0
-6090 3852 6089 0
6090 -3852 0
6090 -6089 0
6091 -3866 -1236 0
-6091 3866 0
-6091 1236 0
-589 3855 6091 0
589 -3855 0
589 -6091 0
6092 -3866 -1234 0
-6092 3866 0
-6092 1234 0
-587 3860 6092 0
587 -3860 0
587 -6092 0
6093 -1233 -1234 0
-6093 1233 0
-6093 1234 0
-590 1230 6093 0
590 -1230 0
590 -6093 0
6094 -1236 -1233 0
-6094 1236 0
-6094 1233 0
-588 1227 6094 0
588 -1227 0
588 -6094 0
6095 -1236 -1236 0
-6095 1236 0
-6095 1236 0
-6096 1239 6095 0
6096 -1239 0
6096 -6095 0
6097 -4116 -4116 0
-6097 4116 0
-6097 4116 0
-6098 4123 6097 0
6098 -4123 0
6098 -6097 0
6099 -4116 -4128 0
-6099 4116 0
-6099 4128 0
-1189 4130 6099 0
1189 -4130 0
1189 -6099 0
6100 -4116 -4134 0
-6100 4116 0
-6100 4134 0
-1187 4137 6100 0
1187 -4137 0
1187 -6100 0
6101 -4139 -4134 0
-6101 4139 0
-6101 4134 0
-1190 4144 6101 0
1190 -4144 0
1190 -6101 0
6102 -4128 -4139 0
-6102 4128 0
-6102 4139 0
-1188 4149 6102 0
1188 -4149 0
1188 -6102 0
6103 -4128 -4128 0
-6103 4128 0
-6103 4128 0
-6104 4155 6103 0
6104 -4155 0
6104 -6103 0
6105 -2705 -2705 0
-6105 2705 0
-6105 2705 0
-6106 2712 6105 0
6106 -2712 0
6106 -6105 0
6107 -2705 -2717 0
-6107 2705 0
-6107 2717 0
-869 2719 6107 0
869 -2719 0
869 -6107 0
6108 -2705 -2723 0
-6108 2705 0
-6108 2723 0
-867 2726 6108 0
867 -2726 0
867 -6108 0
6109 -2728 -2723 0
-6109 2728 0
-6109 2723 0
-870 2733 6109 0
870 -2733 0
870 -6109 0
6110 -2717 -2728 0
-6110 2717 0
-6110 2728 0
-868 2738 6110 0
868 -2738 0
868 -6110 0
6111 -2717 -2717 0
-6111 2717 0
-6111 2717 0
-6112 2744 6111 0
6112 -2744 0
6112 -6111 0
6113 -5197 -5197 0
-6113 5197 0
-6113 5197 0
-6114 5203 6113 0
6114 -5203 0
6114 -6113 0
6115 -5197 -3662 0
-6115 5197 0
-6115 3662 0
-909 5208 6115 0
909 -5208 0
909 -6115 0
6116 -5197 -3660 0
-6116 5197 0
-6116 3660 0
-907 5213 6116 0
907 -5213 0
907 -6116 0
6117 -3659 -3660 0
-6117 3659 0
-6117 3660 0
-910 3656 6117 0
910 -3656 0
910 -6117 0
6118 -3662 -3659 0
-6118 3662 0
-6118 3659 0
-908 3653 6118 0
908 -3653 0
908 -6118 0
6119 -3662 -3662 0
-6119 3662 0
-6119 3662 0
-6120 3665 6119 0
6120 -3665 0
6120 -6119 0
6121 -1313 -6122 0
-6121 1313 0
-6121 6122 0
6123 -6122 -6122 0
-6123 6122 0
-6123 6122 0
6124 -6122 -1313 0
-6124 6122 0
-6124 1313 0
6125 -1313 -1313 -6126 0
-6125 1313 0
-6125 1313 0
-6125 6126 0
-6127 1315 6121 6123 6124 6125 0
6127 -1315 0
6127 -6121 0
6127 -6123 0
6127 -6124 0
6127 -6125 0
6128 -1313 -6129 0
-6128 1313 0
-6128 6129 0
6130 -6122 -6129 0
-6130 6122 0
-6130 6129 0
6131 -6122 -1317 0
-6131 6122 0
-6131 1317 0
6132 -1313 -1317 -6126 0
-6132 1313 0
-6132 1317 0
-6132 6126 0
-704 1318 6128 6130 6131 6132 0
704 -1318 0
704 -6128 0
704 -6130 0
704 -6131 0
704 -6132 0
6133 -1313 -6134 0
-6133 1313 0
-6133 6134 0
6135 -6122 -1320 0
-6135 6122 0
-6135 1320 0
6136 -6122 -6134 0
-6136 6122 0
-6136 6134 0
6137 -1313 -1320 -6126 0
-6137 1313 0
-6137 1320 0
-6137 6126 0
-702 1321 6133 6135 6136 6137 0
702 -1321 0
702 -6133 0
702 -6135 0
702 -6136 0
702 -6137 0
6138 -1323 -6134 0
-6138 1323 0
-6138 6134 0
6139 -6140 -6134 0
-6139 6140 0
-6139 6134 0
6141 -6140 -1320 0
-6141 6140 0
-6141 1320 0
6142 -1323 -1320 -6126 0
-6142 1323 0
-6142 1320 0
-6142 6126 0
-705 1324 6138 6139 6141 6142 0
705 -1324 0
705 -6138 0
705 -6139 0
705 -6141 0
705 -6142 0
6143 -1317 -6140 0
-6143 1317 0
-6143 6140 0
6144 -6129 -1323 0
-6144 6129 0
-6144 1323 0
6145 -6129 -6140 0
-6145 6129 0
-6145 6140 0
6146 -1317 -1323 -6126 0
-6146 1317 0
-6146 1323 0
-6146 6126 0
-703 1326 6143 6144 6145 6146 0
703 -1326 0
703 -6143 0
703 -6144 0
703 -6145 0
703 -6146 0
6147 -1317 -6129 0
-6147 1317 0
-6147 6129 0
6148 -6129 -6129 0
-6148 6129 0
-6148 6129 0
6149 -6129 -1317 0
-6149 6129 0
-6149 1317 0
6150 -1317 -1317 -6126 0
-6150 1317 0
-6150 1317 0
-6150 6126 0
-6151 1329 6147 6148 6149 6150 0
6151 -1329 0
6151 -6147 0
6151 -6148 0
6151 -6149 0
6151 -6150 0
6152 -5025 -6153 0
-6152 5025 0
-6152 6153 0
6154 -6153 -6153 0
-6154 6153 0
-6154 6153 0
6155 -6153 -5025 0
-6155 6153 0
-6155 5025 0
6156 -5025 -5025 -6157 0
-6156 5025 0
-6156 5025 0
-6156 6157 0
-6158 5027 6152 6154 6155 6156 0
6158 -5027 0
6158 -6152 0
6158 -6154 0
6158 -6155 0
6158 -6156 0
6159 -5025 -6160 0
-6159 5025 0
-6159 6160 0
6161 -6153 -6160 0
-6161 6153 0
-6161 6160 0
6162 -6153 -5029 0
-6162 6153 0
-6162 5029 0
6163 -5025 -5029 -6157 0
-6163 5025 0
-6163 5029 0
-6163 6157 0
-669 5030 6159 6161 6162 6163 0
669 -5030 0
669 -6159 0
669 -6161 0
669 -6162 0
669 -6163 0
6164 -5025 -6165 0
-6164 5025 0
-6164 6165 0
6166 -6153 -5032 0
-6166 6153 0
-6166 5032 0
6167 -6153 -6165 0
-6167 6153 0
-6167 6165 0
6168 -5025 -5032 -6157 0
-6168 5025 0
-6168 5032 0
-6168 6157 0
-667 5033 6164 6166 6167 6168 0
667 -5033 0
667 -6164 0
667 -6166 0
667 -6167 0
667 -6168 0
6169 -5035 -6165 0
-6169 5035 0
-6169 6165 0
6170 -6171 -6165 0
-6170 6171 0
-6170 6165 0
6172 -6171 -5032 0
-6172 6171 0
-6172 5032 0
6173 -5035 -5032 -6157 0
-6173 5035 0
-6173 5032 0
-6173 6157 0
-670 5036 6169 6170 6172 6173 0
670 -5036 0
670 -6169 0
670 -6170 0
670 -6172 0
670 -6173 0
6174 -5029 -6171 0
-6174 5029 0
-6174 6171 0
6175 -6160 -5035 0
-6175 6160 0
-6175 5035 0
6176 -6160 -6171 0
-6176 6160 0
-6176 6171 0
6177 -5029 -5035 -6157 0
-6177 5029 0
-6177 5035 0
-6177 6157 0
-668 5038 6174 6175 6176 6177 0
668 -5038 0
668 -6174 0
668 -6175 0
668 -6176 0
668 -6177 0
6178 -5029 -6160 0
-6178 5029 0
-6178 6160 0
6179 -6160 -6160 0
-6179 6160 0
-6179 6160 0
6180 -6160 -5029 0
-6180 6160 0
-6180 5029 0
6181 -5029 -5029 -6157 0
-6181 5029 0
-6181 5029 0
-6181 6157 0
-6182 5041 6178 6179 6180 6181 0
6182 -5041 0
6182 -6178 0
6182 -6179 0
6182 -6180 0
6182 -6181 0
6183 -2386 -6184 0
-6183 2386 0
-6183 6184 0
6185 -6184 -6184 0
-6185 6184 0
-6185 6184 0
6186 -6184 -2386 0
-6186 6184 0
-6186 2386 0
6187 -2386 -2386 -6188 0
-6187 2386 0
-6187 2386 0
-6187 6188 0
-6189 2388 6183 6185 6186 6187 0
6189 -2388 0
6189 -6183 0
6189 -6185 0
6189 -6186 0
6189 -6187 0
6190 -2386 -6191 0
-6190 2386 0
-6190 6191 0
6192 -6184 -6191 0
-6192 6184 0
-6192 6191 0
6193 -6184 -2390 0
-6193 6184 0
-6193 2390 0
6194 -2386 -2390 -6188 0
-6194 2386 0
-6194 2390 0
-6194 6188 0
-309 2391 6190 6192 6193 6194 0
309 -2391 0
309 -6190 0
309 -6192 0
309 -6193 0
309 -6194 0
6195 -2386 -6196 0
-6195 2386 0
-6195 6196 0
6197 -6184 -2393 0
-6197 6184 0
-6197 2393 0
6198 -6184 -6196 0
-6198 6184 0
-6198 6196 0
6199 -2386 -2393 -6188 0
-6199 2386 0
-6199 2393 0
-6199 6188 0
-307 2394 6195 6197 6198 6199 0
307 -2394 0
307 -6195 0
307 -6197 0
307 -6198 0
307 -6199 0
6200 -2396 -6196 0
-6200 2396 0
-6200 6196 0
6201 -6202 -6196 0
-6201 6202 0
-6201 6196 0
6203 -6202 -2393 0
-6203 6202 0
-6203 2393 0
6204 -2396 -2393 -6188 0
-6204 2396 0
-6204 2393 0
-6204 6188 0
-310 2397 6200 6201 6203 6204 0
310 -2397 0
310 -6200 0
310 -6201 0
310 -6203 0
310 -6204 0
6205 -2390 -6202 0
-6205 2390 0
-6205 6202 0
6206 -6191 -2396 0
-6206 6191 0
-6206 2396 0
6207 -6191 -6202 0
-6207 6191 0
-6207 6202 0
6208 -2390 -2396 -6188 0
-6208 2390 0
-6208 2396 0
-6208 6188 0
-308 2399 6205 6206 6207 6208 0
308 -2399 0
308 -6205 0
308 -6206 0
308 -6207 0
308 -6208 0
6209 -2390 -6191 0
-6209 2390 0
-6209 6191 0
6210 -6191 -6191 0
-6210 6191 0
-6210 6191 0
6211 -6191 -2390 0
-6211 6191 0
-6211 2390 0
6212 -2390 -2390 -6188 0
-6212 2390 0
-6212 2390 0
-6212 6188 0
-6213 2402 6209 6210 6211 6212 0
6213 -2402 0
6213 -6209 0
6213 -6210 0
6213 -6211 0
6213 -6212 0
6214 -5943 -6215 0
-6214 5943 0
-6214 6215 0
6216 -6215 -6215 0
-6216 6215 0
-6216 6215 0
6217 -6215 -5943 0
-6217 6215 0
-6217 5943 0
6218 -5943 -5943 -6219 0
-6218 5943 0
-6218 5943 0
-6218 6219 0
-6220 5945 6214 6216 6217 6218 0
6220 -5945 0
6220 -6214 0
6220 -6216 0
6220 -6217 0
6220 -6218 0
6221 -5943 -6222 0
-6221 5943 0
-6221 6222 0
6223 -6215 -6222 0
-6223 6215 0
-6223 6222 0
6224 -6215 -5947 0
-6224 6215 0
-6224 5947 0
6225 -5943 -5947 -6219 0
-6225 5943 0
-6225 5947 0
-6225 6219 0
-69 5948 6221 6223 6224 6225 0
69 -5948 0
69 -6221 0
69 -6223 0
69 -6224 0
69 -6225 0
6226 -5943 -6227 0
-6226 5943 0
-6226 6227 0
6228 -6215 -5950 0
-6228 6215 0
-6228 5950 0
6229 -6215 -6227 0
-6229 6215 0
-6229 6227 0
6230 -5943 -5950 -6219 0
-6230 5943 0
-6230 5950 0
-6230 6219 0
-67 5951 6226 6228 6229 6230 0
67 -5951 0
67 -6226 0
67 -6228 0
67 -6229 0
67 -6230 0
6231 -5953 -6227 0
-6231 5953 0
-6231 6227 0
6232 -6233 -6227 0
-6232 6233 0
-6232 6227 0
6234 -6233 -5950 0
-6234 6233 0
-6234 5950 0
6235 -5953 -5950 -6219 0
-6235 5953 0
-6235 5950 0
-6235 6219 0
-70 5954 6231 6232 6234 6235 0
70 -5954 0
70 -6231 0
70 -6232 0
70 -6234 0
70 -6235 0
6236 -5947 -6233 0
-6236 5947 0
-6236 6233 0
6237 -6222 -5953 0
-6237 6222 0
-6237 5953 0
6238 -6222 -6233 0
-6238 6222 0
-6238 6233 0
6239 -5947 -5953 -6219 0
-6239 5947 0
-6239 5953 0
-6239 6219 0
-68 5956 6236 6237 6238 6239 0
68 -5956 0
68 -6236 0
68 -6237 0
68 -6238 0
68 -6239 0
6240 -5947 -6222 0
-6240 5947 0
-6240 6222 0
6241 -6222 -6222 0
-6241 6222 0
-6241 6222 0
6242 -6222 -5947 0
-6242 6222 0
-6242 5947 0
6243 -5947 -5947 -6219 0
-6243 5947 0
-6243 5947 0
-6243 6219 0
-6244 5959 6240 6241 6242 6243 0
6244 -5959 0
6244 -6240 0
6244 -6241 0
6244 -6242 0
6244 -6243 0
6245 -5092 -6246 0
-6245 5092 0
-6245 6246 0
6247 -6246 -6246 0
-6247 6246 0
-6247 6246 0
6248 -6246 -5092 0
-6248 6246 0
-6248 5092 0
6249 -5092 -5092 -6250 0
-6249 5092 0
-6249 5092 0
-6249 6250 0
-6251 5094 6245 6247 6248 6249 0
6251 -5094 0
6251 -6245 0
6251 -6247 0
6251 -6248 0
6251 -6249 0
6252 -5092 -6253 0
-6252 5092 0
-6252 6253 0
6254 -6246 -6253 0
-6254 6246 0
-6254 6253 0
6255 -6246 -5096 0
-6255 6246 0
-6255 5096 0
6256 -5092 -5096 -6250 0
-6256 5092 0
-6256 5096 0
-6256 6250 0
-314 5097 6252 6254 6255 6256 0
314 -5097 0
314 -6252 0
314 -6254 0
314 -6255 0
314 -6256 0
6257 -5092 -6258 0
-6257 5092 0
-6257 6258 0
6259 -6246 -5099 0
-6259 6246 0
-6259 5099 0
6260 -6246 -6258 0
-6260 6246 0
-6260 6258 0
6261 -5092 -5099 -6250 0
-6261 5092 0
-6261 5099 0
-6261 6250 0
-312 5100 6257 6259 6260 6261 0
312 -5100 0
312 -6257 0
312 -6259 0
312 -6260 0
312 -6261 0
6262 -5102 -6258 0
-6262 5102 0
-6262 6258 0
6263 -6264 -6258 0
-6263 6264 0
-6263 6258 0
6265 -6264 -5099 0
-6265 6264 0
-6265 5099 0
6266 -5102 -5099 -6250 0
-6266 5102 0
-6266 5099 0
-6266 6250 0
-315 5103 6262 6263 6265 6266 0
315 -5103 0
315 -6262 0
315 -6263 0
315 -6265 0
315 -6266 0
6267 -5096 -6264 0
-6267 5096 0
-6267 6264 0
6268 -6253 -5102 0
-6268 6253 0
-6268 5102 0
6269 -6253 -6264 0
-6269 6253 0
-6269 6264 0
6270 -5096 -5102 -6250 0
-6270 5096 0
-6270 5102 0
-6270 6250 0
-313 5105 6267 6268 6269 6270 0
313 -5105 0
313 -6267 0
313 -6268 0
313 -6269 0
313 -6270 0
6271 -5096 -6253 0
-6271 5096 0
-6271 6253 0
6272 -6253 -6253 0
-6272 6253 0
-6272 6253 0
6273 -6253 -5096 0
-6273 6253 0
-6273 5096 0
6274 -5096 -5096 -6250 0
-6274 5096 0
-6274 5096 0
-6274 6250 0
-6275 5108 6271 6272 6273 6274 0
6275 -5108 0
6275 -6271 0
6275 -6272 0
6275 -6273 0
6275 -6274 0
6276 -4382 -4382 0
-6276 4382 0
-6276 4382 0
-6277 4389 6276 0
6277 -4389 0
6277 -6276 0
6278 -4382 -4394 0
-6278 4382 0
-6278 4394 0
-974 4396 6278 0
974 -4396 0
974 -6278 0
6279 -4382 -4400 0
-6279 4382 0
-6279 4400 0
-972 4403 6279 0
972 -4403 0
972 -6279 0
6280 -4405 -4400 0
-6280 4405 0
-6280 4400 0
-975 4410 6280 0
975 -4410 0
975 -6280 0
6281 -4394 -4405 0
-6281 4394 0
-6281 4405 0
-973 4415 6281 0
973 -4415 0
973 -6281 0
6282 -4394 -4394 0
-6282 4394 0
-6282 4394 0
-6283 4421 6282 0
6283 -4421 0
6283 -6282 0
6284 -2779 -2779 0
-6284 2779 0
-6284 2779 0
-6285 2786 6284 0
6285 -2786 0
6285 -6284 0
6286 -2779 -2791 0
-6286 2779 0
-6286 2791 0
-1094 2793 6286 0
1094 -2793 0
1094 -6286 0
6287 -2779 -2797 0
-6287 2779 0
-6287 2797 0
-1092 2800 6287 0
1092 -2800 0
1092 -6287 0
6288 -2802 -2797 0
-6288 2802 0
-6288 2797 0
-1095 2807 6288 0
1095 -2807 0
1095 -6288 0
6289 -2791 -2802 0
-6289 2791 0
-6289 2802 0
-1093 2812 6289 0
1093 -2812 0
1093 -6289 0
6290 -2791 -2791 0
-6290 2791 0
-6290 2791 0
-6291 2818 6290 0
6291 -2818 0
6291 -6290 0
6292 -4441 -4423 0
-6292 4441 0
-6292 4423 0
4424 -4423 -4423 0
-4424 4423 0
-4424 4423 0
6293 -4423 -4441 0
-6293 4423 0
-6293 4441 0
6294 -4441 -4441 -3694 0
-6294 4441 0
-6294 4441 0
-6294 3694 0
-6295 4427 6292 4424 6293 6294 0
6295 -4427 0
6295 -6292 0
6295 -4424 0
6295 -6293 0
6295 -6294 0
6296 -4441 -3697 0
-6296 4441 0
-6296 3697 0
6297 -4423 -3697 0
-6297 4423 0
-6297 3697 0
6298 -4423 -3705 0
-6298 4423 0
-6298 3705 0
6299 -4441 -3705 -3694 0
-6299 4441 0
-6299 3705 0
-6299 3694 0
-599 4430 6296 6297 6298 6299 0
599 -4430 0
599 -6296 0
599 -6297 0
599 -6298 0
599 -6299 0
6300 -4441 -3700 0
-6300 4441 0
-6300 3700 0
6301 -4423 -3703 0
-6301 4423 0
-6301 3703 0
6302 -4423 -3700 0
-6302 4423 0
-6302 3700 0
6303 -4441 -3703 -3694 0
-6303 4441 0
-6303 3703 0
-6303 3694 0
-597 4435 6300 6301 6302 6303 0
597 -4435 0
597 -6300 0
597 -6301 0
597 -6302 0
597 -6303 0
6304 -3702 -3700 0
-6304 3702 0
-6304 3700 0
6305 -3692 -3700 0
-6305 3692 0
-6305 3700 0
6306 -3692 -3703 0
-6306 3692 0
-6306 3703 0
6307 -3702 -3703 -3694 0
-6307 3702 0
-6307 3703 0
-6307 3694 0
-600 3699 6304 6305 6306 6307 0
600 -3699 0
600 -6304 0
600 -6305 0
600 -6306 0
600 -6307 0
6308 -3705 -3692 0
-6308 3705 0
-6308 3692 0
6309 -3697 -3702 0
-6309 3697 0
-6309 3702 0
6310 -3697 -3692 0
-6310 3697 0
-6310 3692 0
6311 -3705 -3702 -3694 0
-6311 3705 0
-6311 3702 0
-6311 3694 0
-598 3696 6308 6309 6310 6311 0
598 -3696 0
598 -6308 0
598 -6309 0
598 -6310 0
598 -6311 0
6312 -3705 -3697 0
-6312 3705 0
-6312 3697 0
6313 -3697 -3697 0
-6313 3697 0
-6313 3697 0
6314 -3697 -3705 0
-6314 3697 0
-6314 3705 0
6315 -3705 -3705 -3694 0
-6315 3705 0
-6315 3705 0
-6315 3694 0
-6316 3708 6312 6313 6314 6315 0
6316 -3708 0
6316 -6312 0
6316 -6313 0
6316 -6314 0
6316 -6315 0
6317 -5686 -5686 0
-6317 5686 0
-6317 5686 0
-6318 5693 6317 0
6318 -5693 0
6318 -6317 0
6319 -5686 -5698 0
-6319 5686 0
-6319 5698 0
-1174 5700 6319 0
1174 -5700 0
1174 -6319 0
6320 -5686 -5704 0
-6320 5686 0
-6320 5704 0
-1172 5707 6320 0
1172 -5707 0
1172 -6320 0
6321 -5709 -5704 0
-6321 5709 0
-6321 5704 0
-1175 5714 6321 0
1175 -5714 0
1175 -6321 0
6322 -5698 -5709 0
-6322 5698 0
-6322 5709 0
-1173 5719 6322 0
1173 -5719 0
1173 -6322 0
6323 -5698 -5698 0
-6323 5698 0
-6323 5698 0
-6324 5725 6323 0
6324 -5725 0
6324 -6323 0
6325 -4542 -5284 0
-6325 4542 0
-6325 5284 0
5285 -5284 -5284 0
-5285 5284 0
-5285 5284 0
6326 -5284 -4542 0
-6326 5284 0
-6326 4542 0
6327 -4542 -4542 -1646 0
-6327 4542 0
-6327 4542 0
-6327 1646 0
-6328 4544 6325 5285 6326 6327 0
6328 -4544 0
6328 -6325 0
6328 -5285 0
6328 -6326 0
6328 -6327 0
6329 -4542 -1649 0
-6329 4542 0
-6329 1649 0
6330 -5284 -1649 0
-6330 5284 0
-6330 1649 0
6331 -5284 -1657 0
-6331 5284 0
-6331 1657 0
6332 -4542 -1657 -1646 0
-6332 4542 0
-6332 1657 0
-6332 1646 0
-149 4546 6329 6330 6331 6332 0
149 -4546 0
149 -6329 0
149 -6330 0
149 -6331 0
149 -6332 0
6333 -4542 -1652 0
-6333 4542 0
-6333 1652 0
6334 -5284 -1655 0
-6334 5284 0
-6334 1655 0
6335 -5284 -1652 0
-6335 5284 0
-6335 1652 0
6336 -4542 -1655 -1646 0
-6336 4542 0
-6336 1655 0
-6336 1646 0
-147 4548 6333 6334 6335 6336 0
147 -4548 0
147 -6333 0
147 -6334 0
147 -6335 0
147 -6336 0
6337 -1654 -1652 0
-6337 1654 0
-6337 1652 0
6338 -1644 -1652 0
-6338 1644 0
-6338 1652 0
6339 -1644 -1655 0
-6339 1644 0
-6339 1655 0
6340 -1654 -1655 -1646 0
-6340 1654 0
-6340 1655 0
-6340 1646 0
-150 1651 6337 6338 6339 6340 0
150 -1651 0
150 -6337 0
150 -6338 0
150 -6339 0
150 -6340 0
6341 -1657 -1644 0
-6341 1657 0
-6341 1644 0
6342 -1649 -1654 0
-6342 1649 0
-6342 1654 0
6343 -1649 -1644 0
-6343 1649 0
-6343 1644 0
6344 -1657 -1654 -1646 0
-6344 1657 0
-6344 1654 0
-6344 1646 0
-148 1648 6341 6342 6343 6344 0
148 -1648 0
148 -6341 0
148 -6342 0
148 -6343 0
148 -6344 0
6345 -1657 -1649 0
-6345 1657 0
-6345 1649 0
6346 -1649 -1649 0
-6346 1649 0
-6346 1649 0
6347 -1649 -1657 0
-6347 1649 0
-6347 1657 0
6348 -1657 -1657 -1646 0
-6348 1657 0
-6348 1657 0
-6348 1646 0
-6349 1660 6345 6346 6347 6348 0
6349 -1660 0
6349 -6345 0
6349 -6346 0
6349 -6347 0
6349 -6348 0
6350 -1729 -1729 0
-6350 1729 0
-6350 1729 0
-6351 1736 6350 0
6351 -1736 0
6351 -6350 0
6352 -1729 -1741 0
-6352 1729 0
-6352 1741 0
-744 1743 6352 0
744 -1743 0
744 -6352 0
6353 -1729 -1747 0
-6353 1729 0
-6353 1747 0
-742 1750 6353 0
742 -1750 0
742 -6353 0
6354 -1752 -1747 0
-6354 1752 0
-6354 1747 0
-745 1757 6354 0
745 -1757 0
745 -6354 0
6355 -1741 -1752 0
-6355 1741 0
-6355 1752 0
-743 1762 6355 0
743 -1762 0
743 -6355 0
6356 -1741 -1741 0
-6356 1741 0
-6356 1741 0
-6357 1768 6356 0
6357 -1768 0
6357 -6356 0
6358 -3354 -3517 0
-6358 3354 0
-6358 3517 0
5766 -3517 -3517 0
-5766 3517 0
-5766 3517 0
6359 -3517 -3354 0
-6359 3517 0
-6359 3354 0
6360 -3354 -3354 -3524 0
-6360 3354 0
-6360 3354 0
-6360 3524 0
-6361 3356 6358 5766 6359 6360 0
6361 -3356 0
6361 -6358 0
6361 -5766 0
6361 -6359 0
6361 -6360 0
6362 -3354 -3554 0
-6362 3354 0
-6362 3554 0
6363 -3517 -3554 0
-6363 3517 0
-6363 3554 0
6364 -3517 -3358 0
-6364 3517 0
-6364 3358 0
6365 -3354 -3358 -3524 0
-6365 3354 0
-6365 3358 0
-6365 3524 0
-9 3359 6362 6363 6364 6365 0
9 -3359 0
9 -6362 0
9 -6363 0
9 -6364 0
9 -6365 0
6366 -3354 -3516 0
-6366 3354 0
-6366 3516 0
6367 -3517 -3361 0
-6367 3517 0
-6367 3361 0
6368 -3517 -3516 0
-6368 3517 0
-6368 3516 0
6369 -3354 -3361 -3524 0
-6369 3354 0
-6369 3361 0
-6369 3524 0
-7 3362 6366 6367 6368 6369 0
7 -3362 0
7 -6366 0
7 -6367 0
7 -6368 0
7 -6369 0
6370 -3364 -3516 0
-6370 3364 0
-6370 3516 0
6371 -3521 -3516 0
-6371 3521 0
-6371 3516 0
6372 -3521 -3361 0
-6372 3521 0
-6372 3361 0
6373 -3364 -3361 -3524 0
-6373 3364 0
-6373 3361 0
-6373 3524 0
-10 3365 6370 6371 6372 6373 0
10 -3365 0
10 -6370 0
10 -6371 0
10 -6372 0
10 -6373 0
6374 -3358 -3521 0
-6374 3358 0
-6374 3521 0
6375 -3554 -3364 0
-6375 3554 0
-6375 3364 0
6376 -3554 -3521 0
-6376 3554 0
-6376 3521 0
6377 -3358 -3364 -3524 0
-6377 3358 0
-6377 3364 0
-6377 3524 0
-8 3367 6374 6375 6376 6377 0
8 -3367 0
8 -6374 0
8 -6375 0
8 -6376 0
8 -6377 0
6378 -3358 -3554 0
-6378 3358 0
-6378 3554 0
4086 -3554 -3554 0
-4086 3554 0
-4086 3554 0
6379 -3554 -3358 0
-6379 3554 0
-6379 3358 0
6380 -3358 -3358 -3524 0
-6380 3358 0
-6380 3358 0
-6380 3524 0
-6381 3370 6378 4086 6379 6380 0
6381 -3370 0
6381 -6378 0
6381 -4086 0
6381 -6379 0
6381 -6380 0
6382 -2228 -2228 0
-6382 2228 0
-6382 2228 0
-6383 2208 6382 0
6383 -2208 0
6383 -6382 0
6384 -2228 -2236 0
-6384 2228 0
-6384 2236 0
-914 2212 6384 0
914 -2212 0
914 -6384 0
6385 -2228 -2231 0
-6385 2228 0
-6385 2231 0
-912 2219 6385 0
912 -2219 0
912 -6385 0
6386 -2226 -2231 0
-6386 2226 0
-6386 2231 0
-915 2221 6386 0
915 -2221 0
915 -6386 0
6387 -2236 -2226 0
-6387 2236 0
-6387 2226 0
-913 2215 6387 0
913 -2215 0
913 -6387 0
6388 -2236 -2236 0
-6388 2236 0
-6388 2236 0
-6389 2242 6388 0
6389 -2242 0
6389 -6388 0
6390 -1872 -1872 0
-6390 1872 0
-6390 1872 0
-6391 1879 6390 0
6391 -1879 0
6391 -6390 0
6392 -1872 -1884 0
-6392 1872 0
-6392 1884 0
-574 1886 6392 0
574 -1886 0
574 -6392 0
6393 -1872 -1890 0
-6393 1872 0
-6393 1890 0
-572 1893 6393 0
572 -1893 0
572 -6393 0
6394 -1895 -1890 0
-6394 1895 0
-6394 1890 0
-575 1900 6394 0
575 -1900 0
575 -6394 0
6395 -1884 -1895 0
-6395 1884 0
-6395 1895 0
-573 1905 6395 0
573 -1905 0
573 -6395 0
6396 -1884 -1884 0
-6396 1884 0
-6396 1884 0
-6397 1911 6396 0
6397 -1911 0
6397 -6396 0
6398 -3496 -6399 0
-6398 3496 0
-6398 6399 0
6400 -6399 -6399 0
-6400 6399 0
-6400 6399 0
6401 -6399 -3496 0
-6401 6399 0
-6401 3496 0
6402 -3496 -3496 -6403 0
-6402 3496 0
-6402 3496 0
-6402 6403 0
-6404 3498 6398 6400 6401 6402 0
6404 -3498 0
6404 -6398 0
6404 -6400 0
6404 -6401 0
6404 -6402 0
6405 -3496 -6406 0
-6405 3496 0
-6405 6406 0
6407 -6399 -6406 0
-6407 6399 0
-6407 6406 0
6408 -6399 -3500 0
-6408 6399 0
-6408 3500 0
6409 -3496 -3500 -6403 0
-6409 3496 0
-6409 3500 0
-6409 6403 0
-64 3501 6405 6407 6408 6409 0
64 -3501 0
64 -6405 0
64 -6407 0
64 -6408 0
64 -6409 0
6410 -3496 -6411 0
-6410 3496 0
-6410 6411 0
6412 -6399 -3503 0
-6412 6399 0
-6412 3503 0
6413 -6399 -6411 0
-6413 6399 0
-6413 6411 0
6414 -3496 -3503 -6403 0
-6414 3496 0
-6414 3503 0
-6414 6403 0
-62 3504 6410 6412 6413 6414 0
62 -3504 0
62 -6410 0
62 -6412 0
62 -6413 0
62 -6414 0
6415 -3506 -6411 0
-6415 3506 0
-6415 6411 0
6416 -6417 -6411 0
-6416 6417 0
-6416 6411 0
6418 -6417 -3503 0
-6418 6417 0
-6418 3503 0
6419 -3506 -3503 -6403 0
-6419 3506 0
-6419 3503 0
-6419 6403 0
-65 3507 6415 6416 6418 6419 0
65 -3507 0
65 -6415 0
65 -6416 0
65 -6418 0
65 -6419 0
6420 -3500 -6417 0
-6420 3500 0
-6420 6417 0
6421 -6406 -3506 0
-6421 6406 0
-6421 3506 0
6422 -6406 -6417 0
-6422 6406 0
-6422 6417 0
6423 -3500 -3506 -6403 0
-6423 3500 0
-6423 3506 0
-6423 6403 0
-63 3509 6420 6421 6422 6423 0
63 -3509 0
63 -6420 0
63 -6421 0
63 -6422 0
63 -6423 0
6424 -3500 -6406 0
-6424 3500 0
-6424 6406 0
6425 -6406 -6406 0
-6425 6406 0
-6425 6406 0
6426 -6406 -3500 0
-6426 6406 0
-6426 3500 0
6427 -3500 -3500 -6403 0
-6427 3500 0
-6427 3500 0
-6427 6403 0
-6428 3512 6424 6425 6426 6427 0
6428 -3512 0
6428 -6424 0
6428 -6425 0
6428 -6426 0
6428 -6427 0
6429 -1897 -1873 0
-6429 1897 0
-6429 1873 0
1874 -1873 -1873 0
-1874 1873 0
-1874 1873 0
6430 -1873 -1897 0
-6430 1873 0
-6430 1897 0
6431 -1897 -1897 -1879 0
-6431 1897 0
-6431 1897 0
-6431 1879 0
-6432 1877 6429 1874 6430 6431 0
6432 -1877 0
6432 -6429 0
6432 -1874 0
6432 -6430 0
6432 -6431 0
6433 -1897 -1886 0
-6433 1897 0
-6433 1886 0
6434 -1873 -1886 0
-6434 1873 0
-6434 1886 0
6435 -1873 -1905 0
-6435 1873 0
-6435 1905 0
6436 -1897 -1905 -1879 0
-6436 1897 0
-6436 1905 0
-6436 1879 0
-134 1881 6433 6434 6435 6436 0
134 -1881 0
134 -6433 0
134 -6434 0
134 -6435 0
134 -6436 0
6437 -1897 -1893 0
-6437 1897 0
-6437 1893 0
6438 -1873 -1900 0
-6438 1873 0
-6438 1900 0
6439 -1873 -1893 0
-6439 1873 0
-6439 1893 0
6440 -1897 -1900 -1879 0
-6440 1897 0
-6440 1900 0
-6440 1879 0
-132 1888 6437 6438 6439 6440 0
132 -1888 0
132 -6437 0
132 -6438 0
132 -6439 0
132 -6440 0
6441 -1895 -1893 0
-6441 1895 0
-6441 1893 0
6442 -1872 -1893 0
-6442 1872 0
-6442 1893 0
6443 -1872 -1900 0
-6443 1872 0
-6443 1900 0
6444 -1895 -1900 -1879 0
-6444 1895 0
-6444 1900 0
-6444 1879 0
-135 1890 6441 6442 6443 6444 0
135 -1890 0
135 -6441 0
135 -6442 0
135 -6443 0
135 -6444 0
6445 -1905 -1872 0
-6445 1905 0
-6445 1872 0
6446 -1886 -1895 0
-6446 1886 0
-6446 1895 0
6447 -1886 -1872 0
-6447 1886 0
-6447 1872 0
6448 -1905 -1895 -1879 0
-6448 1905 0
-6448 1895 0
-6448 1879 0
-133 1884 6445 6446 6447 6448 0
133 -1884 0
133 -6445 0
133 -6446 0
133 -6447 0
133 -6448 0
6449 -1905 -1886 0
-6449 1905 0
-6449 1886 0
6450 -1886 -1886 0
-6450 1886 0
-6450 1886 0
6451 -1886 -1905 0
-6451 1886 0
-6451 1905 0
6452 -1905 -1905 -1879 0
-6452 1905 0
-6452 1905 0
-6452 1879 0
-6453 1911 6449 6450 6451 6452 0
6453 -1911 0
6453 -6449 0
6453 -6450 0
6453 -6451 0
6453 -6452 0
6454 -6455 -6455 0
-6454 6455 0
-6454 6455 0
-2909 6456 6454 0
2909 -6456 0
2909 -6454 0
6457 -6455 -6458 0
-6457 6455 0
-6457 6458 0
-3430 6459 6457 0
3430 -6459 0
3430 -6457 0
6460 -6455 -6461 0
-6460 6455 0
-6460 6461 0
-2907 6462 6460 0
2907 -6462 0
2907 -6460 0
6463 -6464 -6461 0
-6463 6464 0
-6463 6461 0
-2917 6465 6463 0
2917 -6465 0
2917 -6463 0
6466 -6455 -6467 0
-6466 6455 0
-6466 6467 0
-2912 6468 6466 0
2912 -6468 0
2912 -6466 0
6469 -6455 -6470 0
-6469 6455 0
-6469 6470 0
-2915 6471 6469 0
2915 -6471 0
2915 -6469 0
6472 -6464 -6470 0
-6472 6464 0
-6472 6470 0
-2918 6473 6472 0
2918 -6473 0
2918 -6472 0
6474 -6458 -6464 0
-6474 6458 0
-6474 6464 0
-3448 6475 6474 0
3448 -6475 0
3448 -6474 0
6476 -6458 -6458 0
-6476 6458 0
-6476 6458 0
-3434 6477 6476 0
3434 -6477 0
3434 -6476 0
6478 -6458 -6467 0
-6478 6458 0
-6478 6467 0
-3437 6479 6478 0
3437 -6479 0
3437 -6478 0
6480 -6458 -6470 0
-6480 6458 0
-6480 6470 0
-3442 6481 6480 0
3442 -6481 0
3442 -6480 0
6482 -6461 -6470 0
-6482 6461 0
-6482 6470 0
-2914 6483 6482 0
2914 -6483 0
2914 -6482 0
6484 -6467 -6464 0
-6484 6467 0
-6484 6464 0
-2920 6485 6484 0
2920 -6485 0
2920 -6484 0
6486 -6467 -6461 0
-6486 6467 0
-6486 6461 0
-2911 6487 6486 0
2911 -6487 0
2911 -6486 0
6488 -6467 -6467 0
-6488 6467 0
-6488 6467 0
-2923 6489 6488 0
2923 -6489 0
2923 -6488 0
6490 -6491 -6492 0
-6490 6491 0
-6490 6492 0
6493 -6492 -6492 0
-6493 6492 0
-6493 6492 0
6494 -6492 -6491 0
-6494 6492 0
-6494 6491 0
6495 -6491 -6491 -6496 0
-6495 6491 0
-6495 6491 0
-6495 6496 0
-6403 6497 6490 6493 6494 6495 0
6403 -6497 0
6403 -6490 0
6403 -6493 0
6403 -6494 0
6403 -6495 0
6498 -6491 -6499 0
-6498 6491 0
-6498 6499 0
6500 -6492 -6499 0
-6500 6492 0
-6500 6499 0
6501 -6492 -6502 0
-6501 6492 0
-6501 6502 0
6503 -6491 -6502 -6496 0
-6503 6491 0
-6503 6502 0
-6503 6496 0
-6399 6504 6498 6500 6501 6503 0
6399 -6504 0
6399 -6498 0
6399 -6500 0
6399 -6501 0
6399 -6503 0
6505 -6491 -6506 0
-6505 6491 0
-6505 6506 0
6507 -6492 -6508 0
-6507 6492 0
-6507 6508 0
6509 -6492 -6506 0
-6509 6492 0
-6509 6506 0
6510 -6491 -6508 -6496 0
-6510 6491 0
-6510 6508 0
-6510 6496 0
-6417 6511 6505 6507 6509 6510 0
6417 -6511 0
6417 -6505 0
6417 -6507 0
6417 -6509 0
6417 -6510 0
6512 -6513 -6506 0
-6512 6513 0
-6512 6506 0
6514 -6515 -6506 0
-6514 6515 0
-6514 6506 0
6516 -6515 -6508 0
-6516 6515 0
-6516 6508 0
6517 -6513 -6508 -6496 0
-6517 6513 0
-6517 6508 0
-6517 6496 0
-3506 6518 6512 6514 6516 6517 0
3506 -6518 0
3506 -6512 0
3506 -6514 0
3506 -6516 0
3506 -6517 0
6519 -6491 -6520 0
-6519 6491 0
-6519 6520 0
6521 -6492 -6520 0
-6521 6492 0
-6521 6520 0
6522 -6492 -6523 0
-6522 6492 0
-6522 6523 0
6524 -6491 -6523 -6496 0
-6524 6491 0
-6524 6523 0
-6524 6496 0
-6406 6525 6519 6521 6522 6524 0
6406 -6525 0
6406 -6519 0
6406 -6521 0
6406 -6522 0
6406 -6524 0
6526 -6491 -6527 0
-6526 6491 0
-6526 6527 0
6528 -6492 -6529 0
-6528 6492 0
-6528 6529 0
6530 -6492 -6527 0
-6530 6492 0
-6530 6527 0
6531 -6491 -6529 -6496 0
-6531 6491 0
-6531 6529 0
-6531 6496 0
-6411 6532 6526 6528 6530 6531 0
6411 -6532 0
6411 -6526 0
6411 -6528 0
6411 -6530 0
6411 -6531 0
6533 -6513 -6527 0
-6533 6513 0
-6533 6527 0
6534 -6515 -6527 0
-6534 6515 0
-6534 6527 0
6535 -6515 -6529 0
-6535 6515 0
-6535 6529 0
6536 -6513 -6529 -6496 0
-6536 6513 0
-6536 6529 0
-6536 6496 0
-3503 6537 6533 6534 6535 6536 0
3503 -6537 0
3503 -6533 0
3503 -6534 0
3503 -6535 0
3503 -6536 0
6538 -6502 -6515 0
-6538 6502 0
-6538 6515 0
6539 -6499 -6513 0
-6539 6499 0
-6539 6513 0
6540 -6499 -6515 0
-6540 6499 0
-6540 6515 0
6541 -6502 -6513 -6496 0
-6541 6502 0
-6541 6513 0
-6541 6496 0
-3496 6542 6538 6539 6540 6541 0
3496 -6542 0
3496 -6538 0
3496 -6539 0
3496 -6540 0
3496 -6541 0
6543 -6502 -6499 0
-6543 6502 0
-6543 6499 0
6544 -6499 -6499 0
-6544 6499 0
-6544 6499 0
6545 -6499 -6502 0
-6545 6499 0
-6545 6502 0
6546 -6502 -6502 -6496 0
-6546 6502 0
-6546 6502 0
-6546 6496 0
-3498 6547 6543 6544 6545 6546 0
3498 -6547 0
3498 -6543 0
3498 -6544 0
3498 -6545 0
3498 -6546 0
6548 -6502 -6520 0
-6548 6502 0
-6548 6520 0
6549 -6499 -6520 0
-6549 6499 0
-6549 6520 0
6550 -6499 -6523 0
-6550 6499 0
-6550 6523 0
6551 -6502 -6523 -6496 0
-6551 6502 0
-6551 6523 0
-6551 6496 0
-3501 6552 6548 6549 6550 6551 0
3501 -6552 0
3501 -6548 0
3501 -6549 0
3501 -6550 0
3501 -6551 0
6553 -6502 -6527 0
-6553 6502 0
-6553 6527 0
6554 -6499 -6529 0
-6554 6499 0
-6554 6529 0
6555 -6499 -6527 0
-6555 6499 0
-6555 6527 0
6556 -6502 -6529 -6496 0
-6556 6502 0
-6556 6529 0
-6556 6496 0
-3504 6557 6553 6554 6555 6556 0
3504 -6557 0
3504 -6553 0
3504 -6554 0
3504 -6555 0
3504 -6556 0
6558 -6508 -6527 0
-6558 6508 0
-6558 6527 0
6559 -6506 -6527 0
-6559 6506 0
-6559 6527 0
6560 -6506 -6529 0
-6560 6506 0
-6560 6529 0
6561 -6508 -6529 -6496 0
-6561 6508 0
-6561 6529 0
-6561 6496 0
-3507 6562 6558 6559 6560 6561 0
3507 -6562 0
3507 -6558 0
3507 -6559 0
3507 -6560 0
3507 -6561 0
6563 -6523 -6515 0
-6563 6523 0
-6563 6515 0
6564 -6520 -6513 0
-6564 6520 0
-6564 6513 0
6565 -6520 -6515 0
-6565 6520 0
-6565 6515 0
6566 -6523 -6513 -6496 0
-6566 6523 0
-6566 6513 0
-6566 6496 0
-3500 6567 6563 6564 6565 6566 0
3500 -6567 0
3500 -6563 0
3500 -6564 0
3500 -6565 0
3500 -6566 0
6568 -6523 -6506 0
-6568 6523 0
-6568 6506 0
6569 -6520 -6508 0
-6569 6520 0
-6569 6508 0
6570 -6520 -6506 0
-6570 6520 0
-6570 6506 0
6571 -6523 -6508 -6496 0
-6571 6523 0
-6571 6508 0
-6571 6496 0
-3509 6572 6568 6569 6570 6571 0
3509 -6572 0
3509 -6568 0
3509 -6569 0
3509 -6570 0
3509 -6571 0
6573 -6523 -6520 0
-6573 6523 0
-6573 6520 0
6574 -6520 -6520 0
-6574 6520 0
-6574 6520 0
6575 -6520 -6523 0
-6575 6520 0
-6575 6523 0
6576 -6523 -6523 -6496 0
-6576 6523 0
-6576 6523 0
-6576 6496 0
-3512 6577 6573 6574 6575 6576 0
3512 -6577 0
3512 -6573 0
3512 -6574 0
3512 -6575 0
3512 -6576 0
6578 -6579 -6579 0
-6578 6579 0
-6578 6579 0
-1474 6580 6578 0
1474 -6580 0
1474 -6578 0
6581 -6579 -6582 0
-6581 6579 0
-6581 6582 0
-1468 6583 6581 0
1468 -6583 0
1468 -6581 0
6584 -6579 -6585 0
-6584 6579 0
-6584 6585 0
-1467 6586 6584 0
1467 -6586 0
1467 -6584 0
6587 -6588 -6585 0
-6587 6588 0
-6587 6585 0
-1490 6589 6587 0
1490 -6589 0
1490 -6587 0
6590 -6579 -6591 0
-6590 6579 0
-6590 6591 0
-1481 6592 6590 0
1481 -6592 0
1481 -6590 0
6593 -6579 -6594 0
-6593 6579 0
-6593 6594 0
-1488 6595 6593 0
1488 -6595 0
1488 -6593 0
6596 -6588 -6594 0
-6596 6588 0
-6596 6594 0
-1495 6597 6596 0
1495 -6597 0
1495 -6596 0
6598 -6582 -6588 0
-6598 6582 0
-6598 6588 0
-1492 6599 6598 0
1492 -6599 0
1492 -6598 0
6600 -6582 -6582 0
-6600 6582 0
-6600 6582 0
-1472 6601 6600 0
1472 -6601 0
1472 -6600 0
6602 -6582 -6591 0
-6602 6582 0
-6602 6591 0
-1476 6603 6602 0
1476 -6603 0
1476 -6602 0
6604 -6582 -6594 0
-6604 6582 0
-6604 6594 0
-1483 6605 6604 0
1483 -6605 0
1483 -6604 0
6606 -6585 -6594 0
-6606 6585 0
-6606 6594 0
-1485 6607 6606 0
1485 -6607 0
1485 -6606 0
6608 -6591 -6588 0
-6608 6591 0
-6608 6588 0
-1500 6609 6608 0
1500 -6609 0
1500 -6608 0
6610 -6591 -6585 0
-6610 6591 0
-6610 6585 0
-1479 6611 6610 0
1479 -6611 0
1479 -6610 0
6612 -6591 -6591 0
-6612 6591 0
-6612 6591 0
-1506 6613 6612 0
1506 -6613 0
1506 -6612 0
6614 -6615 -6616 0
-6614 6615 0
-6614 6616 0
6617 -6616 -6616 0
-6617 6616 0
-6617 6616 0
6618 -6616 -6615 0
-6618 6616 0
-6618 6615 0
6619 -6615 -6615 -6620 0
-6619 6615 0
-6619 6615 0
-6619 6620 0
-6250 6621 6614 6617 6618 6619 0
6250 -6621 0
6250 -6614 0
6250 -6617 0
6250 -6618 0
6250 -6619 0
6622 -6615 -6623 0
-6622 6615 0
-6622 6623 0
6624 -6616 -6623 0
-6624 6616 0
-6624 6623 0
6625 -6616 -6626 0
-6625 6616 0
-6625 6626 0
6627 -6615 -6626 -6620 0
-6627 6615 0
-6627 6626 0
-6627 6620 0
-6246 6628 6622 6624 6625 6627 0
6246 -6628 0
6246 -6622 0
6246 -6624 0
6246 -6625 0
6246 -6627 0
6629 -6615 -6630 0
-6629 6615 0
-6629 6630 0
6631 -6616 -6632 0
-6631 6616 0
-6631 6632 0
6633 -6616 -6630 0
-6633 6616 0
-6633 6630 0
6634 -6615 -6632 -6620 0
-6634 6615 0
-6634 6632 0
-6634 6620 0
-6264 6635 6629 6631 6633 6634 0
6264 -6635 0
6264 -6629 0
6264 -6631 0
6264 -6633 0
6264 -6634 0
6636 -6637 -6630 0
-6636 6637 0
-6636 6630 0
6638 -6639 -6630 0
-6638 6639 0
-6638 6630 0
6640 -6639 -6632 0
-6640 6639 0
-6640 6632 0
6641 -6637 -6632 -6620 0
-6641 6637 0
-6641 6632 0
-6641 6620 0
-5102 6642 6636 6638 6640 6641 0
5102 -6642 0
5102 -6636 0
5102 -6638 0
5102 -6640 0
5102 -6641 0
6643 -6615 -6644 0
-6643 6615 0
-6643 6644 0
6645 -6616 -6644 0
-6645 6616 0
-6645 6644 0
6646 -6616 -6647 0
-6646 6616 0
-6646 6647 0
6648 -6615 -6647 -6620 0
-6648 6615 0
-6648 6647 0
-6648 6620 0
-6253 6649 6643 6645 6646 6648 0
6253 -6649 0
6253 -6643 0
6253 -6645 0
6253 -6646 0
6253 -6648 0
6650 -6615 -6651 0
-6650 6615 0
-6650 6651 0
6652 -6616 -6653 0
-6652 6616 0
-6652 6653 0
6654 -6616 -6651 0
-6654 6616 0
-6654 6651 0
6655 -6615 -6653 -6620 0
-6655 6615 0
-6655 6653 0
-6655 6620 0
-6258 6656 6650 6652 6654 6655 0
6258 -6656 0
6258 -6650 0
6258 -6652 0
6258 -6654 0
6258 -6655 0
6657 -6637 -6651 0
-6657 6637 0
-6657 6651 0
6658 -6639 -6651 0
-6658 6639 0
-6658 6651 0
6659 -6639 -6653 0
-6659 6639 0
-6659 6653 0
6660 -6637 -6653 -6620 0
-6660 6637 0
-6660 6653 0
-6660 6620 0
-5099 6661 6657 6658 6659 6660 0
5099 -6661 0
5099 -6657 0
5099 -6658 0
5099 -6659 0
5099 -6660 0
6662 -6626 -6639 0
-6662 6626 0
-6662 6639 0
6663 -6623 -6637 0
-6663 6623 0
-6663 6637 0
6664 -6623 -6639 0
-6664 6623 0
-6664 6639 0
6665 -6626 -6637 -6620 0
-6665 6626 0
-6665 6637 0
-6665 6620 0
-5092 6666 6662 6663 6664 6665 0
5092 -6666 0
5092 -6662 0
5092 -6663 0
5092 -6664 0
5092 -6665 0
6667 -6626 -6623 0
-6667 6626 0
-6667 6623 0
6668 -6623 -6623 0
-6668 6623 0
-6668 6623 0
6669 -6623 -6626 0
-6669 6623 0
-6669 6626 0
6670 -6626 -6626 -6620 0
-6670 6626 0
-6670 6626 0
-6670 6620 0
-5094 6671 6667 6668 6669 6670 0
5094 -6671 0
5094 -6667 0
5094 -6668 0
5094 -6669 0
5094 -6670 0
6672 -6626 -6644 0
-6672 6626 0
-6672 6644 0
6673 -6623 -6644 0
-6673 6623 0
-6673 6644 0
6674 -6623 -6647 0
-6674 6623 0
-6674 6647 0
6675 -6626 -6647 -6620 0
-6675 6626 0
-6675 6647 0
-6675 6620 0
-5097 6676 6672 6673 6674 6675 0
5097 -6676 0
5097 -6672 0
5097 -6673 0
5097 -6674 0
5097 -6675 0
6677 -6626 -6651 0
-6677 6626 0
-6677 6651 0
6678 -6623 -6653 0
-6678 6623 0
-6678 6653 0
6679 -6623 -6651 0
-6679 6623 0
-6679 6651 0
6680 -6626 -6653 -6620 0
-6680 6626 0
-6680 6653 0
-6680 6620 0
-5100 6681 6677 6678 6679 6680 0
5100 -6681 0
5100 -6677 0
5100 -6678 0
5100 -6679 0
5100 -6680 0
6682 -6632 -6651 0
-6682 6632 0
-6682 6651 0
6683 -6630 -6651 0
-6683 6630 0
-6683 6651 0
6684 -6630 -6653 0
-6684 6630 0
-6684 6653 0
6685 -6632 -6653 -6620 0
-6685 6632 0
-6685 6653 0
-6685 6620 0
-5103 6686 6682 6683 6684 6685 0
5103 -6686 0
5103 -6682 0
5103 -6683 0
5103 -6684 0
5103 -6685 0
6687 -6647 -6639 0
-6687 6647 0
-6687 6639 0
6688 -6644 -6637 0
-6688 6644 0
-6688 6637 0
6689 -6644 -6639 0
-6689 6644 0
-6689 6639 0
6690 -6647 -6637 -6620 0
-6690 6647 0
-6690 6637 0
-6690 6620 0
-5096 6691 6687 6688 6689 6690 0
5096 -6691 0
5096 -6687 0
5096 -6688 0
5096 -6689 0
5096 -6690 0
6692 -6647 -6630 0
-6692 6647 0
-6692 6630 0
6693 -6644 -6632 0
-6693 6644 0
-6693 6632 0
6694 -6644 -6630 0
-6694 6644 0
-6694 6630 0
6695 -6647 -6632 -6620 0
-6695 6647 0
-6695 6632 0
-6695 6620 0
-5105 6696 6692 6693 6694 6695 0
5105 -6696 0
5105 -6692 0
5105 -6693 0
5105 -6694 0
5105 -6695 0
6697 -6647 -6644 0
-6697 6647 0
-6697 6644 0
6698 -6644 -6644 0
-6698 6644 0
-6698 6644 0
6699 -6644 -6647 0
-6699 6644 0
-6699 6647 0
6700 -6647 -6647 -6620 0
-6700 6647 0
-6700 6647 0
-6700 6620 0
-5108 6701 6697 6698 6699 6700 0
5108 -6701 0
5108 -6697 0
5108 -6698 0
5108 -6699 0
5108 -6700 0
6702 -6455 -6703 0
-6702 6455 0
-6702 6703 0
6704 -6703 -6703 0
-6704 6703 0
-6704 6703 0
6705 -6703 -6455 0
-6705 6703 0
-6705 6455 0
6706 -6455 -6455 -6707 0
-6706 6455 0
-6706 6455 0
-6706 6707 0
-1877 6456 6702 6704 6705 6706 0
1877 -6456 0
1877 -6702 0
1877 -6704 0
1877 -6705 0
1877 -6706 0
6708 -6455 -6709 0
-6708 6455 0
-6708 6709 0
6710 -6703 -6709 0
-6710 6703 0
-6710 6709 0
6711 -6703 -6458 0
-6711 6703 0
-6711 6458 0
6712 -6455 -6458 -6707 0
-6712 6455 0
-6712 6458 0
-6712 6707 0
-1873 6459 6708 6710 6711 6712 0
1873 -6459 0
1873 -6708 0
1873 -6710 0
1873 -6711 0
1873 -6712 0
6713 -6455 -6714 0
-6713 6455 0
-6713 6714 0
6715 -6703 -6461 0
-6715 6703 0
-6715 6461 0
6716 -6703 -6714 0
-6716 6703 0
-6716 6714 0
6717 -6455 -6461 -6707 0
-6717 6455 0
-6717 6461 0
-6717 6707 0
-1897 6462 6713 6715 6716 6717 0
1897 -6462 0
1897 -6713 0
1897 -6715 0
1897 -6716 0
1897 -6717 0
6718 -6464 -6714 0
-6718 6464 0
-6718 6714 0
6719 -6720 -6714 0
-6719 6720 0
-6719 6714 0
6721 -6720 -6461 0
-6721 6720 0
-6721 6461 0
6722 -6464 -6461 -6707 0
-6722 6464 0
-6722 6461 0
-6722 6707 0
-1895 6465 6718 6719 6721 6722 0
1895 -6465 0
1895 -6718 0
1895 -6719 0
1895 -6721 0
1895 -6722 0
6723 -6455 -6724 0
-6723 6455 0
-6723 6724 0
6725 -6703 -6724 0
-6725 6703 0
-6725 6724 0
6726 -6703 -6467 0
-6726 6703 0
-6726 6467 0
6727 -6455 -6467 -6707 0
-6727 6455 0
-6727 6467 0
-6727 6707 0
-1881 6468 6723 6725 6726 6727 0
1881 -6468 0
1881 -6723 0
1881 -6725 0
1881 -6726 0
1881 -6727 0
6728 -6455 -6729 0
-6728 6455 0
-6728 6729 0
6730 -6703 -6470 0
-6730 6703 0
-6730 6470 0
6731 -6703 -6729 0
-6731 6703 0
-6731 6729 0
6732 -6455 -6470 -6707 0
-6732 6455 0
-6732 6470 0
-6732 6707 0
-1888 6471 6728 6730 6731 6732 0
1888 -6471 0
1888 -6728 0
1888 -6730 0
1888 -6731 0
1888 -6732 0
6733 -6464 -6729 0
-6733 6464 0
-6733 6729 0
6734 -6720 -6729 0
-6734 6720 0
-6734 6729 0
6735 -6720 -6470 0
-6735 6720 0
-6735 6470 0
6736 -6464 -6470 -6707 0
-6736 6464 0
-6736 6470 0
-6736 6707 0
-1890 6473 6733 6734 6735 6736 0
1890 -6473 0
1890 -6733 0
1890 -6734 0
1890 -6735 0
1890 -6736 0
6737 -6458 -6720 0
-6737 6458 0
-6737 6720 0
6738 -6709 -6464 0
-6738 6709 0
-6738 6464 0
6739 -6709 -6720 0
-6739 6709 0
-6739 6720 0
6740 -6458 -6464 -6707 0
-6740 6458 0
-6740 6464 0
-6740 6707 0
-1872 6475 6737 6738 6739 6740 0
1872 -6475 0
1872 -6737 0
1872 -6738 0
1872 -6739 0
1872 -6740 0
6741 -6458 -6709 0
-6741 6458 0
-6741 6709 0
6742 -6709 -6709 0
-6742 6709 0
-6742 6709 0
6743 -6709 -6458 0
-6743 6709 0
-6743 6458 0
6744 -6458 -6458 -6707 0
-6744 6458 0
-6744 6458 0
-6744 6707 0
-1879 6477 6741 6742 6743 6744 0
1879 -6477 0
1879 -6741 0
1879 -6742 0
1879 -6743 0
1879 -6744 0
6745 -6458 -6724 0
-6745 6458 0
-6745 6724 0
6746 -6709 -6724 0
-6746 6709 0
-6746 6724 0
6747 -6709 -6467 0
-6747 6709 0
-6747 6467 0
6748 -6458 -6467 -6707 0
-6748 6458 0
-6748 6467 0
-6748 6707 0
-1886 6479 6745 6746 6747 6748 0
1886 -6479 0
1886 -6745 0
1886 -6746 0
1886 -6747 0
1886 -6748 0
6749 -6458 -6729 0
-6749 6458 0
-6749 6729 0
6750 -6709 -6470 0
-6750 6709 0
-6750 6470 0
6751 -6709 -6729 0
-6751 6709 0
-6751 6729 0
6752 -6458 -6470 -6707 0
-6752 6458 0
-6752 6470 0
-6752 6707 0
-1893 6481 6749 6750 6751 6752 0
1893 -6481 0
1893 -6749 0
1893 -6750 0
1893 -6751 0
1893 -6752 0
6753 -6461 -6729 0
-6753 6461 0
-6753 6729 0
6754 -6714 -6729 0
-6754 6714 0
-6754 6729 0
6755 -6714 -6470 0
-6755 6714 0
-6755 6470 0
6756 -6461 -6470 -6707 0
-6756 6461 0
-6756 6470 0
-6756 6707 0
-1900 6483 6753 6754 6755 6756 0
1900 -6483 0
1900 -6753 0
1900 -6754 0
1900 -6755 0
1900 -6756 0
6757 -6467 -6720 0
-6757 6467 0
-6757 6720 0
6758 -6724 -6464 0
-6758 6724 0
-6758 6464 0
6759 -6724 -6720 0
-6759 6724 0
-6759 6720 0
6760 -6467 -6464 -6707 0
-6760 6467 0
-6760 6464 0
-6760 6707 0
-1884 6485 6757 6758 6759 6760 0
1884 -6485 0
1884 -6757 0
1884 -6758 0
1884 -6759 0
1884 -6760 0
6761 -6467 -6714 0
-6761 6467 0
-6761 6714 0
6762 -6724 -6461 0
-6762 6724 0
-6762 6461 0
6763 -6724 -6714 0
-6763 6724 0
-6763 6714 0
6764 -6467 -6461 -6707 0
-6764 6467 0
-6764 6461 0
-6764 6707 0
-1905 6487 6761 6762 6763 6764 0
1905 -6487 0
1905 -6761 0
1905 -6762 0
1905 -6763 0
1905 -6764 0
6765 -6467 -6724 0
-6765 6467 0
-6765 6724 0
6766 -6724 -6724 0
-6766 6724 0
-6766 6724 0
6767 -6724 -6467 0
-6767 6724 0
-6767 6467 0
6768 -6467 -6467 -6707 0
-6768 6467 0
-6768 6467 0
-6768 6707 0
-1911 6489 6765 6766 6767 6768 0
1911 -6489 0
1911 -6765 0
1911 -6766 0
1911 -6767 0
1911 -6768 0
6769 -6770 -6771 0
-6769 6770 0
-6769 6771 0
6772 -6771 -6771 0
-6772 6771 0
-6772 6771 0
6773 -6771 -6770 0
-6773 6771 0
-6773 6770 0
6774 -6770 -6770 -6775 0
-6774 6770 0
-6774 6770 0
-6774 6775 0
-1959 6776 6769 6772 6773 6774 0
1959 -6776 0
1959 -6769 0
1959 -6772 0
1959 -6773 0
1959 -6774 0
6777 -6770 -6778 0
-6777 6770 0
-6777 6778 0
6779 -6771 -6778 0
-6779 6771 0
-6779 6778 0
6780 -6771 -6781 0
-6780 6771 0
-6780 6781 0
6782 -6770 -6781 -6775 0
-6782 6770 0
-6782 6781 0
-6782 6775 0
-1955 6783 6777 6779 6780 6782 0
1955 -6783 0
1955 -6777 0
1955 -6779 0
1955 -6780 0
1955 -6782 0
6784 -6770 -6785 0
-6784 6770 0
-6784 6785 0
6786 -6771 -6787 0
-6786 6771 0
-6786 6787 0
6788 -6771 -6785 0
-6788 6771 0
-6788 6785 0
6789 -6770 -6787 -6775 0
-6789 6770 0
-6789 6787 0
-6789 6775 0
-1979 6790 6784 6786 6788 6789 0
1979 -6790 0
1979 -6784 0
1979 -6786 0
1979 -6788 0
1979 -6789 0
6791 -6792 -6785 0
-6791 6792 0
-6791 6785 0
6793 -6794 -6785 0
-6793 6794 0
-6793 6785 0
6795 -6794 -6787 0
-6795 6794 0
-6795 6787 0
6796 -6792 -6787 -6775 0
-6796 6792 0
-6796 6787 0
-6796 6775 0
-1977 6797 6791 6793 6795 6796 0
1977 -6797 0
1977 -6791 0
1977 -6793 0
1977 -6795 0
1977 -6796 0
6798 -6770 -6799 0
-6798 6770 0
-6798 6799 0
6800 -6771 -6799 0
-6800 6771 0
-6800 6799 0
6801 -6771 -6802 0
-6801 6771 0
-6801 6802 0
6803 -6770 -6802 -6775 0
-6803 6770 0
-6803 6802 0
-6803 6775 0
-1963 6804 6798 6800 6801 6803 0
1963 -6804 0
1963 -6798 0
1963 -6800 0
1963 -6801 0
1963 -6803 0
6805 -6770 -6806 0
-6805 6770 0
-6805 6806 0
6807 -6771 -6808 0
-6807 6771 0
-6807 6808 0
6809 -6771 -6806 0
-6809 6771 0
-6809 6806 0
6810 -6770 -6808 -6775 0
-6810 6770 0
-6810 6808 0
-6810 6775 0
-1970 6811 6805 6807 6809 6810 0
1970 -6811 0
1970 -6805 0
1970 -6807 0
1970 -6809 0
1970 -6810 0
6812 -6792 -6806 0
-6812 6792 0
-6812 6806 0
6813 -6794 -6806 0
-6813 6794 0
-6813 6806 0
6814 -6794 -6808 0
-6814 6794 0
-6814 6808 0
6815 -6792 -6808 -6775 0
-6815 6792 0
-6815 6808 0
-6815 6775 0
-1972 6816 6812 6813 6814 6815 0
1972 -6816 0
1972 -6812 0
1972 -6813 0
1972 -6814 0
1972 -6815 0
6817 -6781 -6794 0
-6817 6781 0
-6817 6794 0
6818 -6778 -6792 0
-6818 6778 0
-6818 6792 0
6819 -6778 -6794 0
-6819 6778 0
-6819 6794 0
6820 -6781 -6792 -6775 0
-6820 6781 0
-6820 6792 0
-6820 6775 0
-1954 6821 6817 6818 6819 6820 0
1954 -6821 0
1954 -6817 0
1954 -6818 0
1954 -6819 0
1954 -6820 0
6822 -6781 -6778 0
-6822 6781 0
-6822 6778 0
6823 -6778 -6778 0
-6823 6778 0
-6823 6778 0
6824 -6778 -6781 0
-6824 6778 0
-6824 6781 0
6825 -6781 -6781 -6775 0
-6825 6781 0
-6825 6781 0
-6825 6775 0
-1961 6826 6822 6823 6824 6825 0
1961 -6826 0
1961 -6822 0
1961 -6823 0
1961 -6824 0
1961 -6825 0
6827 -6781 -6799 0
-6827 6781 0
-6827 6799 0
6828 -6778 -6799 0
-6828 6778 0
-6828 6799 0
6829 -6778 -6802 0
-6829 6778 0
-6829 6802 0
6830 -6781 -6802 -6775 0
-6830 6781 0
-6830 6802 0
-6830 6775 0
-1968 6831 6827 6828 6829 6830 0
1968 -6831 0
1968 -6827 0
1968 -6828 0
1968 -6829 0
1968 -6830 0
6832 -6781 -6806 0
-6832 6781 0
-6832 6806 0
6833 -6778 -6808 0
-6833 6778 0
-6833 6808 0
6834 -6778 -6806 0
-6834 6778 0
-6834 6806 0
6835 -6781 -6808 -6775 0
-6835 6781 0
-6835 6808 0
-6835 6775 0
-1975 6836 6832 6833 6834 6835 0
1975 -6836 0
1975 -6832 0
1975 -6833 0
1975 -6834 0
1975 -6835 0
6837 -6787 -6806 0
-6837 6787 0
-6837 6806 0
6838 -6785 -6806 0
-6838 6785 0
-6838 6806 0
6839 -6785 -6808 0
-6839 6785 0
-6839 6808 0
6840 -6787 -6808 -6775 0
-6840 6787 0
-6840 6808 0
-6840 6775 0
-1982 6841 6837 6838 6839 6840 0
1982 -6841 0
1982 -6837 0
1982 -6838 0
1982 -6839 0
1982 -6840 0
6842 -6802 -6794 0
-6842 6802 0
-6842 6794 0
6843 -6799 -6792 0
-6843 6799 0
-6843 6792 0
6844 -6799 -6794 0
-6844 6799 0
-6844 6794 0
6845 -6802 -6792 -6775 0
-6845 6802 0
-6845 6792 0
-6845 6775 0
-1966 6846 6842 6843 6844 6845 0
1966 -6846 0
1966 -6842 0
1966 -6843 0
1966 -6844 0
1966 -6845 0
6847 -6802 -6785 0
-6847 6802 0
-6847 6785 0
6848 -6799 -6787 0
-6848 6799 0
-6848 6787 0
6849 -6799 -6785 0
-6849 6799 0
-6849 6785 0
6850 -6802 -6787 -6775 0
-6850 6802 0
-6850 6787 0
-6850 6775 0
-1987 6851 6847 6848 6849 6850 0
1987 -6851 0
1987 -6847 0
1987 -6848 0
1987 -6849 0
1987 -6850 0
6852 -6802 -6799 0
-6852 6802 0
-6852 6799 0
6853 -6799 -6799 0
-6853 6799 0
-6853 6799 0
6854 -6799 -6802 0
-6854 6799 0
-6854 6802 0
6855 -6802 -6802 -6775 0
-6855 6802 0
-6855 6802 0
-6855 6775 0
-1993 6856 6852 6853 6854 6855 0
1993 -6856 0
1993 -6852 0
1993 -6853 0
1993 -6854 0
1993 -6855 0
6857 -6858 -6858 0
-6857 6858 0
-6857 6858 0
-5203 6859 6857 0
5203 -6859 0
5203 -6857 0
6860 -6858 -6861 0
-6860 6858 0
-6860 6861 0
-5198 6862 6860 0
5198 -6862 0
5198 -6860 0
6863 -6858 -6864 0
-6863 6858 0
-6863 6864 0
-5197 6865 6863 0
5197 -6865 0
5197 -6863 0
6866 -6867 -6864 0
-6866 6867 0
-6866 6864 0
-3659 6868 6866 0
3659 -6868 0
3659 -6866 0
6869 -6858 -6870 0
-6869 6858 0
-6869 6870 0
-5208 6871 6869 0
5208 -6871 0
5208 -6869 0
6872 -6858 -6873 0
-6872 6858 0
-6872 6873 0
-5213 6874 6872 0
5213 -6874 0
5213 -6872 0
6875 -6867 -6873 0
-6875 6867 0
-6875 6873 0
-3656 6876 6875 0
3656 -6876 0
3656 -6875 0
6877 -6861 -6867 0
-6877 6861 0
-6877 6867 0
-3649 6878 6877 0
3649 -6878 0
3649 -6877 0
6879 -6861 -6861 0
-6879 6861 0
-6879 6861 0
-3651 6880 6879 0
3651 -6880 0
3651 -6879 0
6881 -6861 -6870 0
-6881 6861 0
-6881 6870 0
-3654 6882 6881 0
3654 -6882 0
3654 -6881 0
6883 -6861 -6873 0
-6883 6861 0
-6883 6873 0
-3657 6884 6883 0
3657 -6884 0
3657 -6883 0
6885 -6864 -6873 0
-6885 6864 0
-6885 6873 0
-3660 6886 6885 0
3660 -6886 0
3660 -6885 0
6887 -6870 -6867 0
-6887 6870 0
-6887 6867 0
-3653 6888 6887 0
3653 -6888 0
3653 -6887 0
6889 -6870 -6864 0
-6889 6870 0
-6889 6864 0
-3662 6890 6889 0
3662 -6890 0
3662 -6889 0
6891 -6870 -6870 0
-6891 6870 0
-6891 6870 0
-3665 6892 6891 0
3665 -6892 0
3665 -6891 0
6893 -6894 -6895 0
-6893 6894 0
-6893 6895 0
6896 -6895 -6895 0
-6896 6895 0
-6896 6895 0
6897 -6895 -6894 0
-6897 6895 0
-6897 6894 0
6898 -6894 -6894 -6899 0
-6898 6894 0
-6898 6894 0
-6898 6899 0
-3614 6900 6893 6896 6897 6898 0
3614 -6900 0
3614 -6893 0
3614 -6896 0
3614 -6897 0
3614 -6898 0
6901 -6894 -6902 0
-6901 6894 0
-6901 6902 0
6903 -6895 -6902 0
-6903 6895 0
-6903 6902 0
6904 -6895 -6905 0
-6904 6895 0
-6904 6905 0
6906 -6894 -6905 -6899 0
-6906 6894 0
-6906 6905 0
-6906 6899 0
-3610 6907 6901 6903 6904 6906 0
3610 -6907 0
3610 -6901 0
3610 -6903 0
3610 -6904 0
3610 -6906 0
6908 -6894 -6909 0
-6908 6894 0
-6908 6909 0
6910 -6895 -6911 0
-6910 6895 0
-6910 6911 0
6912 -6895 -6909 0
-6912 6895 0
-6912 6909 0
6913 -6894 -6911 -6899 0
-6913 6894 0
-6913 6911 0
-6913 6899 0
-3628 6914 6908 6910 6912 6913 0
3628 -6914 0
3628 -6908 0
3628 -6910 0
3628 -6912 0
3628 -6913 0
6915 -6916 -6909 0
-6915 6916 0
-6915 6909 0
6917 -6918 -6909 0
-6917 6918 0
-6917 6909 0
6919 -6918 -6911 0
-6919 6918 0
-6919 6911 0
6920 -6916 -6911 -6899 0
-6920 6916 0
-6920 6911 0
-6920 6899 0
-2548 6921 6915 6917 6919 6920 0
2548 -6921 0
2548 -6915 0
2548 -6917 0
2548 -6919 0
2548 -6920 0
6922 -6894 -6923 0
-6922 6894 0
-6922 6923 0
6924 -6895 -6923 0
-6924 6895 0
-6924 6923 0
6925 -6895 -6926 0
-6925 6895 0
-6925 6926 0
6927 -6894 -6926 -6899 0
-6927 6894 0
-6927 6926 0
-6927 6899 0
-3617 6928 6922 6924 6925 6927 0
3617 -6928 0
3617 -6922 0
3617 -6924 0
3617 -6925 0
3617 -6927 0
6929 -6894 -6930 0
-6929 6894 0
-6929 6930 0
6931 -6895 -6932 0
-6931 6895 0
-6931 6932 0
6933 -6895 -6930 0
-6933 6895 0
-6933 6930 0
6934 -6894 -6932 -6899 0
-6934 6894 0
-6934 6932 0
-6934 6899 0
-3622 6935 6929 6931 6933 6934 0
3622 -6935 0
3622 -6929 0
3622 -6931 0
3622 -6933 0
3622 -6934 0
6936 -6916 -6930 0
-6936 6916 0
-6936 6930 0
6937 -6918 -6930 0
-6937 6918 0
-6937 6930 0
6938 -6918 -6932 0
-6938 6918 0
-6938 6932 0
6939 -6916 -6932 -6899 0
-6939 6916 0
-6939 6932 0
-6939 6899 0
-2545 6940 6936 6937 6938 6939 0
2545 -6940 0
2545 -6936 0
2545 -6937 0
2545 -6938 0
2545 -6939 0
6941 -6905 -6918 0
-6941 6905 0
-6941 6918 0
6942 -6902 -6916 0
-6942 6902 0
-6942 6916 0
6943 -6902 -6918 0
-6943 6902 0
-6943 6918 0
6944 -6905 -6916 -6899 0
-6944 6905 0
-6944 6916 0
-6944 6899 0
-2538 6945 6941 6942 6943 6944 0
2538 -6945 0
2538 -6941 0
2538 -6942 0
2538 -6943 0
2538 -6944 0
6946 -6905 -6902 0
-6946 6905 0
-6946 6902 0
6947 -6902 -6902 0
-6947 6902 0
-6947 6902 0
6948 -6902 -6905 0
-6948 6902 0
-6948 6905 0
6949 -6905 -6905 -6899 0
-6949 6905 0
-6949 6905 0
-6949 6899 0
-2540 6950 6946 6947 6948 6949 0
2540 -6950 0
2540 -6946 0
2540 -6947 0
2540 -6948 0
2540 -6949 0
6951 -6905 -6923 0
-6951 6905 0
-6951 6923 0
6952 -6902 -6923 0
-6952 6902 0
-6952 6923 0
6953 -6902 -6926 0
-6953 6902 0
-6953 6926 0
6954 -6905 -6926 -6899 0
-6954 6905 0
-6954 6926 0
-6954 6899 0
-2543 6955 6951 6952 6953 6954 0
2543 -6955 0
2543 -6951 0
2543 -6952 0
2543 -6953 0
2543 -6954 0
6956 -6905 -6930 0
-6956 6905 0
-6956 6930 0
6957 -6902 -6932 0
-6957 6902 0
-6957 6932 0
6958 -6902 -6930 0
-6958 6902 0
-6958 6930 0
6959 -6905 -6932 -6899 0
-6959 6905 0
-6959 6932 0
-6959 6899 0
-2546 6960 6956 6957 6958 6959 0
2546 -6960 0
2546 -6956 0
2546 -6957 0
2546 -6958 0
2546 -6959 0
6961 -6911 -6930 0
-6961 6911 0
-6961 6930 0
6962 -6909 -6930 0
-6962 6909 0
-6962 6930 0
6963 -6909 -6932 0
-6963 6909 0
-6963 6932 0
6964 -6911 -6932 -6899 0
-6964 6911 0
-6964 6932 0
-6964 6899 0
-2549 6965 6961 6962 6963 6964 0
2549 -6965 0
2549 -6961 0
2549 -6962 0
2549 -6963 0
2549 -6964 0
6966 -6926 -6918 0
-6966 6926 0
-6966 6918 0
6967 -6923 -6916 0
-6967 6923 0
-6967 6916 0
6968 -6923 -6918 0
-6968 6923 0
-6968 6918 0
6969 -6926 -6916 -6899 0
-6969 6926 0
-6969 6916 0
-6969 6899 0
-2542 6970 6966 6967 6968 6969 0
2542 -6970 0
2542 -6966 0
2542 -6967 0
2542 -6968 0
2542 -6969 0
6971 -6926 -6909 0
-6971 6926 0
-6971 6909 0
6972 -6923 -6911 0
-6972 6923 0
-6972 6911 0
6973 -6923 -6909 0
-6973 6923 0
-6973 6909 0
6974 -6926 -6911 -6899 0
-6974 6926 0
-6974 6911 0
-6974 6899 0
-2551 6975 6971 6972 6973 6974 0
2551 -6975 0
2551 -6971 0
2551 -6972 0
2551 -6973 0
2551 -6974 0
6976 -6926 -6923 0
-6976 6926 0
-6976 6923 0
6977 -6923 -6923 0
-6977 6923 0
-6977 6923 0
6978 -6923 -6926 0
-6978 6923 0
-6978 6926 0
6979 -6926 -6926 -6899 0
-6979 6926 0
-6979 6926 0
-6979 6899 0
-2554 6980 6976 6977 6978 6979 0
2554 -6980 0
2554 -6976 0
2554 -6977 0
2554 -6978 0
2554 -6979 0
6981 -6982 -6983 0
-6981 6982 0
-6981 6983 0
6984 -6983 -6983 0
-6984 6983 0
-6984 6983 0
6985 -6983 -6982 0
-6985 6983 0
-6985 6982 0
6986 -6982 -6982 -6987 0
-6986 6982 0
-6986 6982 0
-6986 6987 0
-2061 6988 6981 6984 6985 6986 0
2061 -6988 0
2061 -6981 0
2061 -6984 0
2061 -6985 0
2061 -6986 0
6989 -6982 -6990 0
-6989 6982 0
-6989 6990 0
6991 -6983 -6990 0
-6991 6983 0
-6991 6990 0
6992 -6983 -6993 0
-6992 6983 0
-6992 6993 0
6994 -6982 -6993 -6987 0
-6994 6982 0
-6994 6993 0
-6994 6987 0
-2055 6995 6989 6991 6992 6994 0
2055 -6995 0
2055 -6989 0
2055 -6991 0
2055 -6992 0
2055 -6994 0
6996 -6982 -6997 0
-6996 6982 0
-6996 6997 0
6998 -6983 -6999 0
-6998 6983 0
-6998 6999 0
7000 -6983 -6997 0
-7000 6983 0
-7000 6997 0
7001 -6982 -6999 -6987 0
-7001 6982 0
-7001 6999 0
-7001 6987 0
-2054 7002 6996 6998 7000 7001 0
2054 -7002 0
2054 -6996 0
2054 -6998 0
2054 -7000 0
2054 -7001 0
7003 -7004 -6997 0
-7003 7004 0
-7003 6997 0
7005 -7006 -6997 0
-7005 7006 0
-7005 6997 0
7007 -7006 -6999 0
-7007 7006 0
-7007 6999 0
7008 -7004 -6999 -6987 0
-7008 7004 0
-7008 6999 0
-7008 6987 0
-2077 7009 7003 7005 7007 7008 0
2077 -7009 0
2077 -7003 0
2077 -7005 0
2077 -7007 0
2077 -7008 0
7010 -6982 -7011 0
-7010 6982 0
-7010 7011 0
7012 -6983 -7011 0
-7012 6983 0
-7012 7011 0
7013 -6983 -7014 0
-7013 6983 0
-7013 7014 0
7015 -6982 -7014 -6987 0
-7015 6982 0
-7015 7014 0
-7015 6987 0
-2068 7016 7010 7012 7013 7015 0
2068 -7016 0
2068 -7010 0
2068 -7012 0
2068 -7013 0
2068 -7015 0
7017 -6982 -7018 0
-7017 6982 0
-7017 7018 0
7019 -6983 -7020 0
-7019 6983 0
-7019 7020 0
7021 -6983 -7018 0
-7021 6983 0
-7021 7018 0
7022 -6982 -7020 -6987 0
-7022 6982 0
-7022 7020 0
-7022 6987 0
-2075 7023 7017 7019 7021 7022 0
2075 -7023 0
2075 -7017 0
2075 -7019 0
2075 -7021 0
2075 -7022 0
7024 -7004 -7018 0
-7024 7004 0
-7024 7018 0
7025 -7006 -7018 0
-7025 7006 0
-7025 7018 0
7026 -7006 -7020 0
-7026 7006 0
-7026 7020 0
7027 -7004 -7020 -6987 0
-7027 7004 0
-7027 7020 0
-7027 6987 0
-2082 7028 7024 7025 7026 7027 0
2082 -7028 0
2082 -7024 0
2082 -7025 0
2082 -7026 0
2082 -7027 0
7029 -6993 -7006 0
-7029 6993 0
-7029 7006 0
7030 -6990 -7004 0
-7030 6990 0
-7030 7004 0
7031 -6990 -7006 0
-7031 6990 0
-7031 7006 0
7032 -6993 -7004 -6987 0
-7032 6993 0
-7032 7004 0
-7032 6987 0
-2079 7033 7029 7030 7031 7032 0
2079 -7033 0
2079 -7029 0
2079 -7030 0
2079 -7031 0
2079 -7032 0
7034 -6993 -6990 0
-7034 6993 0
-7034 6990 0
7035 -6990 -6990 0
-7035 6990 0
-7035 6990 0
7036 -6990 -6993 0
-7036 6990 0
-7036 6993 0
7037 -6993 -6993 -6987 0
-7037 6993 0
-7037 6993 0
-7037 6987 0
-2059 7038 7034 7035 7036 7037 0
2059 -7038 0
2059 -7034 0
2059 -7035 0
2059 -7036 0
2059 -7037 0
7039 -6993 -7011 0
-7039 6993 0
-7039 7011 0
7040 -6990 -7011 0
-7040 6990 0
-7040 7011 0
7041 -6990 -7014 0
-7041 6990 0
-7041 7014 0
7042 -6993 -7014 -6987 0
-7042 6993 0
-7042 7014 0
-7042 6987 0
-2063 7043 7039 7040 7041 7042 0
2063 -7043 0
2063 -7039 0
2063 -7040 0
2063 -7041 0
2063 -7042 0
7044 -6993 -7018 0
-7044 6993 0
-7044 7018 0
7045 -6990 -7020 0
-7045 6990 0
-7045 7020 0
7046 -6990 -7018 0
-7046 6990 0
-7046 7018 0
7047 -6993 -7020 -6987 0
-7047 6993 0
-7047 7020 0
-7047 6987 0
-2070 7048 7044 7045 7046 7047 0
2070 -7048 0
2070 -7044 0
2070 -7045 0
2070 -7046 0
2070 -7047 0
7049 -6999 -7018 0
-7049 6999 0
-7049 7018 0
7050 -6997 -7018 0
-7050 6997 0
-7050 7018 0
7051 -6997 -7020 0
-7051 6997 0
-7051 7020 0
7052 -6999 -7020 -6987 0
-7052 6999 0
-7052 7020 0
-7052 6987 0
-2072 7053 7049 7050 7051 7052 0
2072 -7053 0
2072 -7049 0
2072 -7050 0
2072 -7051 0
2072 -7052 0
7054 -7014 -7006 0
-7054 7014 0
-7054 7006 0
7055 -7011 -7004 0
-7055 7011 0
-7055 7004 0
7056 -7011 -7006 0
-7056 7011 0
-7056 7006 0
7057 -7014 -7004 -6987 0
-7057 7014 0
-7057 7004 0
-7057 6987 0
-2087 7058 7054 7055 7056 7057 0
2087 -7058 0
2087 -7054 0
2087 -7055 0
2087 -7056 0
2087 -7057 0
7059 -7014 -6997 0
-7059 7014 0
-7059 6997 0
7060 -7011 -6999 0
-7060 7011 0
-7060 6999 0
7061 -7011 -6997 0
-7061 7011 0
-7061 6997 0
7062 -7014 -6999 -6987 0
-7062 7014 0
-7062 6999 0
-7062 6987 0
-2066 7063 7059 7060 7061 7062 0
2066 -7063 0
2066 -7059 0
2066 -7060 0
2066 -7061 0
2066 -7062 0
7064 -7014 -7011 0
-7064 7014 0
-7064 7011 0
7065 -7011 -7011 0
-7065 7011 0
-7065 7011 0
7066 -7011 -7014 0
-7066 7011 0
-7066 7014 0
7067 -7014 -7014 -6987 0
-7067 7014 0
-7067 7014 0
-7067 6987 0
-2093 7068 7064 7065 7066 7067 0
2093 -7068 0
2093 -7064 0
2093 -7065 0
2093 -7066 0
2093 -7067 0
7069 -7070 -7071 0
-7069 7070 0
-7069 7071 0
7072 -7071 -7071 0
-7072 7071 0
-7072 7071 0
7073 -7071 -7070 0
-7073 7071 0
-7073 7070 0
7074 -7070 -7070 -7075 0
-7074 7070 0
-7074 7070 0
-7074 7075 0
-1997 7076 7069 7072 7073 7074 0
1997 -7076 0
1997 -7069 0
1997 -7072 0
1997 -7073 0
1997 -7074 0
7077 -7070 -7078 0
-7077 7070 0
-7077 7078 0
7079 -7071 -7078 0
-7079 7071 0
-7079 7078 0
7080 -7071 -7081 0
-7080 7071 0
-7080 7081 0
7082 -7070 -7081 -7075 0
-7082 7070 0
-7082 7081 0
-7082 7075 0
-2422 7083 7077 7079 7080 7082 0
2422 -7083 0
2422 -7077 0
2422 -7079 0
2422 -7080 0
2422 -7082 0
7084 -7070 -7085 0
-7084 7070 0
-7084 7085 0
7086 -7071 -7087 0
-7086 7071 0
-7086 7087 0
7088 -7071 -7085 0
-7088 7071 0
-7088 7085 0
7089 -7070 -7087 -7075 0
-7089 7070 0
-7089 7087 0
-7089 7075 0
-1995 7090 7084 7086 7088 7089 0
1995 -7090 0
1995 -7084 0
1995 -7086 0
1995 -7088 0
1995 -7089 0
7091 -7092 -7085 0
-7091 7092 0
-7091 7085 0
7093 -7094 -7085 0
-7093 7094 0
-7093 7085 0
7095 -7094 -7087 0
-7095 7094 0
-7095 7087 0
7096 -7092 -7087 -7075 0
-7096 7092 0
-7096 7087 0
-7096 7075 0
-2005 7097 7091 7093 7095 7096 0
2005 -7097 0
2005 -7091 0
2005 -7093 0
2005 -7095 0
2005 -7096 0
7098 -7070 -7099 0
-7098 7070 0
-7098 7099 0
7100 -7071 -7099 0
-7100 7071 0
-7100 7099 0
7101 -7071 -7102 0
-7101 7071 0
-7101 7102 0
7103 -7070 -7102 -7075 0
-7103 7070 0
-7103 7102 0
-7103 7075 0
-2000 7104 7098 7100 7101 7103 0
2000 -7104 0
2000 -7098 0
2000 -7100 0
2000 -7101 0
2000 -7103 0
7105 -7070 -7106 0
-7105 7070 0
-7105 7106 0
7107 -7071 -7108 0
-7107 7071 0
-7107 7108 0
7109 -7071 -7106 0
-7109 7071 0
-7109 7106 0
7110 -7070 -7108 -7075 0
-7110 7070 0
-7110 7108 0
-7110 7075 0
-2003 7111 7105 7107 7109 7110 0
2003 -7111 0
2003 -7105 0
2003 -7107 0
2003 -7109 0
2003 -7110 0
7112 -7092 -7106 0
-7112 7092 0
-7112 7106 0
7113 -7094 -7106 0
-7113 7094 0
-7113 7106 0
7114 -7094 -7108 0
-7114 7094 0
-7114 7108 0
7115 -7092 -7108 -7075 0
-7115 7092 0
-7115 7108 0
-7115 7075 0
-2006 7116 7112 7113 7114 7115 0
2006 -7116 0
2006 -7112 0
2006 -7113 0
2006 -7114 0
2006 -7115 0
7117 -7081 -7094 0
-7117 7081 0
-7117 7094 0
7118 -7078 -7092 0
-7118 7078 0
-7118 7092 0
7119 -7078 -7094 0
-7119 7078 0
-7119 7094 0
7120 -7081 -7092 -7075 0
-7120 7081 0
-7120 7092 0
-7120 7075 0
-2440 7121 7117 7118 7119 7120 0
2440 -7121 0
2440 -7117 0
2440 -7118 0
2440 -7119 0
2440 -7120 0
7122 -7081 -7078 0
-7122 7081 0
-7122 7078 0
7123 -7078 -7078 0
-7123 7078 0
-7123 7078 0
7124 -7078 -7081 0
-7124 7078 0
-7124 7081 0
7125 -7081 -7081 -7075 0
-7125 7081 0
-7125 7081 0
-7125 7075 0
-2426 7126 7122 7123 7124 7125 0
2426 -7126 0
2426 -7122 0
2426 -7123 0
2426 -7124 0
2426 -7125 0
7127 -7081 -7099 0
-7127 7081 0
-7127 7099 0
7128 -7078 -7099 0
-7128 7078 0
-7128 7099 0
7129 -7078 -7102 0
-7129 7078 0
-7129 7102 0
7130 -7081 -7102 -7075 0
-7130 7081 0
-7130 7102 0
-7130 7075 0
-2429 7131 7127 7128 7129 7130 0
2429 -7131 0
2429 -7127 0
2429 -7128 0
2429 -7129 0
2429 -7130 0
7132 -7081 -7106 0
-7132 7081 0
-7132 7106 0
7133 -7078 -7108 0
-7133 7078 0
-7133 7108 0
7134 -7078 -7106 0
-7134 7078 0
-7134 7106 0
7135 -7081 -7108 -7075 0
-7135 7081 0
-7135 7108 0
-7135 7075 0
-2434 7136 7132 7133 7134 7135 0
2434 -7136 0
2434 -7132 0
2434 -7133 0
2434 -7134 0
2434 -7135 0
7137 -7087 -7106 0
-7137 7087 0
-7137 7106 0
7138 -7085 -7106 0
-7138 7085 0
-7138 7106 0
7139 -7085 -7108 0
-7139 7085 0
-7139 7108 0
7140 -7087 -7108 -7075 0
-7140 7087 0
-7140 7108 0
-7140 7075 0
-2002 7141 7137 7138 7139 7140 0
2002 -7141 0
2002 -7137 0
2002 -7138 0
2002 -7139 0
2002 -7140 0
7142 -7102 -7094 0
-7142 7102 0
-7142 7094 0
7143 -7099 -7092 0
-7143 7099 0
-7143 7092 0
7144 -7099 -7094 0
-7144 7099 0
-7144 7094 0
7145 -7102 -7092 -7075 0
-7145 7102 0
-7145 7092 0
-7145 7075 0
-2008 7146 7142 7143 7144 7145 0
2008 -7146 0
2008 -7142 0
2008 -7143 0
2008 -7144 0
2008 -7145 0
7147 -7102 -7085 0
-7147 7102 0
-7147 7085 0
7148 -7099 -7087 0
-7148 7099 0
-7148 7087 0
7149 -7099 -7085 0
-7149 7099 0
-7149 7085 0
7150 -7102 -7087 -7075 0
-7150 7102 0
-7150 7087 0
-7150 7075 0
-1999 7151 7147 7148 7149 7150 0
1999 -7151 0
1999 -7147 0
1999 -7148 0
1999 -7149 0
1999 -7150 0
7152 -7102 -7099 0
-7152 7102 0
-7152 7099 0
7153 -7099 -7099 0
-7153 7099 0
-7153 7099 0
7154 -7099 -7102 0
-7154 7099 0
-7154 7102 0
7155 -7102 -7102 -7075 0
-7155 7102 0
-7155 7102 0
-7155 7075 0
-2011 7156 7152 7153 7154 7155 0
2011 -7156 0
2011 -7152 0
2011 -7153 0
2011 -7154 0
2011 -7155 0
7157 -7158 -7159 0
-7157 7158 0
-7157 7159 0
7160 -7159 -7159 0
-7160 7159 0
-7160 7159 0
7161 -7159 -7158 0
-7161 7159 0
-7161 7158 0
7162 -7158 -7158 -7163 0
-7162 7158 0
-7162 7158 0
-7162 7163 0
-3198 7164 7157 7160 7161 7162 0
3198 -7164 0
3198 -7157 0
3198 -7160 0
3198 -7161 0
3198 -7162 0
7165 -7158 -7166 0
-7165 7158 0
-7165 7166 0
7167 -7159 -7166 0
-7167 7159 0
-7167 7166 0
7168 -7159 -7169 0
-7168 7159 0
-7168 7169 0
7170 -7158 -7169 -7163 0
-7170 7158 0
-7170 7169 0
-7170 7163 0
-3194 7171 7165 7167 7168 7170 0
3194 -7171 0
3194 -7165 0
3194 -7167 0
3194 -7168 0
3194 -7170 0
7172 -7158 -7173 0
-7172 7158 0
-7172 7173 0
7174 -7159 -7175 0
-7174 7159 0
-7174 7175 0
7176 -7159 -7173 0
-7176 7159 0
-7176 7173 0
7177 -7158 -7175 -7163 0
-7177 7158 0
-7177 7175 0
-7177 7163 0
-3218 7178 7172 7174 7176 7177 0
3218 -7178 0
3218 -7172 0
3218 -7174 0
3218 -7176 0
3218 -7177 0
7179 -7180 -7173 0
-7179 7180 0
-7179 7173 0
7181 -7182 -7173 0
-7181 7182 0
-7181 7173 0
7183 -7182 -7175 0
-7183 7182 0
-7183 7175 0
7184 -7180 -7175 -7163 0
-7184 7180 0
-7184 7175 0
-7184 7163 0
-3216 7185 7179 7181 7183 7184 0
3216 -7185 0
3216 -7179 0
3216 -7181 0
3216 -7183 0
3216 -7184 0
7186 -7158 -7187 0
-7186 7158 0
-7186 7187 0
7188 -7159 -7187 0
-7188 7159 0
-7188 7187 0
7189 -7159 -7190 0
-7189 7159 0
-7189 7190 0
7191 -7158 -7190 -7163 0
-7191 7158 0
-7191 7190 0
-7191 7163 0
-3202 7192 7186 7188 7189 7191 0
3202 -7192 0
3202 -7186 0
3202 -7188 0
3202 -7189 0
3202 -7191 0
7193 -7158 -7194 0
-7193 7158 0
-7193 7194 0
7195 -7159 -7196 0
-7195 7159 0
-7195 7196 0
7197 -7159 -7194 0
-7197 7159 0
-7197 7194 0
7198 -7158 -7196 -7163 0
-7198 7158 0
-7198 7196 0
-7198 7163 0
-3209 7199 7193 7195 7197 7198 0
3209 -7199 0
3209 -7193 0
3209 -7195 0
3209 -7197 0
3209 -7198 0
7200 -7180 -7194 0
-7200 7180 0
-7200 7194 0
7201 -7182 -7194 0
-7201 7182 0
-7201 7194 0
7202 -7182 -7196 0
-7202 7182 0
-7202 7196 0
7203 -7180 -7196 -7163 0
-7203 7180 0
-7203 7196 0
-7203 7163 0
-3211 7204 7200 7201 7202 7203 0
3211 -7204 0
3211 -7200 0
3211 -7201 0
3211 -7202 0
3211 -7203 0
7205 -7169 -7182 0
-7205 7169 0
-7205 7182 0
7206 -7166 -7180 0
-7206 7166 0
-7206 7180 0
7207 -7166 -7182 0
-7207 7166 0
-7207 7182 0
7208 -7169 -7180 -7163 0
-7208 7169 0
-7208 7180 0
-7208 7163 0
-3193 7209 7205 7206 7207 7208 0
3193 -7209 0
3193 -7205 0
3193 -7206 0
3193 -7207 0
3193 -7208 0
7210 -7169 -7166 0
-7210 7169 0
-7210 7166 0
7211 -7166 -7166 0
-7211 7166 0
-7211 7166 0
7212 -7166 -7169 0
-7212 7166 0
-7212 7169 0
7213 -7169 -7169 -7163 0
-7213 7169 0
-7213 7169 0
-7213 7163 0
-3200 7214 7210 7211 7212 7213 0
3200 -7214 0
3200 -7210 0
3200 -7211 0
3200 -7212 0
3200 -7213 0
7215 -7169 -7187 0
-7215 7169 0
-7215 7187 0
7216 -7166 -7187 0
-7216 7166 0
-7216 7187 0
7217 -7166 -7190 0
-7217 7166 0
-7217 7190 0
7218 -7169 -7190 -7163 0
-7218 7169 0
-7218 7190 0
-7218 7163 0
-3207 7219 7215 7216 7217 7218 0
3207 -7219 0
3207 -7215 0
3207 -7216 0
3207 -7217 0
3207 -7218 0
7220 -7169 -7194 0
-7220 7169 0
-7220 7194 0
7221 -7166 -7196 0
-7221 7166 0
-7221 7196 0
7222 -7166 -7194 0
-7222 7166 0
-7222 7194 0
7223 -7169 -7196 -7163 0
-7223 7169 0
-7223 7196 0
-7223 7163 0
-3214 7224 7220 7221 7222 7223 0
3214 -7224 0
3214 -7220 0
3214 -7221 0
3214 -7222 0
3214 -7223 0
7225 -7175 -7194 0
-7225 7175 0
-7225 7194 0
7226 -7173 -7194 0
-7226 7173 0
-7226 7194 0
7227 -7173 -7196 0
-7227 7173 0
-7227 7196 0
7228 -7175 -7196 -7163 0
-7228 7175 0
-7228 7196 0
-7228 7163 0
-3221 7229 7225 7226 7227 7228 0
3221 -7229 0
3221 -7225 0
3221 -7226 0
3221 -7227 0
3221 -7228 0
7230 -7190 -7182 0
-7230 7190 0
-7230 7182 0
7231 -7187 -7180 0
-7231 7187 0
-7231 7180 0
7232 -7187 -7182 0
-7232 7187 0
-7232 7182 0
7233 -7190 -7180 -7163 0
-7233 7190 0
-7233 7180 0
-7233 7163 0
-3205 7234 7230 7231 7232 7233 0
3205 -7234 0
3205 -7230 0
3205 -7231 0
3205 -7232 0
3205 -7233 0
7235 -7190 -7173 0
-7235 7190 0
-7235 7173 0
7236 -7187 -7175 0
-7236 7187 0
-7236 7175 0
7237 -7187 -7173 0
-7237 7187 0
-7237 7173 0
7238 -7190 -7175 -7163 0
-7238 7190 0
-7238 7175 0
-7238 7163 0
-3226 7239 7235 7236 7237 7238 0
3226 -7239 0
3226 -7235 0
3226 -7236 0
3226 -7237 0
3226 -7238 0
7240 -7190 -7187 0
-7240 7190 0
-7240 7187 0
7241 -7187 -7187 0
-7241 7187 0
-7241 7187 0
7242 -7187 -7190 0
-7242 7187 0
-7242 7190 0
7243 -7190 -7190 -7163 0
-7243 7190 0
-7243 7190 0
-7243 7163 0
-3232 7244 7240 7241 7242 7243 0
3232 -7244 0
3232 -7240 0
3232 -7241 0
3232 -7242 0
3232 -7243 0
7245 -7246 -7246 0
-7245 7246 0
-7245 7246 0
-5364 7247 7245 0
5364 -7247 0
5364 -7245 0
7248 -7246 -7249 0
-7248 7246 0
-7248 7249 0
-5360 7250 7248 0
5360 -7250 0
5360 -7248 0
7251 -7246 -7252 0
-7251 7246 0
-7251 7252 0
-5378 7253 7251 0
5378 -7253 0
5378 -7251 0
7254 -7255 -7252 0
-7254 7255 0
-7254 7252 0
-3969 7256 7254 0
3969 -7256 0
3969 -7254 0
7257 -7246 -7258 0
-7257 7246 0
-7257 7258 0
-5367 7259 7257 0
5367 -7259 0
5367 -7257 0
7260 -7246 -7261 0
-7260 7246 0
-7260 7261 0
-5372 7262 7260 0
5372 -7262 0
5372 -7260 0
7263 -7255 -7261 0
-7263 7255 0
-7263 7261 0
-3966 7264 7263 0
3966 -7264 0
3966 -7263 0
7265 -7249 -7255 0
-7265 7249 0
-7265 7255 0
-3959 7266 7265 0
3959 -7266 0
3959 -7265 0
7267 -7249 -7249 0
-7267 7249 0
-7267 7249 0
-3961 7268 7267 0
3961 -7268 0
3961 -7267 0
7269 -7249 -7258 0
-7269 7249 0
-7269 7258 0
-3964 7270 7269 0
3964 -7270 0
3964 -7269 0
7271 -7249 -7261 0
-7271 7249 0
-7271 7261 0
-3967 7272 7271 0
3967 -7272 0
3967 -7271 0
7273 -7252 -7261 0
-7273 7252 0
-7273 7261 0
-3970 7274 7273 0
3970 -7274 0
3970 -7273 0
7275 -7258 -7255 0
-7275 7258 0
-7275 7255 0
-3963 7276 7275 0
3963 -7276 0
3963 -7275 0
7277 -7258 -7252 0
-7277 7258 0
-7277 7252 0
-3972 7278 7277 0
3972 -7278 0
3972 -7277 0
7279 -7258 -7258 0
-7279 7258 0
-7279 7258 0
-3975 7280 7279 0
3975 -7280 0
3975 -7279 0
7281 -7199 -7192 0
-7281 7199 0
-7281 7192 0
7282 -7192 -7192 0
-7282 7192 0
-7282 7192 0
7283 -7192 -7199 0
-7283 7192 0
-7283 7199 0
7284 -7199 -7199 -7244 0
-7284 7199 0
-7284 7199 0
-7284 7244 0
-1533 7164 7281 7282 7283 7284 0
1533 -7164 0
1533 -7281 0
1533 -7282 0
1533 -7283 0
1533 -7284 0
7285 -7199 -7187 0
-7285 7199 0
-7285 7187 0
7286 -7192 -7187 0
-7286 7192 0
-7286 7187 0
7287 -7192 -7194 0
-7287 7192 0
-7287 7194 0
7288 -7199 -7194 -7244 0
-7288 7199 0
-7288 7194 0
-7288 7244 0
-1527 7159 7285 7286 7287 7288 0
1527 -7159 0
1527 -7285 0
1527 -7286 0
1527 -7287 0
1527 -7288 0
7289 -7199 -7190 0
-7289 7199 0
-7289 7190 0
7290 -7192 -7196 0
-7290 7192 0
-7290 7196 0
7291 -7192 -7190 0
-7291 7192 0
-7291 7190 0
7292 -7199 -7196 -7244 0
-7292 7199 0
-7292 7196 0
-7292 7244 0
-1526 7158 7289 7290 7291 7292 0
1526 -7158 0
1526 -7289 0
1526 -7290 0
1526 -7291 0
1526 -7292 0
7293 -7204 -7190 0
-7293 7204 0
-7293 7190 0
7294 -7234 -7190 0
-7294 7234 0
-7294 7190 0
7295 -7234 -7196 0
-7295 7234 0
-7295 7196 0
7296 -7204 -7196 -7244 0
-7296 7204 0
-7296 7196 0
-7296 7244 0
-1549 7180 7293 7294 7295 7296 0
1549 -7180 0
1549 -7293 0
1549 -7294 0
1549 -7295 0
1549 -7296 0
7297 -7199 -7219 0
-7297 7199 0
-7297 7219 0
7298 -7192 -7219 0
-7298 7192 0
-7298 7219 0
7299 -7192 -7224 0
-7299 7192 0
-7299 7224 0
7300 -7199 -7224 -7244 0
-7300 7199 0
-7300 7224 0
-7300 7244 0
-1540 7171 7297 7298 7299 7300 0
1540 -7171 0
1540 -7297 0
1540 -7298 0
1540 -7299 0
1540 -7300 0
7301 -7199 -7239 0
-7301 7199 0
-7301 7239 0
7302 -7192 -7229 0
-7302 7192 0
-7302 7229 0
7303 -7192 -7239 0
-7303 7192 0
-7303 7239 0
7304 -7199 -7229 -7244 0
-7304 7199 0
-7304 7229 0
-7304 7244 0
-1547 7178 7301 7302 7303 7304 0
1547 -7178 0
1547 -7301 0
1547 -7302 0
1547 -7303 0
1547 -7304 0
7305 -7204 -7239 0
-7305 7204 0
-7305 7239 0
7306 -7234 -7239 0
-7306 7234 0
-7306 7239 0
7307 -7234 -7229 0
-7307 7234 0
-7307 7229 0
7308 -7204 -7229 -7244 0
-7308 7204 0
-7308 7229 0
-7308 7244 0
-1554 7185 7305 7306 7307 7308 0
1554 -7185 0
1554 -7305 0
1554 -7306 0
1554 -7307 0
1554 -7308 0
7309 -7194 -7234 0
-7309 7194 0
-7309 7234 0
7310 -7187 -7204 0
-7310 7187 0
-7310 7204 0
7311 -7187 -7234 0
-7311 7187 0
-7311 7234 0
7312 -7194 -7204 -7244 0
-7312 7194 0
-7312 7204 0
-7312 7244 0
-1551 7182 7309 7310 7311 7312 0
1551 -7182 0
1551 -7309 0
1551 -7310 0
1551 -7311 0
1551 -7312 0
7313 -7194 -7187 0
-7313 7194 0
-7313 7187 0
7241 -7187 -7187 0
-7241 7187 0
-7241 7187 0
7314 -7187 -7194 0
-7314 7187 0
-7314 7194 0
7315 -7194 -7194 -7244 0
-7315 7194 0
-7315 7194 0
-7315 7244 0
-1531 7163 7313 7241 7314 7315 0
1531 -7163 0
1531 -7313 0
1531 -7241 0
1531 -7314 0
1531 -7315 0
7316 -7194 -7219 0
-7316 7194 0
-7316 7219 0
7317 -7187 -7219 0
-7317 7187 0
-7317 7219 0
7318 -7187 -7224 0
-7318 7187 0
-7318 7224 0
7319 -7194 -7224 -7244 0
-7319 7194 0
-7319 7224 0
-7319 7244 0
-1535 7166 7316 7317 7318 7319 0
1535 -7166 0
1535 -7316 0
1535 -7317 0
1535 -7318 0
1535 -7319 0
7320 -7194 -7239 0
-7320 7194 0
-7320 7239 0
7321 -7187 -7229 0
-7321 7187 0
-7321 7229 0
7322 -7187 -7239 0
-7322 7187 0
-7322 7239 0
7323 -7194 -7229 -7244 0
-7323 7194 0
-7323 7229 0
-7323 7244 0
-1542 7173 7320 7321 7322 7323 0
1542 -7173 0
1542 -7320 0
1542 -7321 0
1542 -7322 0
1542 -7323 0
7324 -7196 -7239 0
-7324 7196 0
-7324 7239 0
7325 -7190 -7239 0
-7325 7190 0
-7325 7239 0
7326 -7190 -7229 0
-7326 7190 0
-7326 7229 0
7327 -7196 -7229 -7244 0
-7327 7196 0
-7327 7229 0
-7327 7244 0
-1544 7175 7324 7325 7326 7327 0
1544 -7175 0
1544 -7324 0
1544 -7325 0
1544 -7326 0
1544 -7327 0
7328 -7224 -7234 0
-7328 7224 0
-7328 7234 0
7329 -7219 -7204 0
-7329 7219 0
-7329 7204 0
7330 -7219 -7234 0
-7330 7219 0
-7330 7234 0
7331 -7224 -7204 -7244 0
-7331 7224 0
-7331 7204 0
-7331 7244 0
-1559 7209 7328 7329 7330 7331 0
1559 -7209 0
1559 -7328 0
1559 -7329 0
1559 -7330 0
1559 -7331 0
7332 -7224 -7190 0
-7332 7224 0
-7332 7190 0
7333 -7219 -7196 0
-7333 7219 0
-7333 7196 0
7334 -7219 -7190 0
-7334 7219 0
-7334 7190 0
7335 -7224 -7196 -7244 0
-7335 7224 0
-7335 7196 0
-7335 7244 0
-1538 7169 7332 7333 7334 7335 0
1538 -7169 0
1538 -7332 0
1538 -7333 0
1538 -7334 0
1538 -7335 0
7336 -7224 -7219 0
-7336 7224 0
-7336 7219 0
7337 -7219 -7219 0
-7337 7219 0
-7337 7219 0
7338 -7219 -7224 0
-7338 7219 0
-7338 7224 0
7339 -7224 -7224 -7244 0
-7339 7224 0
-7339 7224 0
-7339 7244 0
-1565 7214 7336 7337 7338 7339 0
1565 -7214 0
1565 -7336 0
1565 -7337 0
1565 -7338 0
1565 -7339 0
7340 -7341 -7341 0
-7340 7341 0
-7340 7341 0
-3694 7342 7340 0
3694 -7342 0
3694 -7340 0
7343 -7341 -7344 0
-7343 7341 0
-7343 7344 0
-4423 7345 7343 0
4423 -7345 0
4423 -7343 0
7346 -7341 -7347 0
-7346 7341 0
-7346 7347 0
-3692 7348 7346 0
3692 -7348 0
3692 -7346 0
7349 -7350 -7347 0
-7349 7350 0
-7349 7347 0
-3702 7351 7349 0
3702 -7351 0
3702 -7349 0
7352 -7341 -7353 0
-7352 7341 0
-7352 7353 0
-3697 7354 7352 0
3697 -7354 0
3697 -7352 0
7355 -7341 -7356 0
-7355 7341 0
-7355 7356 0
-3700 7357 7355 0
3700 -7357 0
3700 -7355 0
7358 -7350 -7356 0
-7358 7350 0
-7358 7356 0
-3703 7359 7358 0
3703 -7359 0
3703 -7358 0
7360 -7344 -7350 0
-7360 7344 0
-7360 7350 0
-4441 7361 7360 0
4441 -7361 0
4441 -7360 0
7362 -7344 -7344 0
-7362 7344 0
-7362 7344 0
-4427 7363 7362 0
4427 -7363 0
4427 -7362 0
7364 -7344 -7353 0
-7364 7344 0
-7364 7353 0
-4430 7365 7364 0
4430 -7365 0
4430 -7364 0
7366 -7344 -7356 0
-7366 7344 0
-7366 7356 0
-4435 7367 7366 0
4435 -7367 0
4435 -7366 0
7368 -7347 -7356 0
-7368 7347 0
-7368 7356 0
-3699 7369 7368 0
3699 -7369 0
3699 -7368 0
7370 -7353 -7350 0
-7370 7353 0
-7370 7350 0
-3705 7371 7370 0
3705 -7371 0
3705 -7370 0
7372 -7353 -7347 0
-7372 7353 0
-7372 7347 0
-3696 7373 7372 0
3696 -7373 0
3696 -7372 0
7374 -7353 -7353 0
-7374 7353 0
-7374 7353 0
-3708 7375 7374 0
3708 -7375 0
3708 -7374 0
7376 -7246 -7377 0
-7376 7246 0
-7376 7377 0
7378 -7377 -7377 0
-7378 7377 0
-7378 7377 0
7379 -7377 -7246 0
-7379 7377 0
-7379 7246 0
7380 -7246 -7246 -7381 0
-7380 7246 0
-7380 7246 0
-7380 7381 0
-4466 7247 7376 7378 7379 7380 0
4466 -7247 0
4466 -7376 0
4466 -7378 0
4466 -7379 0
4466 -7380 0
7382 -7246 -7383 0
-7382 7246 0
-7382 7383 0
7384 -7377 -7383 0
-7384 7377 0
-7384 7383 0
7385 -7377 -7249 0
-7385 7377 0
-7385 7249 0
7386 -7246 -7249 -7381 0
-7386 7246 0
-7386 7249 0
-7386 7381 0
-4462 7250 7382 7384 7385 7386 0
4462 -7250 0
4462 -7382 0
4462 -7384 0
4462 -7385 0
4462 -7386 0
7387 -7246 -7388 0
-7387 7246 0
-7387 7388 0
7389 -7377 -7252 0
-7389 7377 0
-7389 7252 0
7390 -7377 -7388 0
-7390 7377 0
-7390 7388 0
7391 -7246 -7252 -7381 0
-7391 7246 0
-7391 7252 0
-7391 7381 0
-4480 7253 7387 7389 7390 7391 0
4480 -7253 0
4480 -7387 0
4480 -7389 0
4480 -7390 0
4480 -7391 0
7392 -7255 -7388 0
-7392 7255 0
-7392 7388 0
7393 -7394 -7388 0
-7393 7394 0
-7393 7388 0
7395 -7394 -7252 0
-7395 7394 0
-7395 7252 0
7396 -7255 -7252 -7381 0
-7396 7255 0
-7396 7252 0
-7396 7381 0
-2378 7256 7392 7393 7395 7396 0
2378 -7256 0
2378 -7392 0
2378 -7393 0
2378 -7395 0
2378 -7396 0
7397 -7246 -7398 0
-7397 7246 0
-7397 7398 0
7399 -7377 -7398 0
-7399 7377 0
-7399 7398 0
7400 -7377 -7258 0
-7400 7377 0
-7400 7258 0
7401 -7246 -7258 -7381 0
-7401 7246 0
-7401 7258 0
-7401 7381 0
-4469 7259 7397 7399 7400 7401 0
4469 -7259 0
4469 -7397 0
4469 -7399 0
4469 -7400 0
4469 -7401 0
7402 -7246 -7403 0
-7402 7246 0
-7402 7403 0
7404 -7377 -7261 0
-7404 7377 0
-7404 7261 0
7405 -7377 -7403 0
-7405 7377 0
-7405 7403 0
7406 -7246 -7261 -7381 0
-7406 7246 0
-7406 7261 0
-7406 7381 0
-4474 7262 7402 7404 7405 7406 0
4474 -7262 0
4474 -7402 0
4474 -7404 0
4474 -7405 0
4474 -7406 0
7407 -7255 -7403 0
-7407 7255 0
-7407 7403 0
7408 -7394 -7403 0
-7408 7394 0
-7408 7403 0
7409 -7394 -7261 0
-7409 7394 0
-7409 7261 0
7410 -7255 -7261 -7381 0
-7410 7255 0
-7410 7261 0
-7410 7381 0
-2375 7264 7407 7408 7409 7410 0
2375 -7264 0
2375 -7407 0
2375 -7408 0
2375 -7409 0
2375 -7410 0
7411 -7249 -7394 0
-7411 7249 0
-7411 7394 0
7412 -7383 -7255 0
-7412 7383 0
-7412 7255 0
7413 -7383 -7394 0
-7413 7383 0
-7413 7394 0
7414 -7249 -7255 -7381 0
-7414 7249 0
-7414 7255 0
-7414 7381 0
-2368 7266 7411 7412 7413 7414 0
2368 -7266 0
2368 -7411 0
2368 -7412 0
2368 -7413 0
2368 -7414 0
7415 -7249 -7383 0
-7415 7249 0
-7415 7383 0
7416 -7383 -7383 0
-7416 7383 0
-7416 7383 0
7417 -7383 -7249 0
-7417 7383 0
-7417 7249 0
7418 -7249 -7249 -7381 0
-7418 7249 0
-7418 7249 0
-7418 7381 0
-2370 7268 7415 7416 7417 7418 0
2370 -7268 0
2370 -7415 0
2370 -7416 0
2370 -7417 0
2370 -7418 0
7419 -7249 -7398 0
-7419 7249 0
-7419 7398 0
7420 -7383 -7398 0
-7420 7383 0
-7420 7398 0
7421 -7383 -7258 0
-7421 7383 0
-7421 7258 0
7422 -7249 -7258 -7381 0
-7422 7249 0
-7422 7258 0
-7422 7381 0
-2373 7270 7419 7420 7421 7422 0
2373 -7270 0
2373 -7419 0
2373 -7420 0
2373 -7421 0
2373 -7422 0
7423 -7249 -7403 0
-7423 7249 0
-7423 7403 0
7424 -7383 -7261 0
-7424 7383 0
-7424 7261 0
7425 -7383 -7403 0
-7425 7383 0
-7425 7403 0
7426 -7249 -7261 -7381 0
-7426 7249 0
-7426 7261 0
-7426 7381 0
-2376 7272 7423 7424 7425 7426 0
2376 -7272 0
2376 -7423 0
2376 -7424 0
2376 -7425 0
2376 -7426 0
7427 -7252 -7403 0
-7427 7252 0
-7427 7403 0
7428 -7388 -7403 0
-7428 7388 0
-7428 7403 0
7429 -7388 -7261 0
-7429 7388 0
-7429 7261 0
7430 -7252 -7261 -7381 0
-7430 7252 0
-7430 7261 0
-7430 7381 0
-2379 7274 7427 7428 7429 7430 0
2379 -7274 0
2379 -7427 0
2379 -7428 0
2379 -7429 0
2379 -7430 0
7431 -7258 -7394 0
-7431 7258 0
-7431 7394 0
7432 -7398 -7255 0
-7432 7398 0
-7432 7255 0
7433 -7398 -7394 0
-7433 7398 0
-7433 7394 0
7434 -7258 -7255 -7381 0
-7434 7258 0
-7434 7255 0
-7434 7381 0
-2372 7276 7431 7432 7433 7434 0
2372 -7276 0
2372 -7431 0
2372 -7432 0
2372 -7433 0
2372 -7434 0
7435 -7258 -7388 0
-7435 7258 0
-7435 7388 0
7436 -7398 -7252 0
-7436 7398 0
-7436 7252 0
7437 -7398 -7388 0
-7437 7398 0
-7437 7388 0
7438 -7258 -7252 -7381 0
-7438 7258 0
-7438 7252 0
-7438 7381 0
-2381 7278 7435 7436 7437 7438 0
2381 -7278 0
2381 -7435 0
2381 -7436 0
2381 -7437 0
2381 -7438 0
7439 -7258 -7398 0
-7439 7258 0
-7439 7398 0
7440 -7398 -7398 0
-7440 7398 0
-7440 7398 0
7441 -7398 -7258 0
-7441 7398 0
-7441 7258 0
7442 -7258 -7258 -7381 0
-7442 7258 0
-7442 7258 0
-7442 7381 0
-2384 7280 7439 7440 7441 7442 0
2384 -7280 0
2384 -7439 0
2384 -7440 0
2384 -7441 0
2384 -7442 0
7443 -6894 -6894 0
-7443 6894 0
-7443 6894 0
-2930 6900 7443 0
2930 -6900 0
2930 -7443 0
7444 -6894 -6905 0
-7444 6894 0
-7444 6905 0
-2926 6907 7444 0
2926 -6907 0
2926 -7444 0
7445 -6894 -6911 0
-7445 6894 0
-7445 6911 0
-2950 6914 7445 0
2950 -6914 0
2950 -7445 0
7446 -6916 -6911 0
-7446 6916 0
-7446 6911 0
-2948 6921 7446 0
2948 -6921 0
2948 -7446 0
7447 -6894 -6926 0
-7447 6894 0
-7447 6926 0
-2934 6928 7447 0
2934 -6928 0
2934 -7447 0
7448 -6894 -6932 0
-7448 6894 0
-7448 6932 0
-2941 6935 7448 0
2941 -6935 0
2941 -7448 0
7449 -6916 -6932 0
-7449 6916 0
-7449 6932 0
-2943 6940 7449 0
2943 -6940 0
2943 -7449 0
7450 -6905 -6916 0
-7450 6905 0
-7450 6916 0
-2925 6945 7450 0
2925 -6945 0
2925 -7450 0
7451 -6905 -6905 0
-7451 6905 0
-7451 6905 0
-2932 6950 7451 0
2932 -6950 0
2932 -7451 0
7452 -6905 -6926 0
-7452 6905 0
-7452 6926 0
-2939 6955 7452 0
2939 -6955 0
2939 -7452 0
7453 -6905 -6932 0
-7453 6905 0
-7453 6932 0
-2946 6960 7453 0
2946 -6960 0
2946 -7453 0
7454 -6911 -6932 0
-7454 6911 0
-7454 6932 0
-2953 6965 7454 0
2953 -6965 0
2953 -7454 0
7455 -6926 -6916 0
-7455 6926 0
-7455 6916 0
-2937 6970 7455 0
2937 -6970 0
2937 -7455 0
7456 -6926 -6911 0
-7456 6926 0
-7456 6911 0
-2958 6975 7456 0
2958 -6975 0
2958 -7456 0
7457 -6926 -6926 0
-7457 6926 0
-7457 6926 0
-2964 6980 7457 0
2964 -6980 0
2964 -7457 0
7458 -7178 -7171 0
-7458 7178 0
-7458 7171 0
7459 -7171 -7171 0
-7459 7171 0
-7459 7171 0
7460 -7171 -7178 0
-7460 7171 0
-7460 7178 0
7461 -7178 -7178 -7214 0
-7461 7178 0
-7461 7178 0
-7461 7214 0
-1351 7164 7458 7459 7460 7461 0
1351 -7164 0
1351 -7458 0
1351 -7459 0
1351 -7460 0
1351 -7461 0
7462 -7178 -7166 0
-7462 7178 0
-7462 7166 0
7463 -7171 -7166 0
-7463 7171 0
-7463 7166 0
7464 -7171 -7173 0
-7464 7171 0
-7464 7173 0
7465 -7178 -7173 -7214 0
-7465 7178 0
-7465 7173 0
-7465 7214 0
-3372 7159 7462 7463 7464 7465 0
3372 -7159 0
3372 -7462 0
3372 -7463 0
3372 -7464 0
3372 -7465 0
7466 -7178 -7169 0
-7466 7178 0
-7466 7169 0
7467 -7171 -7175 0
-7467 7171 0
-7467 7175 0
7468 -7171 -7169 0
-7468 7171 0
-7468 7169 0
7469 -7178 -7175 -7214 0
-7469 7178 0
-7469 7175 0
-7469 7214 0
-1349 7158 7466 7467 7468 7469 0
1349 -7158 0
1349 -7466 0
1349 -7467 0
1349 -7468 0
1349 -7469 0
7470 -7185 -7169 0
-7470 7185 0
-7470 7169 0
7471 -7209 -7169 0
-7471 7209 0
-7471 7169 0
7472 -7209 -7175 0
-7472 7209 0
-7472 7175 0
7473 -7185 -7175 -7214 0
-7473 7185 0
-7473 7175 0
-7473 7214 0
-1359 7180 7470 7471 7472 7473 0
1359 -7180 0
1359 -7470 0
1359 -7471 0
1359 -7472 0
1359 -7473 0
7474 -7178 -7219 0
-7474 7178 0
-7474 7219 0
7475 -7171 -7219 0
-7475 7171 0
-7475 7219 0
7476 -7171 -7239 0
-7476 7171 0
-7476 7239 0
7477 -7178 -7239 -7214 0
-7477 7178 0
-7477 7239 0
-7477 7214 0
-1354 7192 7474 7475 7476 7477 0
1354 -7192 0
1354 -7474 0
1354 -7475 0
1354 -7476 0
1354 -7477 0
7478 -7178 -7224 0
-7478 7178 0
-7478 7224 0
7479 -7171 -7229 0
-7479 7171 0
-7479 7229 0
7480 -7171 -7224 0
-7480 7171 0
-7480 7224 0
7481 -7178 -7229 -7214 0
-7481 7178 0
-7481 7229 0
-7481 7214 0
-1357 7199 7478 7479 7480 7481 0
1357 -7199 0
1357 -7478 0
1357 -7479 0
1357 -7480 0
1357 -7481 0
7482 -7185 -7224 0
-7482 7185 0
-7482 7224 0
7483 -7209 -7224 0
-7483 7209 0
-7483 7224 0
7484 -7209 -7229 0
-7484 7209 0
-7484 7229 0
7485 -7185 -7229 -7214 0
-7485 7185 0
-7485 7229 0
-7485 7214 0
-1360 7204 7482 7483 7484 7485 0
1360 -7204 0
1360 -7482 0
1360 -7483 0
1360 -7484 0
1360 -7485 0
7486 -7173 -7209 0
-7486 7173 0
-7486 7209 0
7487 -7166 -7185 0
-7487 7166 0
-7487 7185 0
7488 -7166 -7209 0
-7488 7166 0
-7488 7209 0
7489 -7173 -7185 -7214 0
-7489 7173 0
-7489 7185 0
-7489 7214 0
-3050 7182 7486 7487 7488 7489 0
3050 -7182 0
3050 -7486 0
3050 -7487 0
3050 -7488 0
3050 -7489 0
7490 -7173 -7166 0
-7490 7173 0
-7490 7166 0
7211 -7166 -7166 0
-7211 7166 0
-7211 7166 0
7491 -7166 -7173 0
-7491 7166 0
-7491 7173 0
7492 -7173 -7173 -7214 0
-7492 7173 0
-7492 7173 0
-7492 7214 0
-3052 7163 7490 7211 7491 7492 0
3052 -7163 0
3052 -7490 0
3052 -7211 0
3052 -7491 0
3052 -7492 0
7493 -7173 -7219 0
-7493 7173 0
-7493 7219 0
7494 -7166 -7219 0
-7494 7166 0
-7494 7219 0
7495 -7166 -7239 0
-7495 7166 0
-7495 7239 0
7496 -7173 -7239 -7214 0
-7496 7173 0
-7496 7239 0
-7496 7214 0
-3054 7187 7493 7494 7495 7496 0
3054 -7187 0
3054 -7493 0
3054 -7494 0
3054 -7495 0
3054 -7496 0
7497 -7173 -7224 0
-7497 7173 0
-7497 7224 0
7498 -7166 -7229 0
-7498 7166 0
-7498 7229 0
7499 -7166 -7224 0
-7499 7166 0
-7499 7224 0
7500 -7173 -7229 -7214 0
-7500 7173 0
-7500 7229 0
-7500 7214 0
-3056 7194 7497 7498 7499 7500 0
3056 -7194 0
3056 -7497 0
3056 -7498 0
3056 -7499 0
3056 -7500 0
7501 -7175 -7224 0
-7501 7175 0
-7501 7224 0
7502 -7169 -7224 0
-7502 7169 0
-7502 7224 0
7503 -7169 -7229 0
-7503 7169 0
-7503 7229 0
7504 -7175 -7229 -7214 0
-7504 7175 0
-7504 7229 0
-7504 7214 0
-1356 7196 7501 7502 7503 7504 0
1356 -7196 0
1356 -7501 0
1356 -7502 0
1356 -7503 0
1356 -7504 0
7505 -7239 -7209 0
-7505 7239 0
-7505 7209 0
7506 -7219 -7185 0
-7506 7219 0
-7506 7185 0
7507 -7219 -7209 0
-7507 7219 0
-7507 7209 0
7508 -7239 -7185 -7214 0
-7508 7239 0
-7508 7185 0
-7508 7214 0
-1362 7234 7505 7506 7507 7508 0
1362 -7234 0
1362 -7505 0
1362 -7506 0
1362 -7507 0
1362 -7508 0
7509 -7239 -7169 0
-7509 7239 0
-7509 7169 0
7510 -7219 -7175 0
-7510 7219 0
-7510 7175 0
7511 -7219 -7169 0
-7511 7219 0
-7511 7169 0
7512 -7239 -7175 -7214 0
-7512 7239 0
-7512 7175 0
-7512 7214 0
-1353 7190 7509 7510 7511 7512 0
1353 -7190 0
1353 -7509 0
1353 -7510 0
1353 -7511 0
1353 -7512 0
7513 -7239 -7219 0
-7513 7239 0
-7513 7219 0
7337 -7219 -7219 0
-7337 7219 0
-7337 7219 0
7514 -7219 -7239 0
-7514 7219 0
-7514 7239 0
7515 -7239 -7239 -7214 0
-7515 7239 0
-7515 7239 0
-7515 7214 0
-1365 7244 7513 7337 7514 7515 0
1365 -7244 0
1365 -7513 0
1365 -7337 0
1365 -7514 0
1365 -7515 0
7516 -7517 -7517 0
-7516 7517 0
-7516 7517 0
-2784 7518 7516 0
2784 -7518 0
2784 -7516 0
7519 -7517 -7520 0
-7519 7517 0
-7519 7520 0
-2780 7521 7519 0
2780 -7521 0
2780 -7519 0
7522 -7517 -7523 0
-7522 7517 0
-7522 7523 0
-2804 7524 7522 0
2804 -7524 0
2804 -7522 0
7525 -7526 -7523 0
-7525 7526 0
-7525 7523 0
-2802 7527 7525 0
2802 -7527 0
2802 -7525 0
7528 -7517 -7529 0
-7528 7517 0
-7528 7529 0
-2788 7530 7528 0
2788 -7530 0
2788 -7528 0
7531 -7517 -7532 0
-7531 7517 0
-7531 7532 0
-2795 7533 7531 0
2795 -7533 0
2795 -7531 0
7534 -7526 -7532 0
-7534 7526 0
-7534 7532 0
-2797 7535 7534 0
2797 -7535 0
2797 -7534 0
7536 -7520 -7526 0
-7536 7520 0
-7536 7526 0
-2779 7537 7536 0
2779 -7537 0
2779 -7536 0
7538 -7520 -7520 0
-7538 7520 0
-7538 7520 0
-2786 7539 7538 0
2786 -7539 0
2786 -7538 0
7540 -7520 -7529 0
-7540 7520 0
-7540 7529 0
-2793 7541 7540 0
2793 -7541 0
2793 -7540 0
7542 -7520 -7532 0
-7542 7520 0
-7542 7532 0
-2800 7543 7542 0
2800 -7543 0
2800 -7542 0
7544 -7523 -7532 0
-7544 7523 0
-7544 7532 0
-2807 7545 7544 0
2807 -7545 0
2807 -7544 0
7546 -7529 -7526 0
-7546 7529 0
-7546 7526 0
-2791 7547 7546 0
2791 -7547 0
2791 -7546 0
7548 -7529 -7523 0
-7548 7529 0
-7548 7523 0
-2812 7549 7548 0
2812 -7549 0
2812 -7548 0
7550 -7529 -7529 0
-7550 7529 0
-7550 7529 0
-2818 7551 7550 0
2818 -7551 0
2818 -7550 0
7552 -6790 -6783 0
-7552 6790 0
-7552 6783 0
7553 -6783 -6783 0
-7553 6783 0
-7553 6783 0
7554 -6783 -6790 0
-7554 6783 0
-7554 6790 0
7555 -6790 -6790 -6826 0
-7555 6790 0
-7555 6790 0
-7555 6826 0
-2149 6776 7552 7553 7554 7555 0
2149 -6776 0
2149 -7552 0
2149 -7553 0
2149 -7554 0
2149 -7555 0
7556 -6790 -6778 0
-7556 6790 0
-7556 6778 0
7557 -6783 -6778 0
-7557 6783 0
-7557 6778 0
7558 -6783 -6785 0
-7558 6783 0
-7558 6785 0
7559 -6790 -6785 -6826 0
-7559 6790 0
-7559 6785 0
-7559 6826 0
-2145 6771 7556 7557 7558 7559 0
2145 -6771 0
2145 -7556 0
2145 -7557 0
2145 -7558 0
2145 -7559 0
7560 -6790 -6781 0
-7560 6790 0
-7560 6781 0
7561 -6783 -6787 0
-7561 6783 0
-7561 6787 0
7562 -6783 -6781 0
-7562 6783 0
-7562 6781 0
7563 -6790 -6787 -6826 0
-7563 6790 0
-7563 6787 0
-7563 6826 0
-2169 6770 7560 7561 7562 7563 0
2169 -6770 0
2169 -7560 0
2169 -7561 0
2169 -7562 0
2169 -7563 0
7564 -6797 -6781 0
-7564 6797 0
-7564 6781 0
7565 -6821 -6781 0
-7565 6821 0
-7565 6781 0
7566 -6821 -6787 0
-7566 6821 0
-7566 6787 0
7567 -6797 -6787 -6826 0
-7567 6797 0
-7567 6787 0
-7567 6826 0
-2167 6792 7564 7565 7566 7567 0
2167 -6792 0
2167 -7564 0
2167 -7565 0
2167 -7566 0
2167 -7567 0
7568 -6790 -6831 0
-7568 6790 0
-7568 6831 0
7569 -6783 -6831 0
-7569 6783 0
-7569 6831 0
7570 -6783 -6851 0
-7570 6783 0
-7570 6851 0
7571 -6790 -6851 -6826 0
-7571 6790 0
-7571 6851 0
-7571 6826 0
-2153 6804 7568 7569 7570 7571 0
2153 -6804 0
2153 -7568 0
2153 -7569 0
2153 -7570 0
2153 -7571 0
7572 -6790 -6836 0
-7572 6790 0
-7572 6836 0
7573 -6783 -6841 0
-7573 6783 0
-7573 6841 0
7574 -6783 -6836 0
-7574 6783 0
-7574 6836 0
7575 -6790 -6841 -6826 0
-7575 6790 0
-7575 6841 0
-7575 6826 0
-2160 6811 7572 7573 7574 7575 0
2160 -6811 0
2160 -7572 0
2160 -7573 0
2160 -7574 0
2160 -7575 0
7576 -6797 -6836 0
-7576 6797 0
-7576 6836 0
7577 -6821 -6836 0
-7577 6821 0
-7577 6836 0
7578 -6821 -6841 0
-7578 6821 0
-7578 6841 0
7579 -6797 -6841 -6826 0
-7579 6797 0
-7579 6841 0
-7579 6826 0
-2162 6816 7576 7577 7578 7579 0
2162 -6816 0
2162 -7576 0
2162 -7577 0
2162 -7578 0
2162 -7579 0
7580 -6785 -6821 0
-7580 6785 0
-7580 6821 0
7581 -6778 -6797 0
-7581 6778 0
-7581 6797 0
7582 -6778 -6821 0
-7582 6778 0
-7582 6821 0
7583 -6785 -6797 -6826 0
-7583 6785 0
-7583 6797 0
-7583 6826 0
-2144 6794 7580 7581 7582 7583 0
2144 -6794 0
2144 -7580 0
2144 -7581 0
2144 -7582 0
2144 -7583 0
7584 -6785 -6778 0
-7584 6785 0
-7584 6778 0
6823 -6778 -6778 0
-6823 6778 0
-6823 6778 0
7585 -6778 -6785 0
-7585 6778 0
-7585 6785 0
7586 -6785 -6785 -6826 0
-7586 6785 0
-7586 6785 0
-7586 6826 0
-2151 6775 7584 6823 7585 7586 0
2151 -6775 0
2151 -7584 0
2151 -6823 0
2151 -7585 0
2151 -7586 0
7587 -6785 -6831 0
-7587 6785 0
-7587 6831 0
7588 -6778 -6831 0
-7588 6778 0
-7588 6831 0
7589 -6778 -6851 0
-7589 6778 0
-7589 6851 0
7590 -6785 -6851 -6826 0
-7590 6785 0
-7590 6851 0
-7590 6826 0
-2158 6799 7587 7588 7589 7590 0
2158 -6799 0
2158 -7587 0
2158 -7588 0
2158 -7589 0
2158 -7590 0
7591 -6785 -6836 0
-7591 6785 0
-7591 6836 0
7592 -6778 -6841 0
-7592 6778 0
-7592 6841 0
7593 -6778 -6836 0
-7593 6778 0
-7593 6836 0
7594 -6785 -6841 -6826 0
-7594 6785 0
-7594 6841 0
-7594 6826 0
-2165 6806 7591 7592 7593 7594 0
2165 -6806 0
2165 -7591 0
2165 -7592 0
2165 -7593 0
2165 -7594 0
7595 -6787 -6836 0
-7595 6787 0
-7595 6836 0
7596 -6781 -6836 0
-7596 6781 0
-7596 6836 0
7597 -6781 -6841 0
-7597 6781 0
-7597 6841 0
7598 -6787 -6841 -6826 0
-7598 6787 0
-7598 6841 0
-7598 6826 0
-2172 6808 7595 7596 7597 7598 0
2172 -6808 0
2172 -7595 0
2172 -7596 0
2172 -7597 0
2172 -7598 0
7599 -6851 -6821 0
-7599 6851 0
-7599 6821 0
7600 -6831 -6797 0
-7600 6831 0
-7600 6797 0
7601 -6831 -6821 0
-7601 6831 0
-7601 6821 0
7602 -6851 -6797 -6826 0
-7602 6851 0
-7602 6797 0
-7602 6826 0
-2156 6846 7599 7600 7601 7602 0
2156 -6846 0
2156 -7599 0
2156 -7600 0
2156 -7601 0
2156 -7602 0
7603 -6851 -6781 0
-7603 6851 0
-7603 6781 0
7604 -6831 -6787 0
-7604 6831 0
-7604 6787 0
7605 -6831 -6781 0
-7605 6831 0
-7605 6781 0
7606 -6851 -6787 -6826 0
-7606 6851 0
-7606 6787 0
-7606 6826 0
-2177 6802 7603 7604 7605 7606 0
2177 -6802 0
2177 -7603 0
2177 -7604 0
2177 -7605 0
2177 -7606 0
7607 -6851 -6831 0
-7607 6851 0
-7607 6831 0
7608 -6831 -6831 0
-7608 6831 0
-7608 6831 0
7609 -6831 -6851 0
-7609 6831 0
-7609 6851 0
7610 -6851 -6851 -6826 0
-7610 6851 0
-7610 6851 0
-7610 6826 0
-2183 6856 7607 7608 7609 7610 0
2183 -6856 0
2183 -7607 0
2183 -7608 0
2183 -7609 0
2183 -7610 0
7611 -7178 -7178 0
-7611 7178 0
-7611 7178 0
-4302 7164 7611 0
4302 -7164 0
4302 -7611 0
7612 -7178 -7173 0
-7612 7178 0
-7612 7173 0
-4297 7159 7612 0
4297 -7159 0
4297 -7612 0
7613 -7178 -7175 0
-7613 7178 0
-7613 7175 0
-4296 7158 7613 0
4296 -7158 0
4296 -7613 0
7614 -7185 -7175 0
-7614 7185 0
-7614 7175 0
-1577 7180 7614 0
1577 -7180 0
1577 -7614 0
7615 -7178 -7239 0
-7615 7178 0
-7615 7239 0
-4307 7192 7615 0
4307 -7192 0
4307 -7615 0
7616 -7178 -7229 0
-7616 7178 0
-7616 7229 0
-4312 7199 7616 0
4312 -7199 0
4312 -7616 0
7617 -7185 -7229 0
-7617 7185 0
-7617 7229 0
-1574 7204 7617 0
1574 -7204 0
1574 -7617 0
7618 -7173 -7185 0
-7618 7173 0
-7618 7185 0
-1567 7182 7618 0
1567 -7182 0
1567 -7618 0
7619 -7173 -7173 0
-7619 7173 0
-7619 7173 0
-1569 7163 7619 0
1569 -7163 0
1569 -7619 0
7620 -7173 -7239 0
-7620 7173 0
-7620 7239 0
-1572 7187 7620 0
1572 -7187 0
1572 -7620 0
7621 -7173 -7229 0
-7621 7173 0
-7621 7229 0
-1575 7194 7621 0
1575 -7194 0
1575 -7621 0
7622 -7175 -7229 0
-7622 7175 0
-7622 7229 0
-1578 7196 7622 0
1578 -7196 0
1578 -7622 0
7623 -7239 -7185 0
-7623 7239 0
-7623 7185 0
-1571 7234 7623 0
1571 -7234 0
1571 -7623 0
7624 -7239 -7175 0
-7624 7239 0
-7624 7175 0
-1580 7190 7624 0
1580 -7190 0
1580 -7624 0
7625 -7239 -7239 0
-7625 7239 0
-7625 7239 0
-1583 7244 7625 0
1583 -7244 0
1583 -7625 0
7626 -6935 -6928 0
-7626 6935 0
-7626 6928 0
7627 -6928 -6928 0
-7627 6928 0
-7627 6928 0
7628 -6928 -6935 0
-7628 6928 0
-7628 6935 0
7629 -6935 -6935 -6980 0
-7629 6935 0
-7629 6935 0
-7629 6980 0
-3356 6900 7626 7627 7628 7629 0
3356 -6900 0
3356 -7626 0
3356 -7627 0
3356 -7628 0
3356 -7629 0
7630 -6935 -6923 0
-7630 6935 0
-7630 6923 0
7631 -6928 -6923 0
-7631 6928 0
-7631 6923 0
7632 -6928 -6930 0
-7632 6928 0
-7632 6930 0
7633 -6935 -6930 -6980 0
-7633 6935 0
-7633 6930 0
-7633 6980 0
-3517 6895 7630 7631 7632 7633 0
3517 -6895 0
3517 -7630 0
3517 -7631 0
3517 -7632 0
3517 -7633 0
7634 -6935 -6926 0
-7634 6935 0
-7634 6926 0
7635 -6928 -6932 0
-7635 6928 0
-7635 6932 0
7636 -6928 -6926 0
-7636 6928 0
-7636 6926 0
7637 -6935 -6932 -6980 0
-7637 6935 0
-7637 6932 0
-7637 6980 0
-3354 6894 7634 7635 7636 7637 0
3354 -6894 0
3354 -7634 0
3354 -7635 0
3354 -7636 0
3354 -7637 0
7638 -6940 -6926 0
-7638 6940 0
-7638 6926 0
7639 -6970 -6926 0
-7639 6970 0
-7639 6926 0
7640 -6970 -6932 0
-7640 6970 0
-7640 6932 0
7641 -6940 -6932 -6980 0
-7641 6940 0
-7641 6932 0
-7641 6980 0
-3364 6916 7638 7639 7640 7641 0
3364 -6916 0
3364 -7638 0
3364 -7639 0
3364 -7640 0
3364 -7641 0
7642 -6935 -6955 0
-7642 6935 0
-7642 6955 0
7643 -6928 -6955 0
-7643 6928 0
-7643 6955 0
7644 -6928 -6960 0
-7644 6928 0
-7644 6960 0
7645 -6935 -6960 -6980 0
-7645 6935 0
-7645 6960 0
-7645 6980 0
-3359 6907 7642 7643 7644 7645 0
3359 -6907 0
3359 -7642 0
3359 -7643 0
3359 -7644 0
3359 -7645 0
7646 -6935 -6975 0
-7646 6935 0
-7646 6975 0
7647 -6928 -6965 0
-7647 6928 0
-7647 6965 0
7648 -6928 -6975 0
-7648 6928 0
-7648 6975 0
7649 -6935 -6965 -6980 0
-7649 6935 0
-7649 6965 0
-7649 6980 0
-3362 6914 7646 7647 7648 7649 0
3362 -6914 0
3362 -7646 0
3362 -7647 0
3362 -7648 0
3362 -7649 0
7650 -6940 -6975 0
-7650 6940 0
-7650 6975 0
7651 -6970 -6975 0
-7651 6970 0
-7651 6975 0
7652 -6970 -6965 0
-7652 6970 0
-7652 6965 0
7653 -6940 -6965 -6980 0
-7653 6940 0
-7653 6965 0
-7653 6980 0
-3365 6921 7650 7651 7652 7653 0
3365 -6921 0
3365 -7650 0
3365 -7651 0
3365 -7652 0
3365 -7653 0
7654 -6930 -6970 0
-7654 6930 0
-7654 6970 0
7655 -6923 -6940 0
-7655 6923 0
-7655 6940 0
7656 -6923 -6970 0
-7656 6923 0
-7656 6970 0
7657 -6930 -6940 -6980 0
-7657 6930 0
-7657 6940 0
-7657 6980 0
-3521 6918 7654 7655 7656 7657 0
3521 -6918 0
3521 -7654 0
3521 -7655 0
3521 -7656 0
3521 -7657 0
7658 -6930 -6923 0
-7658 6930 0
-7658 6923 0
6977 -6923 -6923 0
-6977 6923 0
-6977 6923 0
7659 -6923 -6930 0
-7659 6923 0
-7659 6930 0
7660 -6930 -6930 -6980 0
-7660 6930 0
-7660 6930 0
-7660 6980 0
-3524 6899 7658 6977 7659 7660 0
3524 -6899 0
3524 -7658 0
3524 -6977 0
3524 -7659 0
3524 -7660 0
7661 -6930 -6955 0
-7661 6930 0
-7661 6955 0
7662 -6923 -6955 0
-7662 6923 0
-7662 6955 0
7663 -6923 -6960 0
-7663 6923 0
-7663 6960 0
7664 -6930 -6960 -6980 0
-7664 6930 0
-7664 6960 0
-7664 6980 0
-3554 6902 7661 7662 7663 7664 0
3554 -6902 0
3554 -7661 0
3554 -7662 0
3554 -7663 0
3554 -7664 0
7665 -6930 -6975 0
-7665 6930 0
-7665 6975 0
7666 -6923 -6965 0
-7666 6923 0
-7666 6965 0
7667 -6923 -6975 0
-7667 6923 0
-7667 6975 0
7668 -6930 -6965 -6980 0
-7668 6930 0
-7668 6965 0
-7668 6980 0
-3516 6909 7665 7666 7667 7668 0
3516 -6909 0
3516 -7665 0
3516 -7666 0
3516 -7667 0
3516 -7668 0
7669 -6932 -6975 0
-7669 6932 0
-7669 6975 0
7670 -6926 -6975 0
-7670 6926 0
-7670 6975 0
7671 -6926 -6965 0
-7671 6926 0
-7671 6965 0
7672 -6932 -6965 -6980 0
-7672 6932 0
-7672 6965 0
-7672 6980 0
-3361 6911 7669 7670 7671 7672 0
3361 -6911 0
3361 -7669 0
3361 -7670 0
3361 -7671 0
3361 -7672 0
7673 -6960 -6970 0
-7673 6960 0
-7673 6970 0
7674 -6955 -6940 0
-7674 6955 0
-7674 6940 0
7675 -6955 -6970 0
-7675 6955 0
-7675 6970 0
7676 -6960 -6940 -6980 0
-7676 6960 0
-7676 6940 0
-7676 6980 0
-3367 6945 7673 7674 7675 7676 0
3367 -6945 0
3367 -7673 0
3367 -7674 0
3367 -7675 0
3367 -7676 0
7677 -6960 -6926 0
-7677 6960 0
-7677 6926 0
7678 -6955 -6932 0
-7678 6955 0
-7678 6932 0
7679 -6955 -6926 0
-7679 6955 0
-7679 6926 0
7680 -6960 -6932 -6980 0
-7680 6960 0
-7680 6932 0
-7680 6980 0
-3358 6905 7677 7678 7679 7680 0
3358 -6905 0
3358 -7677 0
3358 -7678 0
3358 -7679 0
3358 -7680 0
7681 -6960 -6955 0
-7681 6960 0
-7681 6955 0
7682 -6955 -6955 0
-7682 6955 0
-7682 6955 0
7683 -6955 -6960 0
-7683 6955 0
-7683 6960 0
7684 -6960 -6960 -6980 0
-7684 6960 0
-7684 6960 0
-7684 6980 0
-3370 6950 7681 7682 7683 7684 0
3370 -6950 0
3370 -7681 0
3370 -7682 0
3370 -7683 0
3370 -7684 0
7685 -6615 -6615 0
-7685 6615 0
-7685 6615 0
-4497 6621 7685 0
4497 -6621 0
4497 -7685 0
7686 -6615 -6626 0
-7686 6615 0
-7686 6626 0
-4493 6628 7686 0
4493 -6628 0
4493 -7686 0
7687 -6615 -6632 0
-7687 6615 0
-7687 6632 0
-4511 6635 7687 0
4511 -6635 0
4511 -7687 0
7688 -6637 -6632 0
-7688 6637 0
-7688 6632 0
-1459 6642 7688 0
1459 -6642 0
1459 -7688 0
7689 -6615 -6647 0
-7689 6615 0
-7689 6647 0
-4500 6649 7689 0
4500 -6649 0
4500 -7689 0
7690 -6615 -6653 0
-7690 6615 0
-7690 6653 0
-4505 6656 7690 0
4505 -6656 0
4505 -7690 0
7691 -6637 -6653 0
-7691 6637 0
-7691 6653 0
-1456 6661 7691 0
1456 -6661 0
1456 -7691 0
7692 -6626 -6637 0
-7692 6626 0
-7692 6637 0
-1449 6666 7692 0
1449 -6666 0
1449 -7692 0
7693 -6626 -6626 0
-7693 6626 0
-7693 6626 0
-1451 6671 7693 0
1451 -6671 0
1451 -7693 0
7694 -6626 -6647 0
-7694 6626 0
-7694 6647 0
-1454 6676 7694 0
1454 -6676 0
1454 -7694 0
7695 -6626 -6653 0
-7695 6626 0
-7695 6653 0
-1457 6681 7695 0
1457 -6681 0
1457 -7695 0
7696 -6632 -6653 0
-7696 6632 0
-7696 6653 0
-1460 6686 7696 0
1460 -6686 0
1460 -7696 0
7697 -6647 -6637 0
-7697 6647 0
-7697 6637 0
-1453 6691 7697 0
1453 -6691 0
1453 -7697 0
7698 -6647 -6632 0
-7698 6647 0
-7698 6632 0
-1462 6696 7698 0
1462 -6696 0
1462 -7698 0
7699 -6647 -6647 0
-7699 6647 0
-7699 6647 0
-1465 6701 7699 0
1465 -6701 0
1465 -7699 0
7700 -6635 -6635 0
-7700 6635 0
-7700 6635 0
-2208 6621 7700 0
2208 -6621 0
2208 -7700 0
7701 -6635 -6630 0
-7701 6635 0
-7701 6630 0
-2204 6616 7701 0
2204 -6616 0
2204 -7701 0
7702 -6635 -6632 0
-7702 6635 0
-7702 6632 0
-2228 6615 7702 0
2228 -6615 0
2228 -7702 0
7703 -6642 -6632 0
-7703 6642 0
-7703 6632 0
-2226 6637 7703 0
2226 -6637 0
2226 -7703 0
7704 -6635 -6696 0
-7704 6635 0
-7704 6696 0
-2212 6649 7704 0
2212 -6649 0
2212 -7704 0
7705 -6635 -6686 0
-7705 6635 0
-7705 6686 0
-2219 6656 7705 0
2219 -6656 0
2219 -7705 0
7706 -6642 -6686 0
-7706 6642 0
-7706 6686 0
-2221 6661 7706 0
2221 -6661 0
2221 -7706 0
7707 -6630 -6642 0
-7707 6630 0
-7707 6642 0
-2203 6639 7707 0
2203 -6639 0
2203 -7707 0
7708 -6630 -6630 0
-7708 6630 0
-7708 6630 0
-2210 6620 7708 0
2210 -6620 0
2210 -7708 0
7709 -6630 -6696 0
-7709 6630 0
-7709 6696 0
-2217 6644 7709 0
2217 -6644 0
2217 -7709 0
7710 -6630 -6686 0
-7710 6630 0
-7710 6686 0
-2224 6651 7710 0
2224 -6651 0
2224 -7710 0
7711 -6632 -6686 0
-7711 6632 0
-7711 6686 0
-2231 6653 7711 0
2231 -6653 0
2231 -7711 0
7712 -6696 -6642 0
-7712 6696 0
-7712 6642 0
-2215 6691 7712 0
2215 -6691 0
2215 -7712 0
7713 -6696 -6632 0
-7713 6696 0
-7713 6632 0
-2236 6647 7713 0
2236 -6647 0
2236 -7713 0
7714 -6696 -6696 0
-7714 6696 0
-7714 6696 0
-2242 6701 7714 0
2242 -6701 0
2242 -7714 0
7715 -7716 -7717 0
-7715 7716 0
-7715 7717 0
7718 -7717 -7717 0
-7718 7717 0
-7718 7717 0
7719 -7717 -7716 0
-7719 7717 0
-7719 7716 0
7720 -7716 -7716 -7721 0
-7720 7716 0
-7720 7716 0
-7720 7721 0
-5731 7722 7715 7718 7719 7720 0
5731 -7722 0
5731 -7715 0
5731 -7718 0
5731 -7719 0
5731 -7720 0
7723 -7716 -7724 0
-7723 7716 0
-7723 7724 0
7725 -7717 -7724 0
-7725 7717 0
-7725 7724 0
7726 -7717 -7727 0
-7726 7717 0
-7726 7727 0
7728 -7716 -7727 -7721 0
-7728 7716 0
-7728 7727 0
-7728 7721 0
-5727 7729 7723 7725 7726 7728 0
5727 -7729 0
5727 -7723 0
5727 -7725 0
5727 -7726 0
5727 -7728 0
7730 -7716 -7731 0
-7730 7716 0
-7730 7731 0
7732 -7717 -7733 0
-7732 7717 0
-7732 7733 0
7734 -7717 -7731 0
-7734 7717 0
-7734 7731 0
7735 -7716 -7733 -7721 0
-7735 7716 0
-7735 7733 0
-7735 7721 0
-5745 7736 7730 7732 7734 7735 0
5745 -7736 0
5745 -7730 0
5745 -7732 0
5745 -7734 0
5745 -7735 0
7737 -7738 -7731 0
-7737 7738 0
-7737 7731 0
7739 -7740 -7731 0
-7739 7740 0
-7739 7731 0
7741 -7740 -7733 0
-7741 7740 0
-7741 7733 0
7742 -7738 -7733 -7721 0
-7742 7738 0
-7742 7733 0
-7742 7721 0
-3185 7743 7737 7739 7741 7742 0
3185 -7743 0
3185 -7737 0
3185 -7739 0
3185 -7741 0
3185 -7742 0
7744 -7716 -7745 0
-7744 7716 0
-7744 7745 0
7746 -7717 -7745 0
-7746 7717 0
-7746 7745 0
7747 -7717 -7748 0
-7747 7717 0
-7747 7748 0
7749 -7716 -7748 -7721 0
-7749 7716 0
-7749 7748 0
-7749 7721 0
-5734 7750 7744 7746 7747 7749 0
5734 -7750 0
5734 -7744 0
5734 -7746 0
5734 -7747 0
5734 -7749 0
7751 -7716 -7752 0
-7751 7716 0
-7751 7752 0
7753 -7717 -7754 0
-7753 7717 0
-7753 7754 0
7755 -7717 -7752 0
-7755 7717 0
-7755 7752 0
7756 -7716 -7754 -7721 0
-7756 7716 0
-7756 7754 0
-7756 7721 0
-5739 7757 7751 7753 7755 7756 0
5739 -7757 0
5739 -7751 0
5739 -7753 0
5739 -7755 0
5739 -7756 0
7758 -7738 -7752 0
-7758 7738 0
-7758 7752 0
7759 -7740 -7752 0
-7759 7740 0
-7759 7752 0
7760 -7740 -7754 0
-7760 7740 0
-7760 7754 0
7761 -7738 -7754 -7721 0
-7761 7738 0
-7761 7754 0
-7761 7721 0
-3182 7762 7758 7759 7760 7761 0
3182 -7762 0
3182 -7758 0
3182 -7759 0
3182 -7760 0
3182 -7761 0
7763 -7727 -7740 0
-7763 7727 0
-7763 7740 0
7764 -7724 -7738 0
-7764 7724 0
-7764 7738 0
7765 -7724 -7740 0
-7765 7724 0
-7765 7740 0
7766 -7727 -7738 -7721 0
-7766 7727 0
-7766 7738 0
-7766 7721 0
-3175 7767 7763 7764 7765 7766 0
3175 -7767 0
3175 -7763 0
3175 -7764 0
3175 -7765 0
3175 -7766 0
7768 -7727 -7724 0
-7768 7727 0
-7768 7724 0
7769 -7724 -7724 0
-7769 7724 0
-7769 7724 0
7770 -7724 -7727 0
-7770 7724 0
-7770 7727 0
7771 -7727 -7727 -7721 0
-7771 7727 0
-7771 7727 0
-7771 7721 0
-3177 7772 7768 7769 7770 7771 0
3177 -7772 0
3177 -7768 0
3177 -7769 0
3177 -7770 0
3177 -7771 0
7773 -7727 -7745 0
-7773 7727 0
-7773 7745 0
7774 -7724 -7745 0
-7774 7724 0
-7774 7745 0
7775 -7724 -7748 0
-7775 7724 0
-7775 7748 0
7776 -7727 -7748 -7721 0
-7776 7727 0
-7776 7748 0
-7776 7721 0
-3180 7777 7773 7774 7775 7776 0
3180 -7777 0
3180 -7773 0
3180 -7774 0
3180 -7775 0
3180 -7776 0
7778 -7727 -7752 0
-7778 7727 0
-7778 7752 0
7779 -7724 -7754 0
-7779 7724 0
-7779 7754 0
7780 -7724 -7752 0
-7780 7724 0
-7780 7752 0
7781 -7727 -7754 -7721 0
-7781 7727 0
-7781 7754 0
-7781 7721 0
-3183 7782 7778 7779 7780 7781 0
3183 -7782 0
3183 -7778 0
3183 -7779 0
3183 -7780 0
3183 -7781 0
7783 -7733 -7752 0
-7783 7733 0
-7783 7752 0
7784 -7731 -7752 0
-7784 7731 0
-7784 7752 0
7785 -7731 -7754 0
-7785 7731 0
-7785 7754 0
7786 -7733 -7754 -7721 0
-7786 7733 0
-7786 7754 0
-7786 7721 0
-3186 7787 7783 7784 7785 7786 0
3186 -7787 0
3186 -7783 0
3186 -7784 0
3186 -7785 0
3186 -7786 0
7788 -7748 -7740 0
-7788 7748 0
-7788 7740 0
7789 -7745 -7738 0
-7789 7745 0
-7789 7738 0
7790 -7745 -7740 0
-7790 7745 0
-7790 7740 0
7791 -7748 -7738 -7721 0
-7791 7748 0
-7791 7738 0
-7791 7721 0
-3179 7792 7788 7789 7790 7791 0
3179 -7792 0
3179 -7788 0
3179 -7789 0
3179 -7790 0
3179 -7791 0
7793 -7748 -7731 0
-7793 7748 0
-7793 7731 0
7794 -7745 -7733 0
-7794 7745 0
-7794 7733 0
7795 -7745 -7731 0
-7795 7745 0
-7795 7731 0
7796 -7748 -7733 -7721 0
-7796 7748 0
-7796 7733 0
-7796 7721 0
-3188 7797 7793 7794 7795 7796 0
3188 -7797 0
3188 -7793 0
3188 -7794 0
3188 -7795 0
3188 -7796 0
7798 -7748 -7745 0
-7798 7748 0
-7798 7745 0
7799 -7745 -7745 0
-7799 7745 0
-7799 7745 0
7800 -7745 -7748 0
-7800 7745 0
-7800 7748 0
7801 -7748 -7748 -7721 0
-7801 7748 0
-7801 7748 0
-7801 7721 0
-3191 7802 7798 7799 7800 7801 0
3191 -7802 0
3191 -7798 0
3191 -7799 0
3191 -7800 0
3191 -7801 0
7803 -6586 -6583 0
-7803 6586 0
-7803 6583 0
7804 -6583 -6583 0
-7804 6583 0
-7804 6583 0
7805 -6583 -6586 0
-7805 6583 0
-7805 6586 0
7806 -6586 -6586 -6601 0
-7806 6586 0
-7806 6586 0
-7806 6601 0
-6126 6580 7803 7804 7805 7806 0
6126 -6580 0
6126 -7803 0
6126 -7804 0
6126 -7805 0
6126 -7806 0
7807 -6586 -7808 0
-7807 6586 0
-7807 7808 0
7809 -6583 -7808 0
-7809 6583 0
-7809 7808 0
7810 -6583 -7811 0
-7810 6583 0
-7810 7811 0
7812 -6586 -7811 -6601 0
-7812 6586 0
-7812 7811 0
-7812 6601 0
-6122 7813 7807 7809 7810 7812 0
6122 -7813 0
6122 -7807 0
6122 -7809 0
6122 -7810 0
6122 -7812 0
7814 -6586 -6582 0
-7814 6586 0
-7814 6582 0
7815 -6583 -6585 0
-7815 6583 0
-7815 6585 0
7816 -6583 -6582 0
-7816 6583 0
-7816 6582 0
7817 -6586 -6585 -6601 0
-7817 6586 0
-7817 6585 0
-7817 6601 0
-6140 6579 7814 7815 7816 7817 0
6140 -6579 0
6140 -7814 0
6140 -7815 0
6140 -7816 0
6140 -7817 0
7818 -6589 -6582 0
-7818 6589 0
-7818 6582 0
7819 -6599 -6582 0
-7819 6599 0
-7819 6582 0
7820 -6599 -6585 0
-7820 6599 0
-7820 6585 0
7821 -6589 -6585 -6601 0
-7821 6589 0
-7821 6585 0
-7821 6601 0
-1323 6588 7818 7819 7820 7821 0
1323 -6588 0
1323 -7818 0
1323 -7819 0
1323 -7820 0
1323 -7821 0
7822 -6586 -6603 0
-7822 6586 0
-7822 6603 0
7823 -6583 -6603 0
-7823 6583 0
-7823 6603 0
7824 -6583 -6611 0
-7824 6583 0
-7824 6611 0
7825 -6586 -6611 -6601 0
-7825 6586 0
-7825 6611 0
-7825 6601 0
-6129 6592 7822 7823 7824 7825 0
6129 -6592 0
6129 -7822 0
6129 -7823 0
6129 -7824 0
6129 -7825 0
7826 -6586 -6605 0
-7826 6586 0
-7826 6605 0
7827 -6583 -6607 0
-7827 6583 0
-7827 6607 0
7828 -6583 -6605 0
-7828 6583 0
-7828 6605 0
7829 -6586 -6607 -6601 0
-7829 6586 0
-7829 6607 0
-7829 6601 0
-6134 6595 7826 7827 7828 7829 0
6134 -6595 0
6134 -7826 0
6134 -7827 0
6134 -7828 0
6134 -7829 0
7830 -6589 -6605 0
-7830 6589 0
-7830 6605 0
7831 -6599 -6605 0
-7831 6599 0
-7831 6605 0
7832 -6599 -6607 0
-7832 6599 0
-7832 6607 0
7833 -6589 -6607 -6601 0
-7833 6589 0
-7833 6607 0
-7833 6601 0
-1320 6597 7830 7831 7832 7833 0
1320 -6597 0
1320 -7830 0
1320 -7831 0
1320 -7832 0
1320 -7833 0
7834 -7811 -6599 0
-7834 7811 0
-7834 6599 0
7835 -7808 -6589 0
-7835 7808 0
-7835 6589 0
7836 -7808 -6599 0
-7836 7808 0
-7836 6599 0
7837 -7811 -6589 -6601 0
-7837 7811 0
-7837 6589 0
-7837 6601 0
-1313 7838 7834 7835 7836 7837 0
1313 -7838 0
1313 -7834 0
1313 -7835 0
1313 -7836 0
1313 -7837 0
7839 -7811 -7808 0
-7839 7811 0
-7839 7808 0
7840 -7808 -7808 0
-7840 7808 0
-7840 7808 0
7841 -7808 -7811 0
-7841 7808 0
-7841 7811 0
7842 -7811 -7811 -6601 0
-7842 7811 0
-7842 7811 0
-7842 6601 0
-1315 7843 7839 7840 7841 7842 0
1315 -7843 0
1315 -7839 0
1315 -7840 0
1315 -7841 0
1315 -7842 0
7844 -7811 -6603 0
-7844 7811 0
-7844 6603 0
7845 -7808 -6603 0
-7845 7808 0
-7845 6603 0
7846 -7808 -6611 0
-7846 7808 0
-7846 6611 0
7847 -7811 -6611 -6601 0
-7847 7811 0
-7847 6611 0
-7847 6601 0
-1318 7848 7844 7845 7846 7847 0
1318 -7848 0
1318 -7844 0
1318 -7845 0
1318 -7846 0
1318 -7847 0
7849 -7811 -6605 0
-7849 7811 0
-7849 6605 0
7850 -7808 -6607 0
-7850 7808 0
-7850 6607 0
7851 -7808 -6605 0
-7851 7808 0
-7851 6605 0
7852 -7811 -6607 -6601 0
-7852 7811 0
-7852 6607 0
-7852 6601 0
-1321 7853 7849 7850 7851 7852 0
1321 -7853 0
1321 -7849 0
1321 -7850 0
1321 -7851 0
1321 -7852 0
7854 -6585 -6605 0
-7854 6585 0
-7854 6605 0
7855 -6582 -6605 0
-7855 6582 0
-7855 6605 0
7856 -6582 -6607 0
-7856 6582 0
-7856 6607 0
7857 -6585 -6607 -6601 0
-7857 6585 0
-7857 6607 0
-7857 6601 0
-1324 6594 7854 7855 7856 7857 0
1324 -6594 0
1324 -7854 0
1324 -7855 0
1324 -7856 0
1324 -7857 0
7858 -6611 -6599 0
-7858 6611 0
-7858 6599 0
7859 -6603 -6589 0
-7859 6603 0
-7859 6589 0
7860 -6603 -6599 0
-7860 6603 0
-7860 6599 0
7861 -6611 -6589 -6601 0
-7861 6611 0
-7861 6589 0
-7861 6601 0
-1317 6609 7858 7859 7860 7861 0
1317 -6609 0
1317 -7858 0
1317 -7859 0
1317 -7860 0
1317 -7861 0
7862 -6611 -6582 0
-7862 6611 0
-7862 6582 0
7863 -6603 -6585 0
-7863 6603 0
-7863 6585 0
7864 -6603 -6582 0
-7864 6603 0
-7864 6582 0
7865 -6611 -6585 -6601 0
-7865 6611 0
-7865 6585 0
-7865 6601 0
-1326 6591 7862 7863 7864 7865 0
1326 -6591 0
1326 -7862 0
1326 -7863 0
1326 -7864 0
1326 -7865 0
7866 -6611 -6603 0
-7866 6611 0
-7866 6603 0
7867 -6603 -6603 0
-7867 6603 0
-7867 6603 0
7868 -6603 -6611 0
-7868 6603 0
-7868 6611 0
7869 -6611 -6611 -6601 0
-7869 6611 0
-7869 6611 0
-7869 6601 0
-1329 6613 7866 7867 7868 7869 0
1329 -6613 0
1329 -7866 0
1329 -7867 0
1329 -7868 0
1329 -7869 0
7870 -7002 -7002 0
-7870 7002 0
-7870 7002 0
-2880 6988 7870 0
2880 -6988 0
2880 -7870 0
7871 -7002 -6997 0
-7871 7002 0
-7871 6997 0
-2876 6983 7871 0
2876 -6983 0
2876 -7871 0
7872 -7002 -6999 0
-7872 7002 0
-7872 6999 0
-2894 6982 7872 0
2894 -6982 0
2894 -7872 0
7873 -7009 -6999 0
-7873 7009 0
-7873 6999 0
-1305 7004 7873 0
1305 -7004 0
1305 -7873 0
7874 -7002 -7063 0
-7874 7002 0
-7874 7063 0
-2883 7016 7874 0
2883 -7016 0
2883 -7874 0
7875 -7002 -7053 0
-7875 7002 0
-7875 7053 0
-2888 7023 7875 0
2888 -7023 0
2888 -7875 0
7876 -7009 -7053 0
-7876 7009 0
-7876 7053 0
-1302 7028 7876 0
1302 -7028 0
1302 -7876 0
7877 -6997 -7009 0
-7877 6997 0
-7877 7009 0
-1295 7006 7877 0
1295 -7006 0
1295 -7877 0
7878 -6997 -6997 0
-7878 6997 0
-7878 6997 0
-1297 6987 7878 0
1297 -6987 0
1297 -7878 0
7879 -6997 -7063 0
-7879 6997 0
-7879 7063 0
-1300 7011 7879 0
1300 -7011 0
1300 -7879 0
7880 -6997 -7053 0
-7880 6997 0
-7880 7053 0
-1303 7018 7880 0
1303 -7018 0
1303 -7880 0
7881 -6999 -7053 0
-7881 6999 0
-7881 7053 0
-1306 7020 7881 0
1306 -7020 0
1306 -7881 0
7882 -7063 -7009 0
-7882 7063 0
-7882 7009 0
-1299 7058 7882 0
1299 -7058 0
1299 -7882 0
7883 -7063 -6999 0
-7883 7063 0
-7883 6999 0
-1308 7014 7883 0
1308 -7014 0
1308 -7883 0
7884 -7063 -7063 0
-7884 7063 0
-7884 7063 0
-1311 7068 7884 0
1311 -7068 0
1311 -7884 0
7885 -7886 -7887 0
-7885 7886 0
-7885 7887 0
7888 -7887 -7887 0
-7888 7887 0
-7888 7887 0
7889 -7887 -7886 0
-7889 7887 0
-7889 7886 0
7890 -7886 -7886 -7891 0
-7890 7886 0
-7890 7886 0
-7890 7891 0
-1918 7892 7885 7888 7889 7890 0
1918 -7892 0
1918 -7885 0
1918 -7888 0
1918 -7889 0
1918 -7890 0
7893 -7886 -7894 0
-7893 7886 0
-7893 7894 0
7895 -7887 -7894 0
-7895 7887 0
-7895 7894 0
7896 -7887 -7897 0
-7896 7887 0
-7896 7897 0
7898 -7886 -7897 -7891 0
-7898 7886 0
-7898 7897 0
-7898 7891 0
-1914 7899 7893 7895 7896 7898 0
1914 -7899 0
1914 -7893 0
1914 -7895 0
1914 -7896 0
1914 -7898 0
7900 -7886 -7901 0
-7900 7886 0
-7900 7901 0
7902 -7887 -7903 0
-7902 7887 0
-7902 7903 0
7904 -7887 -7901 0
-7904 7887 0
-7904 7901 0
7905 -7886 -7903 -7891 0
-7905 7886 0
-7905 7903 0
-7905 7891 0
-1938 7906 7900 7902 7904 7905 0
1938 -7906 0
1938 -7900 0
1938 -7902 0
1938 -7904 0
1938 -7905 0
7907 -7908 -7901 0
-7907 7908 0
-7907 7901 0
7909 -7910 -7901 0
-7909 7910 0
-7909 7901 0
7911 -7910 -7903 0
-7911 7910 0
-7911 7903 0
7912 -7908 -7903 -7891 0
-7912 7908 0
-7912 7903 0
-7912 7891 0
-1936 7913 7907 7909 7911 7912 0
1936 -7913 0
1936 -7907 0
1936 -7909 0
1936 -7911 0
1936 -7912 0
7914 -7886 -7915 0
-7914 7886 0
-7914 7915 0
7916 -7887 -7915 0
-7916 7887 0
-7916 7915 0
7917 -7887 -7918 0
-7917 7887 0
-7917 7918 0
7919 -7886 -7918 -7891 0
-7919 7886 0
-7919 7918 0
-7919 7891 0
-1922 7920 7914 7916 7917 7919 0
1922 -7920 0
1922 -7914 0
1922 -7916 0
1922 -7917 0
1922 -7919 0
7921 -7886 -7922 0
-7921 7886 0
-7921 7922 0
7923 -7887 -7924 0
-7923 7887 0
-7923 7924 0
7925 -7887 -7922 0
-7925 7887 0
-7925 7922 0
7926 -7886 -7924 -7891 0
-7926 7886 0
-7926 7924 0
-7926 7891 0
-1929 7927 7921 7923 7925 7926 0
1929 -7927 0
1929 -7921 0
1929 -7923 0
1929 -7925 0
1929 -7926 0
7928 -7908 -7922 0
-7928 7908 0
-7928 7922 0
7929 -7910 -7922 0
-7929 7910 0
-7929 7922 0
7930 -7910 -7924 0
-7930 7910 0
-7930 7924 0
7931 -7908 -7924 -7891 0
-7931 7908 0
-7931 7924 0
-7931 7891 0
-1931 7932 7928 7929 7930 7931 0
1931 -7932 0
1931 -7928 0
1931 -7929 0
1931 -7930 0
1931 -7931 0
7933 -7897 -7910 0
-7933 7897 0
-7933 7910 0
7934 -7894 -7908 0
-7934 7894 0
-7934 7908 0
7935 -7894 -7910 0
-7935 7894 0
-7935 7910 0
7936 -7897 -7908 -7891 0
-7936 7897 0
-7936 7908 0
-7936 7891 0
-1913 7937 7933 7934 7935 7936 0
1913 -7937 0
1913 -7933 0
1913 -7934 0
1913 -7935 0
1913 -7936 0
7938 -7897 -7894 0
-7938 7897 0
-7938 7894 0
7939 -7894 -7894 0
-7939 7894 0
-7939 7894 0
7940 -7894 -7897 0
-7940 7894 0
-7940 7897 0
7941 -7897 -7897 -7891 0
-7941 7897 0
-7941 7897 0
-7941 7891 0
-1920 7942 7938 7939 7940 7941 0
1920 -7942 0
1920 -7938 0
1920 -7939 0
1920 -7940 0
1920 -7941 0
7943 -7897 -7915 0
-7943 7897 0
-7943 7915 0
7944 -7894 -7915 0
-7944 7894 0
-7944 7915 0
7945 -7894 -7918 0
-7945 7894 0
-7945 7918 0
7946 -7897 -7918 -7891 0
-7946 7897 0
-7946 7918 0
-7946 7891 0
-1927 7947 7943 7944 7945 7946 0
1927 -7947 0
1927 -7943 0
1927 -7944 0
1927 -7945 0
1927 -7946 0
7948 -7897 -7922 0
-7948 7897 0
-7948 7922 0
7949 -7894 -7924 0
-7949 7894 0
-7949 7924 0
7950 -7894 -7922 0
-7950 7894 0
-7950 7922 0
7951 -7897 -7924 -7891 0
-7951 7897 0
-7951 7924 0
-7951 7891 0
-1934 7952 7948 7949 7950 7951 0
1934 -7952 0
1934 -7948 0
1934 -7949 0
1934 -7950 0
1934 -7951 0
7953 -7903 -7922 0
-7953 7903 0
-7953 7922 0
7954 -7901 -7922 0
-7954 7901 0
-7954 7922 0
7955 -7901 -7924 0
-7955 7901 0
-7955 7924 0
7956 -7903 -7924 -7891 0
-7956 7903 0
-7956 7924 0
-7956 7891 0
-1941 7957 7953 7954 7955 7956 0
1941 -7957 0
1941 -7953 0
1941 -7954 0
1941 -7955 0
1941 -7956 0
7958 -7918 -7910 0
-7958 7918 0
-7958 7910 0
7959 -7915 -7908 0
-7959 7915 0
-7959 7908 0
7960 -7915 -7910 0
-7960 7915 0
-7960 7910 0
7961 -7918 -7908 -7891 0
-7961 7918 0
-7961 7908 0
-7961 7891 0
-1925 7962 7958 7959 7960 7961 0
1925 -7962 0
1925 -7958 0
1925 -7959 0
1925 -7960 0
1925 -7961 0
7963 -7918 -7901 0
-7963 7918 0
-7963 7901 0
7964 -7915 -7903 0
-7964 7915 0
-7964 7903 0
7965 -7915 -7901 0
-7965 7915 0
-7965 7901 0
7966 -7918 -7903 -7891 0
-7966 7918 0
-7966 7903 0
-7966 7891 0
-1946 7967 7963 7964 7965 7966 0
1946 -7967 0
1946 -7963 0
1946 -7964 0
1946 -7965 0
1946 -7966 0
7968 -7918 -7915 0
-7968 7918 0
-7968 7915 0
7969 -7915 -7915 0
-7969 7915 0
-7969 7915 0
7970 -7915 -7918 0
-7970 7915 0
-7970 7918 0
7971 -7918 -7918 -7891 0
-7971 7918 0
-7971 7918 0
-7971 7891 0
-1952 7972 7968 7969 7970 7971 0
1952 -7972 0
1952 -7968 0
1952 -7969 0
1952 -7970 0
1952 -7971 0
7973 -7199 -7199 0
-7973 7199 0
-7973 7199 0
-3275 7164 7973 0
3275 -7164 0
3275 -7973 0
7974 -7199 -7194 0
-7974 7199 0
-7974 7194 0
-3282 7159 7974 0
3282 -7159 0
3282 -7974 0
7975 -7199 -7196 0
-7975 7199 0
-7975 7196 0
-3289 7158 7975 0
3289 -7158 0
3289 -7975 0
7976 -7204 -7196 0
-7976 7204 0
-7976 7196 0
-3296 7180 7976 0
3296 -7180 0
3296 -7976 0
7977 -7199 -7224 0
-7977 7199 0
-7977 7224 0
-3269 7171 7977 0
3269 -7171 0
3269 -7977 0
7978 -7199 -7229 0
-7978 7199 0
-7978 7229 0
-3268 7178 7978 0
3268 -7178 0
3268 -7978 0
7979 -7204 -7229 0
-7979 7204 0
-7979 7229 0
-3291 7185 7979 0
3291 -7185 0
3291 -7979 0
7980 -7194 -7204 0
-7980 7194 0
-7980 7204 0
-3301 7182 7980 0
3301 -7182 0
3301 -7980 0
7981 -7194 -7194 0
-7981 7194 0
-7981 7194 0
-3307 7163 7981 0
3307 -7163 0
3307 -7981 0
7982 -7194 -7224 0
-7982 7194 0
-7982 7224 0
-3277 7166 7982 0
3277 -7166 0
3277 -7982 0
7983 -7194 -7229 0
-7983 7194 0
-7983 7229 0
-3280 7173 7983 0
3280 -7173 0
3280 -7983 0
7984 -7196 -7229 0
-7984 7196 0
-7984 7229 0
-3286 7175 7984 0
3286 -7175 0
3286 -7984 0
7985 -7224 -7204 0
-7985 7224 0
-7985 7204 0
-3293 7209 7985 0
3293 -7209 0
3293 -7985 0
7986 -7224 -7196 0
-7986 7224 0
-7986 7196 0
-3284 7169 7986 0
3284 -7169 0
3284 -7986 0
7987 -7224 -7224 0
-7987 7224 0
-7987 7224 0
-3273 7214 7987 0
3273 -7214 0
3273 -7987 0
7988 -7517 -7989 0
-7988 7517 0
-7988 7989 0
7990 -7989 -7989 0
-7990 7989 0
-7990 7989 0
7991 -7989 -7517 0
-7991 7989 0
-7991 7517 0
7992 -7517 -7517 -7993 0
-7992 7517 0
-7992 7517 0
-7992 7993 0
-3883 7518 7988 7990 7991 7992 0
3883 -7518 0
3883 -7988 0
3883 -7990 0
3883 -7991 0
3883 -7992 0
7994 -7517 -7995 0
-7994 7517 0
-7994 7995 0
7996 -7989 -7995 0
-7996 7989 0
-7996 7995 0
7997 -7989 -7520 0
-7997 7989 0
-7997 7520 0
7998 -7517 -7520 -7993 0
-7998 7517 0
-7998 7520 0
-7998 7993 0
-3879 7521 7994 7996 7997 7998 0
3879 -7521 0
3879 -7994 0
3879 -7996 0
3879 -7997 0
3879 -7998 0
7999 -7517 -8000 0
-7999 7517 0
-7999 8000 0
8001 -7989 -7523 0
-8001 7989 0
-8001 7523 0
8002 -7989 -8000 0
-8002 7989 0
-8002 8000 0
8003 -7517 -7523 -7993 0
-8003 7517 0
-8003 7523 0
-8003 7993 0
-3897 7524 7999 8001 8002 8003 0
3897 -7524 0
3897 -7999 0
3897 -8001 0
3897 -8002 0
3897 -8003 0
8004 -7526 -8000 0
-8004 7526 0
-8004 8000 0
8005 -8006 -8000 0
-8005 8006 0
-8005 8000 0
8007 -8006 -7523 0
-8007 8006 0
-8007 7523 0
8008 -7526 -7523 -7993 0
-8008 7526 0
-8008 7523 0
-8008 7993 0
-2617 7527 8004 8005 8007 8008 0
2617 -7527 0
2617 -8004 0
2617 -8005 0
2617 -8007 0
2617 -8008 0
8009 -7517 -8010 0
-8009 7517 0
-8009 8010 0
8011 -7989 -8010 0
-8011 7989 0
-8011 8010 0
8012 -7989 -7529 0
-8012 7989 0
-8012 7529 0
8013 -7517 -7529 -7993 0
-8013 7517 0
-8013 7529 0
-8013 7993 0
-3886 7530 8009 8011 8012 8013 0
3886 -7530 0
3886 -8009 0
3886 -8011 0
3886 -8012 0
3886 -8013 0
8014 -7517 -8015 0
-8014 7517 0
-8014 8015 0
8016 -7989 -7532 0
-8016 7989 0
-8016 7532 0
8017 -7989 -8015 0
-8017 7989 0
-8017 8015 0
8018 -7517 -7532 -7993 0
-8018 7517 0
-8018 7532 0
-8018 7993 0
-3891 7533 8014 8016 8017 8018 0
3891 -7533 0
3891 -8014 0
3891 -8016 0
3891 -8017 0
3891 -8018 0
8019 -7526 -8015 0
-8019 7526 0
-8019 8015 0
8020 -8006 -8015 0
-8020 8006 0
-8020 8015 0
8021 -8006 -7532 0
-8021 8006 0
-8021 7532 0
8022 -7526 -7532 -7993 0
-8022 7526 0
-8022 7532 0
-8022 7993 0
-2614 7535 8019 8020 8021 8022 0
2614 -7535 0
2614 -8019 0
2614 -8020 0
2614 -8021 0
2614 -8022 0
8023 -7520 -8006 0
-8023 7520 0
-8023 8006 0
8024 -7995 -7526 0
-8024 7995 0
-8024 7526 0
8025 -7995 -8006 0
-8025 7995 0
-8025 8006 0
8026 -7520 -7526 -7993 0
-8026 7520 0
-8026 7526 0
-8026 7993 0
-2607 7537 8023 8024 8025 8026 0
2607 -7537 0
2607 -8023 0
2607 -8024 0
2607 -8025 0
2607 -8026 0
8027 -7520 -7995 0
-8027 7520 0
-8027 7995 0
8028 -7995 -7995 0
-8028 7995 0
-8028 7995 0
8029 -7995 -7520 0
-8029 7995 0
-8029 7520 0
8030 -7520 -7520 -7993 0
-8030 7520 0
-8030 7520 0
-8030 7993 0
-2609 7539 8027 8028 8029 8030 0
2609 -7539 0
2609 -8027 0
2609 -8028 0
2609 -8029 0
2609 -8030 0
8031 -7520 -8010 0
-8031 7520 0
-8031 8010 0
8032 -7995 -8010 0
-8032 7995 0
-8032 8010 0
8033 -7995 -7529 0
-8033 7995 0
-8033 7529 0
8034 -7520 -7529 -7993 0
-8034 7520 0
-8034 7529 0
-8034 7993 0
-2612 7541 8031 8032 8033 8034 0
2612 -7541 0
2612 -8031 0
2612 -8032 0
2612 -8033 0
2612 -8034 0
8035 -7520 -8015 0
-8035 7520 0
-8035 8015 0
8036 -7995 -7532 0
-8036 7995 0
-8036 7532 0
8037 -7995 -8015 0
-8037 7995 0
-8037 8015 0
8038 -7520 -7532 -7993 0
-8038 7520 0
-8038 7532 0
-8038 7993 0
-2615 7543 8035 8036 8037 8038 0
2615 -7543 0
2615 -8035 0
2615 -8036 0
2615 -8037 0
2615 -8038 0
8039 -7523 -8015 0
-8039 7523 0
-8039 8015 0
8040 -8000 -8015 0
-8040 8000 0
-8040 8015 0
8041 -8000 -7532 0
-8041 8000 0
-8041 7532 0
8042 -7523 -7532 -7993 0
-8042 7523 0
-8042 7532 0
-8042 7993 0
-2618 7545 8039 8040 8041 8042 0
2618 -7545 0
2618 -8039 0
2618 -8040 0
2618 -8041 0
2618 -8042 0
8043 -7529 -8006 0
-8043 7529 0
-8043 8006 0
8044 -8010 -7526 0
-8044 8010 0
-8044 7526 0
8045 -8010 -8006 0
-8045 8010 0
-8045 8006 0
8046 -7529 -7526 -7993 0
-8046 7529 0
-8046 7526 0
-8046 7993 0
-2611 7547 8043 8044 8045 8046 0
2611 -7547 0
2611 -8043 0
2611 -8044 0
2611 -8045 0
2611 -8046 0
8047 -7529 -8000 0
-8047 7529 0
-8047 8000 0
8048 -8010 -7523 0
-8048 8010 0
-8048 7523 0
8049 -8010 -8000 0
-8049 8010 0
-8049 8000 0
8050 -7529 -7523 -7993 0
-8050 7529 0
-8050 7523 0
-8050 7993 0
-2620 7549 8047 8048 8049 8050 0
2620 -7549 0
2620 -8047 0
2620 -8048 0
2620 -8049 0
2620 -8050 0
8051 -7529 -8010 0
-8051 7529 0
-8051 8010 0
8052 -8010 -8010 0
-8052 8010 0
-8052 8010 0
8053 -8010 -7529 0
-8053 8010 0
-8053 7529 0
8054 -7529 -7529 -7993 0
-8054 7529 0
-8054 7529 0
-8054 7993 0
-2623 7551 8051 8052 8053 8054 0
2623 -7551 0
2623 -8051 0
2623 -8052 0
2623 -8053 0
2623 -8054 0
8055 -8056 -8056 0
-8055 8056 0
-8055 8056 0
-3781 8057 8055 0
3781 -8057 0
3781 -8055 0
8058 -8056 -8059 0
-8058 8056 0
-8058 8059 0
-3777 8060 8058 0
3777 -8060 0
3777 -8058 0
8061 -8056 -8062 0
-8061 8056 0
-8061 8062 0
-3801 8063 8061 0
3801 -8063 0
3801 -8061 0
8064 -8065 -8062 0
-8064 8065 0
-8064 8062 0
-3799 8066 8064 0
3799 -8066 0
3799 -8064 0
8067 -8056 -8068 0
-8067 8056 0
-8067 8068 0
-3785 8069 8067 0
3785 -8069 0
3785 -8067 0
8070 -8056 -8071 0
-8070 8056 0
-8070 8071 0
-3792 8072 8070 0
3792 -8072 0
3792 -8070 0
8073 -8065 -8071 0
-8073 8065 0
-8073 8071 0
-3794 8074 8073 0
3794 -8074 0
3794 -8073 0
8075 -8059 -8065 0
-8075 8059 0
-8075 8065 0
-3776 8076 8075 0
3776 -8076 0
3776 -8075 0
8077 -8059 -8059 0
-8077 8059 0
-8077 8059 0
-3783 8078 8077 0
3783 -8078 0
3783 -8077 0
8079 -8059 -8068 0
-8079 8059 0
-8079 8068 0
-3790 8080 8079 0
3790 -8080 0
3790 -8079 0
8081 -8059 -8071 0
-8081 8059 0
-8081 8071 0
-3797 8082 8081 0
3797 -8082 0
3797 -8081 0
8083 -8062 -8071 0
-8083 8062 0
-8083 8071 0
-3804 8084 8083 0
3804 -8084 0
3804 -8083 0
8085 -8068 -8065 0
-8085 8068 0
-8085 8065 0
-3788 8086 8085 0
3788 -8086 0
3788 -8085 0
8087 -8068 -8062 0
-8087 8068 0
-8087 8062 0
-3809 8088 8087 0
3809 -8088 0
3809 -8087 0
8089 -8068 -8068 0
-8089 8068 0
-8089 8068 0
-3815 8090 8089 0
3815 -8090 0
3815 -8089 0
8091 -8092 -8093 0
-8091 8092 0
-8091 8093 0
8094 -8093 -8093 0
-8094 8093 0
-8094 8093 0
8095 -8093 -8092 0
-8095 8093 0
-8095 8092 0
8096 -8092 -8092 -8097 0
-8096 8092 0
-8096 8092 0
-8096 8097 0
-1734 8098 8091 8094 8095 8096 0
1734 -8098 0
1734 -8091 0
1734 -8094 0
1734 -8095 0
1734 -8096 0
8099 -8092 -8100 0
-8099 8092 0
-8099 8100 0
8101 -8093 -8100 0
-8101 8093 0
-8101 8100 0
8102 -8093 -8103 0
-8102 8093 0
-8102 8103 0
8104 -8092 -8103 -8097 0
-8104 8092 0
-8104 8103 0
-8104 8097 0
-1730 8105 8099 8101 8102 8104 0
1730 -8105 0
1730 -8099 0
1730 -8101 0
1730 -8102 0
1730 -8104 0
8106 -8092 -8107 0
-8106 8092 0
-8106 8107 0
8108 -8093 -8109 0
-8108 8093 0
-8108 8109 0
8110 -8093 -8107 0
-8110 8093 0
-8110 8107 0
8111 -8092 -8109 -8097 0
-8111 8092 0
-8111 8109 0
-8111 8097 0
-1754 8112 8106 8108 8110 8111 0
1754 -8112 0
1754 -8106 0
1754 -8108 0
1754 -8110 0
1754 -8111 0
8113 -8114 -8107 0
-8113 8114 0
-8113 8107 0
8115 -8116 -8107 0
-8115 8116 0
-8115 8107 0
8117 -8116 -8109 0
-8117 8116 0
-8117 8109 0
8118 -8114 -8109 -8097 0
-8118 8114 0
-8118 8109 0
-8118 8097 0
-1752 8119 8113 8115 8117 8118 0
1752 -8119 0
1752 -8113 0
1752 -8115 0
1752 -8117 0
1752 -8118 0
8120 -8092 -8121 0
-8120 8092 0
-8120 8121 0
8122 -8093 -8121 0
-8122 8093 0
-8122 8121 0
8123 -8093 -8124 0
-8123 8093 0
-8123 8124 0
8125 -8092 -8124 -8097 0
-8125 8092 0
-8125 8124 0
-8125 8097 0
-1738 8126 8120 8122 8123 8125 0
1738 -8126 0
1738 -8120 0
1738 -8122 0
1738 -8123 0
1738 -8125 0
8127 -8092 -8128 0
-8127 8092 0
-8127 8128 0
8129 -8093 -8130 0
-8129 8093 0
-8129 8130 0
8131 -8093 -8128 0
-8131 8093 0
-8131 8128 0
8132 -8092 -8130 -8097 0
-8132 8092 0
-8132 8130 0
-8132 8097 0
-1745 8133 8127 8129 8131 8132 0
1745 -8133 0
1745 -8127 0
1745 -8129 0
1745 -8131 0
1745 -8132 0
8134 -8114 -8128 0
-8134 8114 0
-8134 8128 0
8135 -8116 -8128 0
-8135 8116 0
-8135 8128 0
8136 -8116 -8130 0
-8136 8116 0
-8136 8130 0
8137 -8114 -8130 -8097 0
-8137 8114 0
-8137 8130 0
-8137 8097 0
-1747 8138 8134 8135 8136 8137 0
1747 -8138 0
1747 -8134 0
1747 -8135 0
1747 -8136 0
1747 -8137 0
8139 -8103 -8116 0
-8139 8103 0
-8139 8116 0
8140 -8100 -8114 0
-8140 8100 0
-8140 8114 0
8141 -8100 -8116 0
-8141 8100 0
-8141 8116 0
8142 -8103 -8114 -8097 0
-8142 8103 0
-8142 8114 0
-8142 8097 0
-1729 8143 8139 8140 8141 8142 0
1729 -8143 0
1729 -8139 0
1729 -8140 0
1729 -8141 0
1729 -8142 0
8144 -8103 -8100 0
-8144 8103 0
-8144 8100 0
8145 -8100 -8100 0
-8145 8100 0
-8145 8100 0
8146 -8100 -8103 0
-8146 8100 0
-8146 8103 0
8147 -8103 -8103 -8097 0
-8147 8103 0
-8147 8103 0
-8147 8097 0
-1736 8148 8144 8145 8146 8147 0
1736 -8148 0
1736 -8144 0
1736 -8145 0
1736 -8146 0
1736 -8147 0
8149 -8103 -8121 0
-8149 8103 0
-8149 8121 0
8150 -8100 -8121 0
-8150 8100 0
-8150 8121 0
8151 -8100 -8124 0
-8151 8100 0
-8151 8124 0
8152 -8103 -8124 -8097 0
-8152 8103 0
-8152 8124 0
-8152 8097 0
-1743 8153 8149 8150 8151 8152 0
1743 -8153 0
1743 -8149 0
1743 -8150 0
1743 -8151 0
1743 -8152 0
8154 -8103 -8128 0
-8154 8103 0
-8154 8128 0
8155 -8100 -8130 0
-8155 8100 0
-8155 8130 0
8156 -8100 -8128 0
-8156 8100 0
-8156 8128 0
8157 -8103 -8130 -8097 0
-8157 8103 0
-8157 8130 0
-8157 8097 0
-1750 8158 8154 8155 8156 8157 0
1750 -8158 0
1750 -8154 0
1750 -8155 0
1750 -8156 0
1750 -8157 0
8159 -8109 -8128 0
-8159 8109 0
-8159 8128 0
8160 -8107 -8128 0
-8160 8107 0
-8160 8128 0
8161 -8107 -8130 0
-8161 8107 0
-8161 8130 0
8162 -8109 -8130 -8097 0
-8162 8109 0
-8162 8130 0
-8162 8097 0
-1757 8163 8159 8160 8161 8162 0
1757 -8163 0
1757 -8159 0
1757 -8160 0
1757 -8161 0
1757 -8162 0
8164 -8124 -8116 0
-8164 8124 0
-8164 8116 0
8165 -8121 -8114 0
-8165 8121 0
-8165 8114 0
8166 -8121 -8116 0
-8166 8121 0
-8166 8116 0
8167 -8124 -8114 -8097 0
-8167 8124 0
-8167 8114 0
-8167 8097 0
-1741 8168 8164 8165 8166 8167 0
1741 -8168 0
1741 -8164 0
1741 -8165 0
1741 -8166 0
1741 -8167 0
8169 -8124 -8107 0
-8169 8124 0
-8169 8107 0
8170 -8121 -8109 0
-8170 8121 0
-8170 8109 0
8171 -8121 -8107 0
-8171 8121 0
-8171 8107 0
8172 -8124 -8109 -8097 0
-8172 8124 0
-8172 8109 0
-8172 8097 0
-1762 8173 8169 8170 8171 8172 0
1762 -8173 0
1762 -8169 0
1762 -8170 0
1762 -8171 0
1762 -8172 0
8174 -8124 -8121 0
-8174 8124 0
-8174 8121 0
8175 -8121 -8121 0
-8175 8121 0
-8175 8121 0
8176 -8121 -8124 0
-8176 8121 0
-8176 8124 0
8177 -8124 -8124 -8097 0
-8177 8124 0
-8177 8124 0
-8177 8097 0
-1768 8178 8174 8175 8176 8177 0
1768 -8178 0
1768 -8174 0
1768 -8175 0
1768 -8176 0
1768 -8177 0
8179 -8180 -8180 0
-8179 8180 0
-8179 8180 0
-4121 8181 8179 0
4121 -8181 0
4121 -8179 0
8182 -8180 -8183 0
-8182 8180 0
-8182 8183 0
-4117 8184 8182 0
4117 -8184 0
4117 -8182 0
8185 -8180 -8186 0
-8185 8180 0
-8185 8186 0
-4141 8187 8185 0
4141 -8187 0
4141 -8185 0
8188 -8189 -8186 0
-8188 8189 0
-8188 8186 0
-4139 8190 8188 0
4139 -8190 0
4139 -8188 0
8191 -8180 -8192 0
-8191 8180 0
-8191 8192 0
-4125 8193 8191 0
4125 -8193 0
4125 -8191 0
8194 -8180 -8195 0
-8194 8180 0
-8194 8195 0
-4132 8196 8194 0
4132 -8196 0
4132 -8194 0
8197 -8189 -8195 0
-8197 8189 0
-8197 8195 0
-4134 8198 8197 0
4134 -8198 0
4134 -8197 0
8199 -8183 -8189 0
-8199 8183 0
-8199 8189 0
-4116 8200 8199 0
4116 -8200 0
4116 -8199 0
8201 -8183 -8183 0
-8201 8183 0
-8201 8183 0
-4123 8202 8201 0
4123 -8202 0
4123 -8201 0
8203 -8183 -8192 0
-8203 8183 0
-8203 8192 0
-4130 8204 8203 0
4130 -8204 0
4130 -8203 0
8205 -8183 -8195 0
-8205 8183 0
-8205 8195 0
-4137 8206 8205 0
4137 -8206 0
4137 -8205 0
8207 -8186 -8195 0
-8207 8186 0
-8207 8195 0
-4144 8208 8207 0
4144 -8208 0
4144 -8207 0
8209 -8192 -8189 0
-8209 8192 0
-8209 8189 0
-4128 8210 8209 0
4128 -8210 0
4128 -8209 0
8211 -8192 -8186 0
-8211 8192 0
-8211 8186 0
-4149 8212 8211 0
4149 -8212 0
4149 -8211 0
8213 -8192 -8192 0
-8213 8192 0
-8213 8192 0
-4155 8214 8213 0
4155 -8214 0
4155 -8213 0
8215 -7348 -7345 0
-8215 7348 0
-8215 7345 0
8216 -7345 -7345 0
-8216 7345 0
-8216 7345 0
8217 -7345 -7348 0
-8217 7345 0
-8217 7348 0
8218 -7348 -7348 -7363 0
-8218 7348 0
-8218 7348 0
-8218 7363 0
-4958 7342 8215 8216 8217 8218 0
4958 -7342 0
4958 -8215 0
4958 -8216 0
4958 -8217 0
4958 -8218 0
8219 -7348 -8220 0
-8219 7348 0
-8219 8220 0
8221 -7345 -8220 0
-8221 7345 0
-8221 8220 0
8222 -7345 -8223 0
-8222 7345 0
-8222 8223 0
8224 -7348 -8223 -7363 0
-8224 7348 0
-8224 8223 0
-8224 7363 0
-4954 8225 8219 8221 8222 8224 0
4954 -8225 0
4954 -8219 0
4954 -8221 0
4954 -8222 0
4954 -8224 0
8226 -7348 -7344 0
-8226 7348 0
-8226 7344 0
8227 -7345 -7347 0
-8227 7345 0
-8227 7347 0
8228 -7345 -7344 0
-8228 7345 0
-8228 7344 0
8229 -7348 -7347 -7363 0
-8229 7348 0
-8229 7347 0
-8229 7363 0
-4978 7341 8226 8227 8228 8229 0
4978 -7341 0
4978 -8226 0
4978 -8227 0
4978 -8228 0
4978 -8229 0
8230 -7351 -7344 0
-8230 7351 0
-8230 7344 0
8231 -7361 -7344 0
-8231 7361 0
-8231 7344 0
8232 -7361 -7347 0
-8232 7361 0
-8232 7347 0
8233 -7351 -7347 -7363 0
-8233 7351 0
-8233 7347 0
-8233 7363 0
-4976 7350 8230 8231 8232 8233 0
4976 -7350 0
4976 -8230 0
4976 -8231 0
4976 -8232 0
4976 -8233 0
8234 -7348 -7365 0
-8234 7348 0
-8234 7365 0
8235 -7345 -7365 0
-8235 7345 0
-8235 7365 0
8236 -7345 -7373 0
-8236 7345 0
-8236 7373 0
8237 -7348 -7373 -7363 0
-8237 7348 0
-8237 7373 0
-8237 7363 0
-4962 7354 8234 8235 8236 8237 0
4962 -7354 0
4962 -8234 0
4962 -8235 0
4962 -8236 0
4962 -8237 0
8238 -7348 -7367 0
-8238 7348 0
-8238 7367 0
8239 -7345 -7369 0
-8239 7345 0
-8239 7369 0
8240 -7345 -7367 0
-8240 7345 0
-8240 7367 0
8241 -7348 -7369 -7363 0
-8241 7348 0
-8241 7369 0
-8241 7363 0
-4969 7357 8238 8239 8240 8241 0
4969 -7357 0
4969 -8238 0
4969 -8239 0
4969 -8240 0
4969 -8241 0
8242 -7351 -7367 0
-8242 7351 0
-8242 7367 0
8243 -7361 -7367 0
-8243 7361 0
-8243 7367 0
8244 -7361 -7369 0
-8244 7361 0
-8244 7369 0
8245 -7351 -7369 -7363 0
-8245 7351 0
-8245 7369 0
-8245 7363 0
-4971 7359 8242 8243 8244 8245 0
4971 -7359 0
4971 -8242 0
4971 -8243 0
4971 -8244 0
4971 -8245 0
8246 -8223 -7361 0
-8246 8223 0
-8246 7361 0
8247 -8220 -7351 0
-8247 8220 0
-8247 7351 0
8248 -8220 -7361 0
-8248 8220 0
-8248 7361 0
8249 -8223 -7351 -7363 0
-8249 8223 0
-8249 7351 0
-8249 7363 0
-4953 8250 8246 8247 8248 8249 0
4953 -8250 0
4953 -8246 0
4953 -8247 0
4953 -8248 0
4953 -8249 0
8251 -8223 -8220 0
-8251 8223 0
-8251 8220 0
8252 -8220 -8220 0
-8252 8220 0
-8252 8220 0
8253 -8220 -8223 0
-8253 8220 0
-8253 8223 0
8254 -8223 -8223 -7363 0
-8254 8223 0
-8254 8223 0
-8254 7363 0
-4960 8255 8251 8252 8253 8254 0
4960 -8255 0
4960 -8251 0
4960 -8252 0
4960 -8253 0
4960 -8254 0
8256 -8223 -7365 0
-8256 8223 0
-8256 7365 0
8257 -8220 -7365 0
-8257 8220 0
-8257 7365 0
8258 -8220 -7373 0
-8258 8220 0
-8258 7373 0
8259 -8223 -7373 -7363 0
-8259 8223 0
-8259 7373 0
-8259 7363 0
-4967 8260 8256 8257 8258 8259 0
4967 -8260 0
4967 -8256 0
4967 -8257 0
4967 -8258 0
4967 -8259 0
8261 -8223 -7367 0
-8261 8223 0
-8261 7367 0
8262 -8220 -7369 0
-8262 8220 0
-8262 7369 0
8263 -8220 -7367 0
-8263 8220 0
-8263 7367 0
8264 -8223 -7369 -7363 0
-8264 8223 0
-8264 7369 0
-8264 7363 0
-4974 8265 8261 8262 8263 8264 0
4974 -8265 0
4974 -8261 0
4974 -8262 0
4974 -8263 0
4974 -8264 0
8266 -7347 -7367 0
-8266 7347 0
-8266 7367 0
8267 -7344 -7367 0
-8267 7344 0
-8267 7367 0
8268 -7344 -7369 0
-8268 7344 0
-8268 7369 0
8269 -7347 -7369 -7363 0
-8269 7347 0
-8269 7369 0
-8269 7363 0
-4981 7356 8266 8267 8268 8269 0
4981 -7356 0
4981 -8266 0
4981 -8267 0
4981 -8268 0
4981 -8269 0
8270 -7373 -7361 0
-8270 7373 0
-8270 7361 0
8271 -7365 -7351 0
-8271 7365 0
-8271 7351 0
8272 -7365 -7361 0
-8272 7365 0
-8272 7361 0
8273 -7373 -7351 -7363 0
-8273 7373 0
-8273 7351 0
-8273 7363 0
-4965 7371 8270 8271 8272 8273 0
4965 -7371 0
4965 -8270 0
4965 -8271 0
4965 -8272 0
4965 -8273 0
8274 -7373 -7344 0
-8274 7373 0
-8274 7344 0
8275 -7365 -7347 0
-8275 7365 0
-8275 7347 0
8276 -7365 -7344 0
-8276 7365 0
-8276 7344 0
8277 -7373 -7347 -7363 0
-8277 7373 0
-8277 7347 0
-8277 7363 0
-4986 7353 8274 8275 8276 8277 0
4986 -7353 0
4986 -8274 0
4986 -8275 0
4986 -8276 0
4986 -8277 0
8278 -7373 -7365 0
-8278 7373 0
-8278 7365 0
8279 -7365 -7365 0
-8279 7365 0
-8279 7365 0
8280 -7365 -7373 0
-8280 7365 0
-8280 7373 0
8281 -7373 -7373 -7363 0
-8281 7373 0
-8281 7373 0
-8281 7363 0
-4992 7375 8278 8279 8280 8281 0
4992 -7375 0
4992 -8278 0
4992 -8279 0
4992 -8280 0
4992 -8281 0
8282 -8283 -8284 0
-8282 8283 0
-8282 8284 0
8285 -8284 -8284 0
-8285 8284 0
-8285 8284 0
8286 -8284 -8283 0
-8286 8284 0
-8286 8283 0
8287 -8283 -8283 -8288 0
-8287 8283 0
-8287 8283 0
-8287 8288 0
-4029 8289 8282 8285 8286 8287 0
4029 -8289 0
4029 -8282 0
4029 -8285 0
4029 -8286 0
4029 -8287 0
8290 -8283 -8291 0
-8290 8283 0
-8290 8291 0
8292 -8284 -8291 0
-8292 8284 0
-8292 8291 0
8293 -8284 -8294 0
-8293 8284 0
-8293 8294 0
8295 -8283 -8294 -8288 0
-8295 8283 0
-8295 8294 0
-8295 8288 0
-4025 8296 8290 8292 8293 8295 0
4025 -8296 0
4025 -8290 0
4025 -8292 0
4025 -8293 0
4025 -8295 0
8297 -8283 -8298 0
-8297 8283 0
-8297 8298 0
8299 -8284 -8300 0
-8299 8284 0
-8299 8300 0
8301 -8284 -8298 0
-8301 8284 0
-8301 8298 0
8302 -8283 -8300 -8288 0
-8302 8283 0
-8302 8300 0
-8302 8288 0
-4049 8303 8297 8299 8301 8302 0
4049 -8303 0
4049 -8297 0
4049 -8299 0
4049 -8301 0
4049 -8302 0
8304 -8305 -8298 0
-8304 8305 0
-8304 8298 0
8306 -8307 -8298 0
-8306 8307 0
-8306 8298 0
8308 -8307 -8300 0
-8308 8307 0
-8308 8300 0
8309 -8305 -8300 -8288 0
-8309 8305 0
-8309 8300 0
-8309 8288 0
-4047 8310 8304 8306 8308 8309 0
4047 -8310 0
4047 -8304 0
4047 -8306 0
4047 -8308 0
4047 -8309 0
8311 -8283 -8312 0
-8311 8283 0
-8311 8312 0
8313 -8284 -8312 0
-8313 8284 0
-8313 8312 0
8314 -8284 -8315 0
-8314 8284 0
-8314 8315 0
8316 -8283 -8315 -8288 0
-8316 8283 0
-8316 8315 0
-8316 8288 0
-4033 8317 8311 8313 8314 8316 0
4033 -8317 0
4033 -8311 0
4033 -8313 0
4033 -8314 0
4033 -8316 0
8318 -8283 -8319 0
-8318 8283 0
-8318 8319 0
8320 -8284 -8321 0
-8320 8284 0
-8320 8321 0
8322 -8284 -8319 0
-8322 8284 0
-8322 8319 0
8323 -8283 -8321 -8288 0
-8323 8283 0
-8323 8321 0
-8323 8288 0
-4040 8324 8318 8320 8322 8323 0
4040 -8324 0
4040 -8318 0
4040 -8320 0
4040 -8322 0
4040 -8323 0
8325 -8305 -8319 0
-8325 8305 0
-8325 8319 0
8326 -8307 -8319 0
-8326 8307 0
-8326 8319 0
8327 -8307 -8321 0
-8327 8307 0
-8327 8321 0
8328 -8305 -8321 -8288 0
-8328 8305 0
-8328 8321 0
-8328 8288 0
-4042 8329 8325 8326 8327 8328 0
4042 -8329 0
4042 -8325 0
4042 -8326 0
4042 -8327 0
4042 -8328 0
8330 -8294 -8307 0
-8330 8294 0
-8330 8307 0
8331 -8291 -8305 0
-8331 8291 0
-8331 8305 0
8332 -8291 -8307 0
-8332 8291 0
-8332 8307 0
8333 -8294 -8305 -8288 0
-8333 8294 0
-8333 8305 0
-8333 8288 0
-4024 8334 8330 8331 8332 8333 0
4024 -8334 0
4024 -8330 0
4024 -8331 0
4024 -8332 0
4024 -8333 0
8335 -8294 -8291 0
-8335 8294 0
-8335 8291 0
8336 -8291 -8291 0
-8336 8291 0
-8336 8291 0
8337 -8291 -8294 0
-8337 8291 0
-8337 8294 0
8338 -8294 -8294 -8288 0
-8338 8294 0
-8338 8294 0
-8338 8288 0
-4031 8339 8335 8336 8337 8338 0
4031 -8339 0
4031 -8335 0
4031 -8336 0
4031 -8337 0
4031 -8338 0
8340 -8294 -8312 0
-8340 8294 0
-8340 8312 0
8341 -8291 -8312 0
-8341 8291 0
-8341 8312 0
8342 -8291 -8315 0
-8342 8291 0
-8342 8315 0
8343 -8294 -8315 -8288 0
-8343 8294 0
-8343 8315 0
-8343 8288 0
-4038 8344 8340 8341 8342 8343 0
4038 -8344 0
4038 -8340 0
4038 -8341 0
4038 -8342 0
4038 -8343 0
8345 -8294 -8319 0
-8345 8294 0
-8345 8319 0
8346 -8291 -8321 0
-8346 8291 0
-8346 8321 0
8347 -8291 -8319 0
-8347 8291 0
-8347 8319 0
8348 -8294 -8321 -8288 0
-8348 8294 0
-8348 8321 0
-8348 8288 0
-4045 8349 8345 8346 8347 8348 0
4045 -8349 0
4045 -8345 0
4045 -8346 0
4045 -8347 0
4045 -8348 0
8350 -8300 -8319 0
-8350 8300 0
-8350 8319 0
8351 -8298 -8319 0
-8351 8298 0
-8351 8319 0
8352 -8298 -8321 0
-8352 8298 0
-8352 8321 0
8353 -8300 -8321 -8288 0
-8353 8300 0
-8353 8321 0
-8353 8288 0
-4052 8354 8350 8351 8352 8353 0
4052 -8354 0
4052 -8350 0
4052 -8351 0
4052 -8352 0
4052 -8353 0
8355 -8315 -8307 0
-8355 8315 0
-8355 8307 0
8356 -8312 -8305 0
-8356 8312 0
-8356 8305 0
8357 -8312 -8307 0
-8357 8312 0
-8357 8307 0
8358 -8315 -8305 -8288 0
-8358 8315 0
-8358 8305 0
-8358 8288 0
-4036 8359 8355 8356 8357 8358 0
4036 -8359 0
4036 -8355 0
4036 -8356 0
4036 -8357 0
4036 -8358 0
8360 -8315 -8298 0
-8360 8315 0
-8360 8298 0
8361 -8312 -8300 0
-8361 8312 0
-8361 8300 0
8362 -8312 -8298 0
-8362 8312 0
-8362 8298 0
8363 -8315 -8300 -8288 0
-8363 8315 0
-8363 8300 0
-8363 8288 0
-4057 8364 8360 8361 8362 8363 0
4057 -8364 0
4057 -8360 0
4057 -8361 0
4057 -8362 0
4057 -8363 0
8365 -8315 -8312 0
-8365 8315 0
-8365 8312 0
8366 -8312 -8312 0
-8366 8312 0
-8366 8312 0
8367 -8312 -8315 0
-8367 8312 0
-8367 8315 0
8368 -8315 -8315 -8288 0
-8368 8315 0
-8368 8315 0
-8368 8288 0
-4063 8369 8365 8366 8367 8368 0
4063 -8369 0
4063 -8365 0
4063 -8366 0
4063 -8367 0
4063 -8368 0
8370 -8371 -8372 0
-8370 8371 0
-8370 8372 0
8373 -8372 -8372 0
-8373 8372 0
-8373 8372 0
8374 -8372 -8371 0
-8374 8372 0
-8374 8371 0
8375 -8371 -8371 -8376 0
-8375 8371 0
-8375 8371 0
-8375 8376 0
-4355 8377 8370 8373 8374 8375 0
4355 -8377 0
4355 -8370 0
4355 -8373 0
4355 -8374 0
4355 -8375 0
8378 -8371 -8379 0
-8378 8371 0
-8378 8379 0
8380 -8372 -8379 0
-8380 8372 0
-8380 8379 0
8381 -8372 -8382 0
-8381 8372 0
-8381 8382 0
8383 -8371 -8382 -8376 0
-8383 8371 0
-8383 8382 0
-8383 8376 0
-4351 8384 8378 8380 8381 8383 0
4351 -8384 0
4351 -8378 0
4351 -8380 0
4351 -8381 0
4351 -8383 0
8385 -8371 -8386 0
-8385 8371 0
-8385 8386 0
8387 -8372 -8388 0
-8387 8372 0
-8387 8388 0
8389 -8372 -8386 0
-8389 8372 0
-8389 8386 0
8390 -8371 -8388 -8376 0
-8390 8371 0
-8390 8388 0
-8390 8376 0
-4369 8391 8385 8387 8389 8390 0
4369 -8391 0
4369 -8385 0
4369 -8387 0
4369 -8389 0
4369 -8390 0
8392 -8393 -8386 0
-8392 8393 0
-8392 8386 0
8394 -8395 -8386 0
-8394 8395 0
-8394 8386 0
8396 -8395 -8388 0
-8396 8395 0
-8396 8388 0
8397 -8393 -8388 -8376 0
-8397 8393 0
-8397 8388 0
-8397 8376 0
-2512 8398 8392 8394 8396 8397 0
2512 -8398 0
2512 -8392 0
2512 -8394 0
2512 -8396 0
2512 -8397 0
8399 -8371 -8400 0
-8399 8371 0
-8399 8400 0
8401 -8372 -8400 0
-8401 8372 0
-8401 8400 0
8402 -8372 -8403 0
-8402 8372 0
-8402 8403 0
8404 -8371 -8403 -8376 0
-8404 8371 0
-8404 8403 0
-8404 8376 0
-4358 8405 8399 8401 8402 8404 0
4358 -8405 0
4358 -8399 0
4358 -8401 0
4358 -8402 0
4358 -8404 0
8406 -8371 -8407 0
-8406 8371 0
-8406 8407 0
8408 -8372 -8409 0
-8408 8372 0
-8408 8409 0
8410 -8372 -8407 0
-8410 8372 0
-8410 8407 0
8411 -8371 -8409 -8376 0
-8411 8371 0
-8411 8409 0
-8411 8376 0
-4363 8412 8406 8408 8410 8411 0
4363 -8412 0
4363 -8406 0
4363 -8408 0
4363 -8410 0
4363 -8411 0
8413 -8393 -8407 0
-8413 8393 0
-8413 8407 0
8414 -8395 -8407 0
-8414 8395 0
-8414 8407 0
8415 -8395 -8409 0
-8415 8395 0
-8415 8409 0
8416 -8393 -8409 -8376 0
-8416 8393 0
-8416 8409 0
-8416 8376 0
-2509 8417 8413 8414 8415 8416 0
2509 -8417 0
2509 -8413 0
2509 -8414 0
2509 -8415 0
2509 -8416 0
8418 -8382 -8395 0
-8418 8382 0
-8418 8395 0
8419 -8379 -8393 0
-8419 8379 0
-8419 8393 0
8420 -8379 -8395 0
-8420 8379 0
-8420 8395 0
8421 -8382 -8393 -8376 0
-8421 8382 0
-8421 8393 0
-8421 8376 0
-2502 8422 8418 8419 8420 8421 0
2502 -8422 0
2502 -8418 0
2502 -8419 0
2502 -8420 0
2502 -8421 0
8423 -8382 -8379 0
-8423 8382 0
-8423 8379 0
8424 -8379 -8379 0
-8424 8379 0
-8424 8379 0
8425 -8379 -8382 0
-8425 8379 0
-8425 8382 0
8426 -8382 -8382 -8376 0
-8426 8382 0
-8426 8382 0
-8426 8376 0
-2504 8427 8423 8424 8425 8426 0
2504 -8427 0
2504 -8423 0
2504 -8424 0
2504 -8425 0
2504 -8426 0
8428 -8382 -8400 0
-8428 8382 0
-8428 8400 0
8429 -8379 -8400 0
-8429 8379 0
-8429 8400 0
8430 -8379 -8403 0
-8430 8379 0
-8430 8403 0
8431 -8382 -8403 -8376 0
-8431 8382 0
-8431 8403 0
-8431 8376 0
-2507 8432 8428 8429 8430 8431 0
2507 -8432 0
2507 -8428 0
2507 -8429 0
2507 -8430 0
2507 -8431 0
8433 -8382 -8407 0
-8433 8382 0
-8433 8407 0
8434 -8379 -8409 0
-8434 8379 0
-8434 8409 0
8435 -8379 -8407 0
-8435 8379 0
-8435 8407 0
8436 -8382 -8409 -8376 0
-8436 8382 0
-8436 8409 0
-8436 8376 0
-2510 8437 8433 8434 8435 8436 0
2510 -8437 0
2510 -8433 0
2510 -8434 0
2510 -8435 0
2510 -8436 0
8438 -8388 -8407 0
-8438 8388 0
-8438 8407 0
8439 -8386 -8407 0
-8439 8386 0
-8439 8407 0
8440 -8386 -8409 0
-8440 8386 0
-8440 8409 0
8441 -8388 -8409 -8376 0
-8441 8388 0
-8441 8409 0
-8441 8376 0
-2513 8442 8438 8439 8440 8441 0
2513 -8442 0
2513 -8438 0
2513 -8439 0
2513 -8440 0
2513 -8441 0
8443 -8403 -8395 0
-8443 8403 0
-8443 8395 0
8444 -8400 -8393 0
-8444 8400 0
-8444 8393 0
8445 -8400 -8395 0
-8445 8400 0
-8445 8395 0
8446 -8403 -8393 -8376 0
-8446 8403 0
-8446 8393 0
-8446 8376 0
-2506 8447 8443 8444 8445 8446 0
2506 -8447 0
2506 -8443 0
2506 -8444 0
2506 -8445 0
2506 -8446 0
8448 -8403 -8386 0
-8448 8403 0
-8448 8386 0
8449 -8400 -8388 0
-8449 8400 0
-8449 8388 0
8450 -8400 -8386 0
-8450 8400 0
-8450 8386 0
8451 -8403 -8388 -8376 0
-8451 8403 0
-8451 8388 0
-8451 8376 0
-2515 8452 8448 8449 8450 8451 0
2515 -8452 0
2515 -8448 0
2515 -8449 0
2515 -8450 0
2515 -8451 0
8453 -8403 -8400 0
-8453 8403 0
-8453 8400 0
8454 -8400 -8400 0
-8454 8400 0
-8454 8400 0
8455 -8400 -8403 0
-8455 8400 0
-8455 8403 0
8456 -8403 -8403 -8376 0
-8456 8403 0
-8456 8403 0
-8456 8376 0
-2518 8457 8453 8454 8455 8456 0
2518 -8457 0
2518 -8453 0
2518 -8454 0
2518 -8455 0
2518 -8456 0
8458 -6770 -6770 0
-8458 6770 0
-8458 6770 0
-3403 6776 8458 0
3403 -6776 0
3403 -8458 0
8459 -6770 -6781 0
-8459 6770 0
-8459 6781 0
-3399 6783 8459 0
3399 -6783 0
3399 -8459 0
8460 -6770 -6787 0
-8460 6770 0
-8460 6787 0
-3417 6790 8460 0
3417 -6790 0
3417 -8460 0
8461 -6792 -6787 0
-8461 6792 0
-8461 6787 0
-1721 6797 8461 0
1721 -6797 0
1721 -8461 0
8462 -6770 -6802 0
-8462 6770 0
-8462 6802 0
-3406 6804 8462 0
3406 -6804 0
3406 -8462 0
8463 -6770 -6808 0
-8463 6770 0
-8463 6808 0
-3411 6811 8463 0
3411 -6811 0
3411 -8463 0
8464 -6792 -6808 0
-8464 6792 0
-8464 6808 0
-1718 6816 8464 0
1718 -6816 0
1718 -8464 0
8465 -6781 -6792 0
-8465 6781 0
-8465 6792 0
-1711 6821 8465 0
1711 -6821 0
1711 -8465 0
8466 -6781 -6781 0
-8466 6781 0
-8466 6781 0
-1713 6826 8466 0
1713 -6826 0
1713 -8466 0
8467 -6781 -6802 0
-8467 6781 0
-8467 6802 0
-1716 6831 8467 0
1716 -6831 0
1716 -8467 0
8468 -6781 -6808 0
-8468 6781 0
-8468 6808 0
-1719 6836 8468 0
1719 -6836 0
1719 -8468 0
8469 -6787 -6808 0
-8469 6787 0
-8469 6808 0
-1722 6841 8469 0
1722 -6841 0
1722 -8469 0
8470 -6802 -6792 0
-8470 6802 0
-8470 6792 0
-1715 6846 8470 0
1715 -6846 0
1715 -8470 0
8471 -6802 -6787 0
-8471 6802 0
-8471 6787 0
-1724 6851 8471 0
1724 -6851 0
1724 -8471 0
8472 -6802 -6802 0
-8472 6802 0
-8472 6802 0
-1727 6856 8472 0
1727 -6856 0
1727 -8472 0
8473 -8303 -8303 0
-8473 8303 0
-8473 8303 0
-5324 8289 8473 0
5324 -8289 0
5324 -8473 0
8474 -8303 -8298 0
-8474 8303 0
-8474 8298 0
-5320 8284 8474 0
5320 -8284 0
5320 -8474 0
8475 -8303 -8300 0
-8475 8303 0
-8475 8300 0
-5344 8283 8475 0
5344 -8283 0
5344 -8475 0
8476 -8310 -8300 0
-8476 8310 0
-8476 8300 0
-5342 8305 8476 0
5342 -8305 0
5342 -8476 0
8477 -8303 -8364 0
-8477 8303 0
-8477 8364 0
-5328 8317 8477 0
5328 -8317 0
5328 -8477 0
8478 -8303 -8354 0
-8478 8303 0
-8478 8354 0
-5335 8324 8478 0
5335 -8324 0
5335 -8478 0
8479 -8310 -8354 0
-8479 8310 0
-8479 8354 0
-5337 8329 8479 0
5337 -8329 0
5337 -8479 0
8480 -8298 -8310 0
-8480 8298 0
-8480 8310 0
-5319 8307 8480 0
5319 -8307 0
5319 -8480 0
8481 -8298 -8298 0
-8481 8298 0
-8481 8298 0
-5326 8288 8481 0
5326 -8288 0
5326 -8481 0
8482 -8298 -8364 0
-8482 8298 0
-8482 8364 0
-5333 8312 8482 0
5333 -8312 0
5333 -8482 0
8483 -8298 -8354 0
-8483 8298 0
-8483 8354 0
-5340 8319 8483 0
5340 -8319 0
5340 -8483 0
8484 -8300 -8354 0
-8484 8300 0
-8484 8354 0
-5347 8321 8484 0
5347 -8321 0
5347 -8484 0
8485 -8364 -8310 0
-8485 8364 0
-8485 8310 0
-5331 8359 8485 0
5331 -8359 0
5331 -8485 0
8486 -8364 -8300 0
-8486 8364 0
-8486 8300 0
-5352 8315 8486 0
5352 -8315 0
5352 -8486 0
8487 -8364 -8364 0
-8487 8364 0
-8487 8364 0
-5358 8369 8487 0
5358 -8369 0
5358 -8487 0
8488 -8303 -8296 0
-8488 8303 0
-8488 8296 0
8489 -8296 -8296 0
-8489 8296 0
-8489 8296 0
8490 -8296 -8303 0
-8490 8296 0
-8490 8303 0
8491 -8303 -8303 -8339 0
-8491 8303 0
-8491 8303 0
-8491 8339 0
-5515 8289 8488 8489 8490 8491 0
5515 -8289 0
5515 -8488 0
5515 -8489 0
5515 -8490 0
5515 -8491 0
8492 -8303 -8291 0
-8492 8303 0
-8492 8291 0
8493 -8296 -8291 0
-8493 8296 0
-8493 8291 0
8494 -8296 -8298 0
-8494 8296 0
-8494 8298 0
8495 -8303 -8298 -8339 0
-8495 8303 0
-8495 8298 0
-8495 8339 0
-5511 8284 8492 8493 8494 8495 0
5511 -8284 0
5511 -8492 0
5511 -8493 0
5511 -8494 0
5511 -8495 0
8496 -8303 -8294 0
-8496 8303 0
-8496 8294 0
8497 -8296 -8300 0
-8497 8296 0
-8497 8300 0
8498 -8296 -8294 0
-8498 8296 0
-8498 8294 0
8499 -8303 -8300 -8339 0
-8499 8303 0
-8499 8300 0
-8499 8339 0
-5529 8283 8496 8497 8498 8499 0
5529 -8283 0
5529 -8496 0
5529 -8497 0
5529 -8498 0
5529 -8499 0
8500 -8310 -8294 0
-8500 8310 0
-8500 8294 0
8501 -8334 -8294 0
-8501 8334 0
-8501 8294 0
8502 -8334 -8300 0
-8502 8334 0
-8502 8300 0
8503 -8310 -8300 -8339 0
-8503 8310 0
-8503 8300 0
-8503 8339 0
-4840 8305 8500 8501 8502 8503 0
4840 -8305 0
4840 -8500 0
4840 -8501 0
4840 -8502 0
4840 -8503 0
8504 -8303 -8344 0
-8504 8303 0
-8504 8344 0
8505 -8296 -8344 0
-8505 8296 0
-8505 8344 0
8506 -8296 -8364 0
-8506 8296 0
-8506 8364 0
8507 -8303 -8364 -8339 0
-8507 8303 0
-8507 8364 0
-8507 8339 0
-5518 8317 8504 8505 8506 8507 0
5518 -8317 0
5518 -8504 0
5518 -8505 0
5518 -8506 0
5518 -8507 0
8508 -8303 -8349 0
-8508 8303 0
-8508 8349 0
8509 -8296 -8354 0
-8509 8296 0
-8509 8354 0
8510 -8296 -8349 0
-8510 8296 0
-8510 8349 0
8511 -8303 -8354 -8339 0
-8511 8303 0
-8511 8354 0
-8511 8339 0
-5523 8324 8508 8509 8510 8511 0
5523 -8324 0
5523 -8508 0
5523 -8509 0
5523 -8510 0
5523 -8511 0
8512 -8310 -8349 0
-8512 8310 0
-8512 8349 0
8513 -8334 -8349 0
-8513 8334 0
-8513 8349 0
8514 -8334 -8354 0
-8514 8334 0
-8514 8354 0
8515 -8310 -8354 -8339 0
-8515 8310 0
-8515 8354 0
-8515 8339 0
-4837 8329 8512 8513 8514 8515 0
4837 -8329 0
4837 -8512 0
4837 -8513 0
4837 -8514 0
4837 -8515 0
8516 -8298 -8334 0
-8516 8298 0
-8516 8334 0
8517 -8291 -8310 0
-8517 8291 0
-8517 8310 0
8518 -8291 -8334 0
-8518 8291 0
-8518 8334 0
8519 -8298 -8310 -8339 0
-8519 8298 0
-8519 8310 0
-8519 8339 0
-4830 8307 8516 8517 8518 8519 0
4830 -8307 0
4830 -8516 0
4830 -8517 0
4830 -8518 0
4830 -8519 0
8520 -8298 -8291 0
-8520 8298 0
-8520 8291 0
8336 -8291 -8291 0
-8336 8291 0
-8336 8291 0
8521 -8291 -8298 0
-8521 8291 0
-8521 8298 0
8522 -8298 -8298 -8339 0
-8522 8298 0
-8522 8298 0
-8522 8339 0
-4832 8288 8520 8336 8521 8522 0
4832 -8288 0
4832 -8520 0
4832 -8336 0
4832 -8521 0
4832 -8522 0
8523 -8298 -8344 0
-8523 8298 0
-8523 8344 0
8524 -8291 -8344 0
-8524 8291 0
-8524 8344 0
8525 -8291 -8364 0
-8525 8291 0
-8525 8364 0
8526 -8298 -8364 -8339 0
-8526 8298 0
-8526 8364 0
-8526 8339 0
-4835 8312 8523 8524 8525 8526 0
4835 -8312 0
4835 -8523 0
4835 -8524 0
4835 -8525 0
4835 -8526 0
8527 -8298 -8349 0
-8527 8298 0
-8527 8349 0
8528 -8291 -8354 0
-8528 8291 0
-8528 8354 0
8529 -8291 -8349 0
-8529 8291 0
-8529 8349 0
8530 -8298 -8354 -8339 0
-8530 8298 0
-8530 8354 0
-8530 8339 0
-4838 8319 8527 8528 8529 8530 0
4838 -8319 0
4838 -8527 0
4838 -8528 0
4838 -8529 0
4838 -8530 0
8531 -8300 -8349 0
-8531 8300 0
-8531 8349 0
8532 -8294 -8349 0
-8532 8294 0
-8532 8349 0
8533 -8294 -8354 0
-8533 8294 0
-8533 8354 0
8534 -8300 -8354 -8339 0
-8534 8300 0
-8534 8354 0
-8534 8339 0
-4841 8321 8531 8532 8533 8534 0
4841 -8321 0
4841 -8531 0
4841 -8532 0
4841 -8533 0
4841 -8534 0
8535 -8364 -8334 0
-8535 8364 0
-8535 8334 0
8536 -8344 -8310 0
-8536 8344 0
-8536 8310 0
8537 -8344 -8334 0
-8537 8344 0
-8537 8334 0
8538 -8364 -8310 -8339 0
-8538 8364 0
-8538 8310 0
-8538 8339 0
-4834 8359 8535 8536 8537 8538 0
4834 -8359 0
4834 -8535 0
4834 -8536 0
4834 -8537 0
4834 -8538 0
8539 -8364 -8294 0
-8539 8364 0
-8539 8294 0
8540 -8344 -8300 0
-8540 8344 0
-8540 8300 0
8541 -8344 -8294 0
-8541 8344 0
-8541 8294 0
8542 -8364 -8300 -8339 0
-8542 8364 0
-8542 8300 0
-8542 8339 0
-4843 8315 8539 8540 8541 8542 0
4843 -8315 0
4843 -8539 0
4843 -8540 0
4843 -8541 0
4843 -8542 0
8543 -8364 -8344 0
-8543 8364 0
-8543 8344 0
8544 -8344 -8344 0
-8544 8344 0
-8544 8344 0
8545 -8344 -8364 0
-8545 8344 0
-8545 8364 0
8546 -8364 -8364 -8339 0
-8546 8364 0
-8546 8364 0
-8546 8339 0
-4846 8369 8543 8544 8545 8546 0
4846 -8369 0
4846 -8543 0
4846 -8544 0
4846 -8545 0
4846 -8546 0
8547 -6858 -8548 0
-8547 6858 0
-8547 8548 0
8549 -8548 -8548 0
-8549 8548 0
-8549 8548 0
8550 -8548 -6858 0
-8550 8548 0
-8550 6858 0
8551 -6858 -6858 -8552 0
-8551 6858 0
-8551 6858 0
-8551 8552 0
-3105 6859 8547 8549 8550 8551 0
3105 -6859 0
3105 -8547 0
3105 -8549 0
3105 -8550 0
3105 -8551 0
8553 -6858 -8554 0
-8553 6858 0
-8553 8554 0
8555 -8548 -8554 0
-8555 8548 0
-8555 8554 0
8556 -8548 -6861 0
-8556 8548 0
-8556 6861 0
8557 -6858 -6861 -8552 0
-8557 6858 0
-8557 6861 0
-8557 8552 0
-3101 6862 8553 8555 8556 8557 0
3101 -6862 0
3101 -8553 0
3101 -8555 0
3101 -8556 0
3101 -8557 0
8558 -6858 -8559 0
-8558 6858 0
-8558 8559 0
8560 -8548 -6864 0
-8560 8548 0
-8560 6864 0
8561 -8548 -8559 0
-8561 8548 0
-8561 8559 0
8562 -6858 -6864 -8552 0
-8562 6858 0
-8562 6864 0
-8562 8552 0
-3119 6865 8558 8560 8561 8562 0
3119 -6865 0
3119 -8558 0
3119 -8560 0
3119 -8561 0
3119 -8562 0
8563 -6867 -8559 0
-8563 6867 0
-8563 8559 0
8564 -8565 -8559 0
-8564 8565 0
-8564 8559 0
8566 -8565 -6864 0
-8566 8565 0
-8566 6864 0
8567 -6867 -6864 -8552 0
-8567 6867 0
-8567 6864 0
-8567 8552 0
-2599 6868 8563 8564 8566 8567 0
2599 -6868 0
2599 -8563 0
2599 -8564 0
2599 -8566 0
2599 -8567 0
8568 -6858 -8569 0
-8568 6858 0
-8568 8569 0
8570 -8548 -8569 0
-8570 8548 0
-8570 8569 0
8571 -8548 -6870 0
-8571 8548 0
-8571 6870 0
8572 -6858 -6870 -8552 0
-8572 6858 0
-8572 6870 0
-8572 8552 0
-3108 6871 8568 8570 8571 8572 0
3108 -6871 0
3108 -8568 0
3108 -8570 0
3108 -8571 0
3108 -8572 0
8573 -6858 -8574 0
-8573 6858 0
-8573 8574 0
8575 -8548 -6873 0
-8575 8548 0
-8575 6873 0
8576 -8548 -8574 0
-8576 8548 0
-8576 8574 0
8577 -6858 -6873 -8552 0
-8577 6858 0
-8577 6873 0
-8577 8552 0
-3113 6874 8573 8575 8576 8577 0
3113 -6874 0
3113 -8573 0
3113 -8575 0
3113 -8576 0
3113 -8577 0
8578 -6867 -8574 0
-8578 6867 0
-8578 8574 0
8579 -8565 -8574 0
-8579 8565 0
-8579 8574 0
8580 -8565 -6873 0
-8580 8565 0
-8580 6873 0
8581 -6867 -6873 -8552 0
-8581 6867 0
-8581 6873 0
-8581 8552 0
-2596 6876 8578 8579 8580 8581 0
2596 -6876 0
2596 -8578 0
2596 -8579 0
2596 -8580 0
2596 -8581 0
8582 -6861 -8565 0
-8582 6861 0
-8582 8565 0
8583 -8554 -6867 0
-8583 8554 0
-8583 6867 0
8584 -8554 -8565 0
-8584 8554 0
-8584 8565 0
8585 -6861 -6867 -8552 0
-8585 6861 0
-8585 6867 0
-8585 8552 0
-2589 6878 8582 8583 8584 8585 0
2589 -6878 0
2589 -8582 0
2589 -8583 0
2589 -8584 0
2589 -8585 0
8586 -6861 -8554 0
-8586 6861 0
-8586 8554 0
8587 -8554 -8554 0
-8587 8554 0
-8587 8554 0
8588 -8554 -6861 0
-8588 8554 0
-8588 6861 0
8589 -6861 -6861 -8552 0
-8589 6861 0
-8589 6861 0
-8589 8552 0
-2591 6880 8586 8587 8588 8589 0
2591 -6880 0
2591 -8586 0
2591 -8587 0
2591 -8588 0
2591 -8589 0
8590 -6861 -8569 0
-8590 6861 0
-8590 8569 0
8591 -8554 -8569 0
-8591 8554 0
-8591 8569 0
8592 -8554 -6870 0
-8592 8554 0
-8592 6870 0
8593 -6861 -6870 -8552 0
-8593 6861 0
-8593 6870 0
-8593 8552 0
-2594 6882 8590 8591 8592 8593 0
2594 -6882 0
2594 -8590 0
2594 -8591 0
2594 -8592 0
2594 -8593 0
8594 -6861 -8574 0
-8594 6861 0
-8594 8574 0
8595 -8554 -6873 0
-8595 8554 0
-8595 6873 0
8596 -8554 -8574 0
-8596 8554 0
-8596 8574 0
8597 -6861 -6873 -8552 0
-8597 6861 0
-8597 6873 0
-8597 8552 0
-2597 6884 8594 8595 8596 8597 0
2597 -6884 0
2597 -8594 0
2597 -8595 0
2597 -8596 0
2597 -8597 0
8598 -6864 -8574 0
-8598 6864 0
-8598 8574 0
8599 -8559 -8574 0
-8599 8559 0
-8599 8574 0
8600 -8559 -6873 0
-8600 8559 0
-8600 6873 0
8601 -6864 -6873 -8552 0
-8601 6864 0
-8601 6873 0
-8601 8552 0
-2600 6886 8598 8599 8600 8601 0
2600 -6886 0
2600 -8598 0
2600 -8599 0
2600 -8600 0
2600 -8601 0
8602 -6870 -8565 0
-8602 6870 0
-8602 8565 0
8603 -8569 -6867 0
-8603 8569 0
-8603 6867 0
8604 -8569 -8565 0
-8604 8569 0
-8604 8565 0
8605 -6870 -6867 -8552 0
-8605 6870 0
-8605 6867 0
-8605 8552 0
-2593 6888 8602 8603 8604 8605 0
2593 -6888 0
2593 -8602 0
2593 -8603 0
2593 -8604 0
2593 -8605 0
8606 -6870 -8559 0
-8606 6870 0
-8606 8559 0
8607 -8569 -6864 0
-8607 8569 0
-8607 6864 0
8608 -8569 -8559 0
-8608 8569 0
-8608 8559 0
8609 -6870 -6864 -8552 0
-8609 6870 0
-8609 6864 0
-8609 8552 0
-2602 6890 8606 8607 8608 8609 0
2602 -6890 0
2602 -8606 0
2602 -8607 0
2602 -8608 0
2602 -8609 0
8610 -6870 -8569 0
-8610 6870 0
-8610 8569 0
8611 -8569 -8569 0
-8611 8569 0
-8611 8569 0
8612 -8569 -6870 0
-8612 8569 0
-8612 6870 0
8613 -6870 -6870 -8552 0
-8613 6870 0
-8613 6870 0
-8613 8552 0
-2605 6892 8610 8611 8612 8613 0
2605 -6892 0
2605 -8610 0
2605 -8611 0
2605 -8612 0
2605 -8613 0
8614 -6579 -7813 0
-8614 6579 0
-8614 7813 0
8615 -7813 -7813 0
-8615 7813 0
-8615 7813 0
8616 -7813 -6579 0
-8616 7813 0
-8616 6579 0
8617 -6579 -6579 -7843 0
-8617 6579 0
-8617 6579 0
-8617 7843 0
-3991 6580 8614 8615 8616 8617 0
3991 -6580 0
3991 -8614 0
3991 -8615 0
3991 -8616 0
3991 -8617 0
8618 -6579 -7808 0
-8618 6579 0
-8618 7808 0
8619 -7813 -7808 0
-8619 7813 0
-8619 7808 0
8620 -7813 -6582 0
-8620 7813 0
-8620 6582 0
8621 -6579 -6582 -7843 0
-8621 6579 0
-8621 6582 0
-8621 7843 0
-3986 6583 8618 8619 8620 8621 0
3986 -6583 0
3986 -8618 0
3986 -8619 0
3986 -8620 0
3986 -8621 0
8622 -6579 -7811 0
-8622 6579 0
-8622 7811 0
8623 -7813 -6585 0
-8623 7813 0
-8623 6585 0
8624 -7813 -7811 0
-8624 7813 0
-8624 7811 0
8625 -6579 -6585 -7843 0
-8625 6579 0
-8625 6585 0
-8625 7843 0
-3985 6586 8622 8623 8624 8625 0
3985 -6586 0
3985 -8622 0
3985 -8623 0
3985 -8624 0
3985 -8625 0
8626 -6588 -7811 0
-8626 6588 0
-8626 7811 0
8627 -7838 -7811 0
-8627 7838 0
-8627 7811 0
8628 -7838 -6585 0
-8628 7838 0
-8628 6585 0
8629 -6588 -6585 -7843 0
-8629 6588 0
-8629 6585 0
-8629 7843 0
-2352 6589 8626 8627 8628 8629 0
2352 -6589 0
2352 -8626 0
2352 -8627 0
2352 -8628 0
2352 -8629 0
8630 -6579 -7848 0
-8630 6579 0
-8630 7848 0
8631 -7813 -7848 0
-8631 7813 0
-8631 7848 0
8632 -7813 -6591 0
-8632 7813 0
-8632 6591 0
8633 -6579 -6591 -7843 0
-8633 6579 0
-8633 6591 0
-8633 7843 0
-3996 6592 8630 8631 8632 8633 0
3996 -6592 0
3996 -8630 0
3996 -8631 0
3996 -8632 0
3996 -8633 0
8634 -6579 -7853 0
-8634 6579 0
-8634 7853 0
8635 -7813 -6594 0
-8635 7813 0
-8635 6594 0
8636 -7813 -7853 0
-8636 7813 0
-8636 7853 0
8637 -6579 -6594 -7843 0
-8637 6579 0
-8637 6594 0
-8637 7843 0
-4001 6595 8634 8635 8636 8637 0
4001 -6595 0
4001 -8634 0
4001 -8635 0
4001 -8636 0
4001 -8637 0
8638 -6588 -7853 0
-8638 6588 0
-8638 7853 0
8639 -7838 -7853 0
-8639 7838 0
-8639 7853 0
8640 -7838 -6594 0
-8640 7838 0
-8640 6594 0
8641 -6588 -6594 -7843 0
-8641 6588 0
-8641 6594 0
-8641 7843 0
-2349 6597 8638 8639 8640 8641 0
2349 -6597 0
2349 -8638 0
2349 -8639 0
2349 -8640 0
2349 -8641 0
8642 -6582 -7838 0
-8642 6582 0
-8642 7838 0
8643 -7808 -6588 0
-8643 7808 0
-8643 6588 0
8644 -7808 -7838 0
-8644 7808 0
-8644 7838 0
8645 -6582 -6588 -7843 0
-8645 6582 0
-8645 6588 0
-8645 7843 0
-2342 6599 8642 8643 8644 8645 0
2342 -6599 0
2342 -8642 0
2342 -8643 0
2342 -8644 0
2342 -8645 0
8646 -6582 -7808 0
-8646 6582 0
-8646 7808 0
7840 -7808 -7808 0
-7840 7808 0
-7840 7808 0
8647 -7808 -6582 0
-8647 7808 0
-8647 6582 0
8648 -6582 -6582 -7843 0
-8648 6582 0
-8648 6582 0
-8648 7843 0
-2344 6601 8646 7840 8647 8648 0
2344 -6601 0
2344 -8646 0
2344 -7840 0
2344 -8647 0
2344 -8648 0
8649 -6582 -7848 0
-8649 6582 0
-8649 7848 0
8650 -7808 -7848 0
-8650 7808 0
-8650 7848 0
8651 -7808 -6591 0
-8651 7808 0
-8651 6591 0
8652 -6582 -6591 -7843 0
-8652 6582 0
-8652 6591 0
-8652 7843 0
-2347 6603 8649 8650 8651 8652 0
2347 -6603 0
2347 -8649 0
2347 -8650 0
2347 -8651 0
2347 -8652 0
8653 -6582 -7853 0
-8653 6582 0
-8653 7853 0
8654 -7808 -6594 0
-8654 7808 0
-8654 6594 0
8655 -7808 -7853 0
-8655 7808 0
-8655 7853 0
8656 -6582 -6594 -7843 0
-8656 6582 0
-8656 6594 0
-8656 7843 0
-2350 6605 8653 8654 8655 8656 0
2350 -6605 0
2350 -8653 0
2350 -8654 0
2350 -8655 0
2350 -8656 0
8657 -6585 -7853 0
-8657 6585 0
-8657 7853 0
8658 -7811 -7853 0
-8658 7811 0
-8658 7853 0
8659 -7811 -6594 0
-8659 7811 0
-8659 6594 0
8660 -6585 -6594 -7843 0
-8660 6585 0
-8660 6594 0
-8660 7843 0
-2353 6607 8657 8658 8659 8660 0
2353 -6607 0
2353 -8657 0
2353 -8658 0
2353 -8659 0
2353 -8660 0
8661 -6591 -7838 0
-8661 6591 0
-8661 7838 0
8662 -7848 -6588 0
-8662 7848 0
-8662 6588 0
8663 -7848 -7838 0
-8663 7848 0
-8663 7838 0
8664 -6591 -6588 -7843 0
-8664 6591 0
-8664 6588 0
-8664 7843 0
-2346 6609 8661 8662 8663 8664 0
2346 -6609 0
2346 -8661 0
2346 -8662 0
2346 -8663 0
2346 -8664 0
8665 -6591 -7811 0
-8665 6591 0
-8665 7811 0
8666 -7848 -6585 0
-8666 7848 0
-8666 6585 0
8667 -7848 -7811 0
-8667 7848 0
-8667 7811 0
8668 -6591 -6585 -7843 0
-8668 6591 0
-8668 6585 0
-8668 7843 0
-2355 6611 8665 8666 8667 8668 0
2355 -6611 0
2355 -8665 0
2355 -8666 0
2355 -8667 0
2355 -8668 0
8669 -6591 -7848 0
-8669 6591 0
-8669 7848 0
8670 -7848 -7848 0
-8670 7848 0
-8670 7848 0
8671 -7848 -6591 0
-8671 7848 0
-8671 6591 0
8672 -6591 -6591 -7843 0
-8672 6591 0
-8672 6591 0
-8672 7843 0
-2358 6613 8669 8670 8671 8672 0
2358 -6613 0
2358 -8669 0
2358 -8670 0
2358 -8671 0
2358 -8672 0
8673 -7341 -8225 0
-8673 7341 0
-8673 8225 0
8674 -8225 -8225 0
-8674 8225 0
-8674 8225 0
8675 -8225 -7341 0
-8675 8225 0
-8675 7341 0
8676 -7341 -7341 -8255 0
-8676 7341 0
-8676 7341 0
-8676 8255 0
-4544 7342 8673 8674 8675 8676 0
4544 -7342 0
4544 -8673 0
4544 -8674 0
4544 -8675 0
4544 -8676 0
8677 -7341 -8220 0
-8677 7341 0
-8677 8220 0
8678 -8225 -8220 0
-8678 8225 0
-8678 8220 0
8679 -8225 -7344 0
-8679 8225 0
-8679 7344 0
8680 -7341 -7344 -8255 0
-8680 7341 0
-8680 7344 0
-8680 8255 0
-5284 7345 8677 8678 8679 8680 0
5284 -7345 0
5284 -8677 0
5284 -8678 0
5284 -8679 0
5284 -8680 0
8681 -7341 -8223 0
-8681 7341 0
-8681 8223 0
8682 -8225 -7347 0
-8682 8225 0
-8682 7347 0
8683 -8225 -8223 0
-8683 8225 0
-8683 8223 0
8684 -7341 -7347 -8255 0
-8684 7341 0
-8684 7347 0
-8684 8255 0
-4542 7348 8681 8682 8683 8684 0
4542 -7348 0
4542 -8681 0
4542 -8682 0
4542 -8683 0
4542 -8684 0
8685 -7350 -8223 0
-8685 7350 0
-8685 8223 0
8686 -8250 -8223 0
-8686 8250 0
-8686 8223 0
8687 -8250 -7347 0
-8687 8250 0
-8687 7347 0
8688 -7350 -7347 -8255 0
-8688 7350 0
-8688 7347 0
-8688 8255 0
-1654 7351 8685 8686 8687 8688 0
1654 -7351 0
1654 -8685 0
1654 -8686 0
1654 -8687 0
1654 -8688 0
8689 -7341 -8260 0
-8689 7341 0
-8689 8260 0
8690 -8225 -8260 0
-8690 8225 0
-8690 8260 0
8691 -8225 -7353 0
-8691 8225 0
-8691 7353 0
8692 -7341 -7353 -8255 0
-8692 7341 0
-8692 7353 0
-8692 8255 0
-4546 7354 8689 8690 8691 8692 0
4546 -7354 0
4546 -8689 0
4546 -8690 0
4546 -8691 0
4546 -8692 0
8693 -7341 -8265 0
-8693 7341 0
-8693 8265 0
8694 -8225 -7356 0
-8694 8225 0
-8694 7356 0
8695 -8225 -8265 0
-8695 8225 0
-8695 8265 0
8696 -7341 -7356 -8255 0
-8696 7341 0
-8696 7356 0
-8696 8255 0
-4548 7357 8693 8694 8695 8696 0
4548 -7357 0
4548 -8693 0
4548 -8694 0
4548 -8695 0
4548 -8696 0
8697 -7350 -8265 0
-8697 7350 0
-8697 8265 0
8698 -8250 -8265 0
-8698 8250 0
-8698 8265 0
8699 -8250 -7356 0
-8699 8250 0
-8699 7356 0
8700 -7350 -7356 -8255 0
-8700 7350 0
-8700 7356 0
-8700 8255 0
-1651 7359 8697 8698 8699 8700 0
1651 -7359 0
1651 -8697 0
1651 -8698 0
1651 -8699 0
1651 -8700 0
8701 -7344 -8250 0
-8701 7344 0
-8701 8250 0
8702 -8220 -7350 0
-8702 8220 0
-8702 7350 0
8703 -8220 -8250 0
-8703 8220 0
-8703 8250 0
8704 -7344 -7350 -8255 0
-8704 7344 0
-8704 7350 0
-8704 8255 0
-1644 7361 8701 8702 8703 8704 0
1644 -7361 0
1644 -8701 0
1644 -8702 0
1644 -8703 0
1644 -8704 0
8705 -7344 -8220 0
-8705 7344 0
-8705 8220 0
8252 -8220 -8220 0
-8252 8220 0
-8252 8220 0
8706 -8220 -7344 0
-8706 8220 0
-8706 7344 0
8707 -7344 -7344 -8255 0
-8707 7344 0
-8707 7344 0
-8707 8255 0
-1646 7363 8705 8252 8706 8707 0
1646 -7363 0
1646 -8705 0
1646 -8252 0
1646 -8706 0
1646 -8707 0
8708 -7344 -8260 0
-8708 7344 0
-8708 8260 0
8709 -8220 -8260 0
-8709 8220 0
-8709 8260 0
8710 -8220 -7353 0
-8710 8220 0
-8710 7353 0
8711 -7344 -7353 -8255 0
-8711 7344 0
-8711 7353 0
-8711 8255 0
-1649 7365 8708 8709 8710 8711 0
1649 -7365 0
1649 -8708 0
1649 -8709 0
1649 -8710 0
1649 -8711 0
8712 -7344 -8265 0
-8712 7344 0
-8712 8265 0
8713 -8220 -7356 0
-8713 8220 0
-8713 7356 0
8714 -8220 -8265 0
-8714 8220 0
-8714 8265 0
8715 -7344 -7356 -8255 0
-8715 7344 0
-8715 7356 0
-8715 8255 0
-1652 7367 8712 8713 8714 8715 0
1652 -7367 0
1652 -8712 0
1652 -8713 0
1652 -8714 0
1652 -8715 0
8716 -7347 -8265 0
-8716 7347 0
-8716 8265 0
8717 -8223 -8265 0
-8717 8223 0
-8717 8265 0
8718 -8223 -7356 0
-8718 8223 0
-8718 7356 0
8719 -7347 -7356 -8255 0
-8719 7347 0
-8719 7356 0
-8719 8255 0
-1655 7369 8716 8717 8718 8719 0
1655 -7369 0
1655 -8716 0
1655 -8717 0
1655 -8718 0
1655 -8719 0
8720 -7353 -8250 0
-8720 7353 0
-8720 8250 0
8721 -8260 -7350 0
-8721 8260 0
-8721 7350 0
8722 -8260 -8250 0
-8722 8260 0
-8722 8250 0
8723 -7353 -7350 -8255 0
-8723 7353 0
-8723 7350 0
-8723 8255 0
-1648 7371 8720 8721 8722 8723 0
1648 -7371 0
1648 -8720 0
1648 -8721 0
1648 -8722 0
1648 -8723 0
8724 -7353 -8223 0
-8724 7353 0
-8724 8223 0
8725 -8260 -7347 0
-8725 8260 0
-8725 7347 0
8726 -8260 -8223 0
-8726 8260 0
-8726 8223 0
8727 -7353 -7347 -8255 0
-8727 7353 0
-8727 7347 0
-8727 8255 0
-1657 7373 8724 8725 8726 8727 0
1657 -7373 0
1657 -8724 0
1657 -8725 0
1657 -8726 0
1657 -8727 0
8728 -7353 -8260 0
-8728 7353 0
-8728 8260 0
8729 -8260 -8260 0
-8729 8260 0
-8729 8260 0
8730 -8260 -7353 0
-8730 8260 0
-8730 7353 0
8731 -7353 -7353 -8255 0
-8731 7353 0
-8731 7353 0
-8731 8255 0
-1660 7375 8728 8729 8730 8731 0
1660 -7375 0
1660 -8728 0
1660 -8729 0
1660 -8730 0
1660 -8731 0
8732 -8056 -8733 0
-8732 8056 0
-8732 8733 0
8734 -8733 -8733 0
-8734 8733 0
-8734 8733 0
8735 -8733 -8056 0
-8735 8733 0
-8735 8056 0
8736 -8056 -8056 -8737 0
-8736 8056 0
-8736 8056 0
-8736 8737 0
-5232 8057 8732 8734 8735 8736 0
5232 -8057 0
5232 -8732 0
5232 -8734 0
5232 -8735 0
5232 -8736 0
8738 -8056 -8739 0
-8738 8056 0
-8738 8739 0
8740 -8733 -8739 0
-8740 8733 0
-8740 8739 0
8741 -8733 -8059 0
-8741 8733 0
-8741 8059 0
8742 -8056 -8059 -8737 0
-8742 8056 0
-8742 8059 0
-8742 8737 0
-5228 8060 8738 8740 8741 8742 0
5228 -8060 0
5228 -8738 0
5228 -8740 0
5228 -8741 0
5228 -8742 0
8743 -8056 -8744 0
-8743 8056 0
-8743 8744 0
8745 -8733 -8062 0
-8745 8733 0
-8745 8062 0
8746 -8733 -8744 0
-8746 8733 0
-8746 8744 0
8747 -8056 -8062 -8737 0
-8747 8056 0
-8747 8062 0
-8747 8737 0
-5246 8063 8743 8745 8746 8747 0
5246 -8063 0
5246 -8743 0
5246 -8745 0
5246 -8746 0
5246 -8747 0
8748 -8065 -8744 0
-8748 8065 0
-8748 8744 0
8749 -8750 -8744 0
-8749 8750 0
-8749 8744 0
8751 -8750 -8062 0
-8751 8750 0
-8751 8062 0
8752 -8065 -8062 -8737 0
-8752 8065 0
-8752 8062 0
-8752 8737 0
-1251 8066 8748 8749 8751 8752 0
1251 -8066 0
1251 -8748 0
1251 -8749 0
1251 -8751 0
1251 -8752 0
8753 -8056 -8754 0
-8753 8056 0
-8753 8754 0
8755 -8733 -8754 0
-8755 8733 0
-8755 8754 0
8756 -8733 -8068 0
-8756 8733 0
-8756 8068 0
8757 -8056 -8068 -8737 0
-8757 8056 0
-8757 8068 0
-8757 8737 0
-5235 8069 8753 8755 8756 8757 0
5235 -8069 0
5235 -8753 0
5235 -8755 0
5235 -8756 0
5235 -8757 0
8758 -8056 -8759 0
-8758 8056 0
-8758 8759 0
8760 -8733 -8071 0
-8760 8733 0
-8760 8071 0
8761 -8733 -8759 0
-8761 8733 0
-8761 8759 0
8762 -8056 -8071 -8737 0
-8762 8056 0
-8762 8071 0
-8762 8737 0
-5240 8072 8758 8760 8761 8762 0
5240 -8072 0
5240 -8758 0
5240 -8760 0
5240 -8761 0
5240 -8762 0
8763 -8065 -8759 0
-8763 8065 0
-8763 8759 0
8764 -8750 -8759 0
-8764 8750 0
-8764 8759 0
8765 -8750 -8071 0
-8765 8750 0
-8765 8071 0
8766 -8065 -8071 -8737 0
-8766 8065 0
-8766 8071 0
-8766 8737 0
-1248 8074 8763 8764 8765 8766 0
1248 -8074 0
1248 -8763 0
1248 -8764 0
1248 -8765 0
1248 -8766 0
8767 -8059 -8750 0
-8767 8059 0
-8767 8750 0
8768 -8739 -8065 0
-8768 8739 0
-8768 8065 0
8769 -8739 -8750 0
-8769 8739 0
-8769 8750 0
8770 -8059 -8065 -8737 0
-8770 8059 0
-8770 8065 0
-8770 8737 0
-1241 8076 8767 8768 8769 8770 0
1241 -8076 0
1241 -8767 0
1241 -8768 0
1241 -8769 0
1241 -8770 0
8771 -8059 -8739 0
-8771 8059 0
-8771 8739 0
8772 -8739 -8739 0
-8772 8739 0
-8772 8739 0
8773 -8739 -8059 0
-8773 8739 0
-8773 8059 0
8774 -8059 -8059 -8737 0
-8774 8059 0
-8774 8059 0
-8774 8737 0
-1243 8078 8771 8772 8773 8774 0
1243 -8078 0
1243 -8771 0
1243 -8772 0
1243 -8773 0
1243 -8774 0
8775 -8059 -8754 0
-8775 8059 0
-8775 8754 0
8776 -8739 -8754 0
-8776 8739 0
-8776 8754 0
8777 -8739 -8068 0
-8777 8739 0
-8777 8068 0
8778 -8059 -8068 -8737 0
-8778 8059 0
-8778 8068 0
-8778 8737 0
-1246 8080 8775 8776 8777 8778 0
1246 -8080 0
1246 -8775 0
1246 -8776 0
1246 -8777 0
1246 -8778 0
8779 -8059 -8759 0
-8779 8059 0
-8779 8759 0
8780 -8739 -8071 0
-8780 8739 0
-8780 8071 0
8781 -8739 -8759 0
-8781 8739 0
-8781 8759 0
8782 -8059 -8071 -8737 0
-8782 8059 0
-8782 8071 0
-8782 8737 0
-1249 8082 8779 8780 8781 8782 0
1249 -8082 0
1249 -8779 0
1249 -8780 0
1249 -8781 0
1249 -8782 0
8783 -8062 -8759 0
-8783 8062 0
-8783 8759 0
8784 -8744 -8759 0
-8784 8744 0
-8784 8759 0
8785 -8744 -8071 0
-8785 8744 0
-8785 8071 0
8786 -8062 -8071 -8737 0
-8786 8062 0
-8786 8071 0
-8786 8737 0
-1252 8084 8783 8784 8785 8786 0
1252 -8084 0
1252 -8783 0
1252 -8784 0
1252 -8785 0
1252 -8786 0
8787 -8068 -8750 0
-8787 8068 0
-8787 8750 0
8788 -8754 -8065 0
-8788 8754 0
-8788 8065 0
8789 -8754 -8750 0
-8789 8754 0
-8789 8750 0
8790 -8068 -8065 -8737 0
-8790 8068 0
-8790 8065 0
-8790 8737 0
-1245 8086 8787 8788 8789 8790 0
1245 -8086 0
1245 -8787 0
1245 -8788 0
1245 -8789 0
1245 -8790 0
8791 -8068 -8744 0
-8791 8068 0
-8791 8744 0
8792 -8754 -8062 0
-8792 8754 0
-8792 8062 0
8793 -8754 -8744 0
-8793 8754 0
-8793 8744 0
8794 -8068 -8062 -8737 0
-8794 8068 0
-8794 8062 0
-8794 8737 0
-1254 8088 8791 8792 8793 8794 0
1254 -8088 0
1254 -8791 0
1254 -8792 0
1254 -8793 0
1254 -8794 0
8795 -8068 -8754 0
-8795 8068 0
-8795 8754 0
8796 -8754 -8754 0
-8796 8754 0
-8796 8754 0
8797 -8754 -8068 0
-8797 8754 0
-8797 8068 0
8798 -8068 -8068 -8737 0
-8798 8068 0
-8798 8068 0
-8798 8737 0
-1257 8090 8795 8796 8797 8798 0
1257 -8090 0
1257 -8795 0
1257 -8796 0
1257 -8797 0
1257 -8798 0
8799 -6865 -6862 0
-8799 6865 0
-8799 6862 0
8800 -6862 -6862 0
-8800 6862 0
-8800 6862 0
8801 -6862 -6865 0
-8801 6862 0
-8801 6865 0
8802 -6865 -6865 -6880 0
-8802 6865 0
-8802 6865 0
-8802 6880 0
-6188 6859 8799 8800 8801 8802 0
6188 -6859 0
6188 -8799 0
6188 -8800 0
6188 -8801 0
6188 -8802 0
8803 -6865 -8554 0
-8803 6865 0
-8803 8554 0
8804 -6862 -8554 0
-8804 6862 0
-8804 8554 0
8805 -6862 -8559 0
-8805 6862 0
-8805 8559 0
8806 -6865 -8559 -6880 0
-8806 6865 0
-8806 8559 0
-8806 6880 0
-6184 8548 8803 8804 8805 8806 0
6184 -8548 0
6184 -8803 0
6184 -8804 0
6184 -8805 0
6184 -8806 0
8807 -6865 -6861 0
-8807 6865 0
-8807 6861 0
8808 -6862 -6864 0
-8808 6862 0
-8808 6864 0
8809 -6862 -6861 0
-8809 6862 0
-8809 6861 0
8810 -6865 -6864 -6880 0
-8810 6865 0
-8810 6864 0
-8810 6880 0
-6202 6858 8807 8808 8809 8810 0
6202 -6858 0
6202 -8807 0
6202 -8808 0
6202 -8809 0
6202 -8810 0
8811 -6868 -6861 0
-8811 6868 0
-8811 6861 0
8812 -6878 -6861 0
-8812 6878 0
-8812 6861 0
8813 -6878 -6864 0
-8813 6878 0
-8813 6864 0
8814 -6868 -6864 -6880 0
-8814 6868 0
-8814 6864 0
-8814 6880 0
-2396 6867 8811 8812 8813 8814 0
2396 -6867 0
2396 -8811 0
2396 -8812 0
2396 -8813 0
2396 -8814 0
8815 -6865 -6882 0
-8815 6865 0
-8815 6882 0
8816 -6862 -6882 0
-8816 6862 0
-8816 6882 0
8817 -6862 -6890 0
-8817 6862 0
-8817 6890 0
8818 -6865 -6890 -6880 0
-8818 6865 0
-8818 6890 0
-8818 6880 0
-6191 6871 8815 8816 8817 8818 0
6191 -6871 0
6191 -8815 0
6191 -8816 0
6191 -8817 0
6191 -8818 0
8819 -6865 -6884 0
-8819 6865 0
-8819 6884 0
8820 -6862 -6886 0
-8820 6862 0
-8820 6886 0
8821 -6862 -6884 0
-8821 6862 0
-8821 6884 0
8822 -6865 -6886 -6880 0
-8822 6865 0
-8822 6886 0
-8822 6880 0
-6196 6874 8819 8820 8821 8822 0
6196 -6874 0
6196 -8819 0
6196 -8820 0
6196 -8821 0
6196 -8822 0
8823 -6868 -6884 0
-8823 6868 0
-8823 6884 0
8824 -6878 -6884 0
-8824 6878 0
-8824 6884 0
8825 -6878 -6886 0
-8825 6878 0
-8825 6886 0
8826 -6868 -6886 -6880 0
-8826 6868 0
-8826 6886 0
-8826 6880 0
-2393 6876 8823 8824 8825 8826 0
2393 -6876 0
2393 -8823 0
2393 -8824 0
2393 -8825 0
2393 -8826 0
8827 -8559 -6878 0
-8827 8559 0
-8827 6878 0
8828 -8554 -6868 0
-8828 8554 0
-8828 6868 0
8829 -8554 -6878 0
-8829 8554 0
-8829 6878 0
8830 -8559 -6868 -6880 0
-8830 8559 0
-8830 6868 0
-8830 6880 0
-2386 8565 8827 8828 8829 8830 0
2386 -8565 0
2386 -8827 0
2386 -8828 0
2386 -8829 0
2386 -8830 0
8831 -8559 -8554 0
-8831 8559 0
-8831 8554 0
8587 -8554 -8554 0
-8587 8554 0
-8587 8554 0
8832 -8554 -8559 0
-8832 8554 0
-8832 8559 0
8833 -8559 -8559 -6880 0
-8833 8559 0
-8833 8559 0
-8833 6880 0
-2388 8552 8831 8587 8832 8833 0
2388 -8552 0
2388 -8831 0
2388 -8587 0
2388 -8832 0
2388 -8833 0
8834 -8559 -6882 0
-8834 8559 0
-8834 6882 0
8835 -8554 -6882 0
-8835 8554 0
-8835 6882 0
8836 -8554 -6890 0
-8836 8554 0
-8836 6890 0
8837 -8559 -6890 -6880 0
-8837 8559 0
-8837 6890 0
-8837 6880 0
-2391 8569 8834 8835 8836 8837 0
2391 -8569 0
2391 -8834 0
2391 -8835 0
2391 -8836 0
2391 -8837 0
8838 -8559 -6884 0
-8838 8559 0
-8838 6884 0
8839 -8554 -6886 0
-8839 8554 0
-8839 6886 0
8840 -8554 -6884 0
-8840 8554 0
-8840 6884 0
8841 -8559 -6886 -6880 0
-8841 8559 0
-8841 6886 0
-8841 6880 0
-2394 8574 8838 8839 8840 8841 0
2394 -8574 0
2394 -8838 0
2394 -8839 0
2394 -8840 0
2394 -8841 0
8842 -6864 -6884 0
-8842 6864 0
-8842 6884 0
8843 -6861 -6884 0
-8843 6861 0
-8843 6884 0
8844 -6861 -6886 0
-8844 6861 0
-8844 6886 0
8845 -6864 -6886 -6880 0
-8845 6864 0
-8845 6886 0
-8845 6880 0
-2397 6873 8842 8843 8844 8845 0
2397 -6873 0
2397 -8842 0
2397 -8843 0
2397 -8844 0
2397 -8845 0
8846 -6890 -6878 0
-8846 6890 0
-8846 6878 0
8847 -6882 -6868 0
-8847 6882 0
-8847 6868 0
8848 -6882 -6878 0
-8848 6882 0
-8848 6878 0
8849 -6890 -6868 -6880 0
-8849 6890 0
-8849 6868 0
-8849 6880 0
-2390 6888 8846 8847 8848 8849 0
2390 -6888 0
2390 -8846 0
2390 -8847 0
2390 -8848 0
2390 -8849 0
8850 -6890 -6861 0
-8850 6890 0
-8850 6861 0
8851 -6882 -6864 0
-8851 6882 0
-8851 6864 0
8852 -6882 -6861 0
-8852 6882 0
-8852 6861 0
8853 -6890 -6864 -6880 0
-8853 6890 0
-8853 6864 0
-8853 6880 0
-2399 6870 8850 8851 8852 8853 0
2399 -6870 0
2399 -8850 0
2399 -8851 0
2399 -8852 0
2399 -8853 0
8854 -6890 -6882 0
-8854 6890 0
-8854 6882 0
8855 -6882 -6882 0
-8855 6882 0
-8855 6882 0
8856 -6882 -6890 0
-8856 6882 0
-8856 6890 0
8857 -6890 -6890 -6880 0
-8857 6890 0
-8857 6890 0
-8857 6880 0
-2402 6892 8854 8855 8856 8857 0
2402 -6892 0
2402 -8854 0
2402 -8855 0
2402 -8856 0
2402 -8857 0
8858 -8859 -8859 0
-8858 8859 0
-8858 8859 0
-3344 8860 8858 0
3344 -8860 0
3344 -8858 0
8861 -8859 -8862 0
-8861 8859 0
-8861 8862 0
-3346 8863 8861 0
3346 -8863 0
3346 -8861 0
8864 -8859 -8865 0
-8864 8859 0
-8864 8865 0
-3348 8866 8864 0
3348 -8866 0
3348 -8864 0
8867 -8868 -8865 0
-8867 8868 0
-8867 8865 0
-3252 8869 8867 0
3252 -8869 0
3252 -8867 0
8870 -8859 -8871 0
-8870 8859 0
-8870 8871 0
-3466 8872 8870 0
3466 -8872 0
3466 -8870 0
8873 -8859 -8874 0
-8873 8859 0
-8873 8874 0
-3342 8875 8873 0
3342 -8875 0
3342 -8873 0
8876 -8868 -8874 0
-8876 8868 0
-8876 8874 0
-3249 8877 8876 0
3249 -8877 0
3249 -8876 0
8878 -8862 -8868 0
-8878 8862 0
-8878 8868 0
-3242 8879 8878 0
3242 -8879 0
3242 -8878 0
8880 -8862 -8862 0
-8880 8862 0
-8880 8862 0
-3244 8881 8880 0
3244 -8881 0
3244 -8880 0
8882 -8862 -8871 0
-8882 8862 0
-8882 8871 0
-3247 8883 8882 0
3247 -8883 0
3247 -8882 0
8884 -8862 -8874 0
-8884 8862 0
-8884 8874 0
-3250 8885 8884 0
3250 -8885 0
3250 -8884 0
8886 -8865 -8874 0
-8886 8865 0
-8886 8874 0
-3253 8887 8886 0
3253 -8887 0
3253 -8886 0
8888 -8871 -8868 0
-8888 8871 0
-8888 8868 0
-3246 8889 8888 0
3246 -8889 0
3246 -8888 0
8890 -8871 -8865 0
-8890 8871 0
-8890 8865 0
-3255 8891 8890 0
3255 -8891 0
3255 -8890 0
8892 -8871 -8871 0
-8892 8871 0
-8892 8871 0
-3258 8893 8892 0
3258 -8893 0
3258 -8892 0
8894 -7348 -7348 0
-8894 7348 0
-8894 7348 0
-4886 7342 8894 0
4886 -7342 0
4886 -8894 0
8895 -7348 -8223 0
-8895 7348 0
-8895 8223 0
-4882 8225 8895 0
4882 -8225 0
4882 -8895 0
8896 -7348 -7347 0
-8896 7348 0
-8896 7347 0
-4906 7341 8896 0
4906 -7341 0
4906 -8896 0
8897 -7351 -7347 0
-8897 7351 0
-8897 7347 0
-4904 7350 8897 0
4904 -7350 0
4904 -8897 0
8898 -7348 -7373 0
-8898 7348 0
-8898 7373 0
-4890 7354 8898 0
4890 -7354 0
4890 -8898 0
8899 -7348 -7369 0
-8899 7348 0
-8899 7369 0
-4897 7357 8899 0
4897 -7357 0
4897 -8899 0
8900 -7351 -7369 0
-8900 7351 0
-8900 7369 0
-4899 7359 8900 0
4899 -7359 0
4899 -8900 0
8901 -8223 -7351 0
-8901 8223 0
-8901 7351 0
-4881 8250 8901 0
4881 -8250 0
4881 -8901 0
8902 -8223 -8223 0
-8902 8223 0
-8902 8223 0
-4888 8255 8902 0
4888 -8255 0
4888 -8902 0
8903 -8223 -7373 0
-8903 8223 0
-8903 7373 0
-4895 8260 8903 0
4895 -8260 0
4895 -8903 0
8904 -8223 -7369 0
-8904 8223 0
-8904 7369 0
-4902 8265 8904 0
4902 -8265 0
4902 -8904 0
8905 -7347 -7369 0
-8905 7347 0
-8905 7369 0
-4909 7356 8905 0
4909 -7356 0
4909 -8905 0
8906 -7373 -7351 0
-8906 7373 0
-8906 7351 0
-4893 7371 8906 0
4893 -7371 0
4893 -8906 0
8907 -7373 -7347 0
-8907 7373 0
-8907 7347 0
-4914 7353 8907 0
4914 -7353 0
4914 -8907 0
8908 -7373 -7373 0
-8908 7373 0
-8908 7373 0
-4920 7375 8908 0
4920 -7375 0
4920 -8908 0
8909 -6462 -6459 0
-8909 6462 0
-8909 6459 0
8910 -6459 -6459 0
-8910 6459 0
-8910 6459 0
8911 -6459 -6462 0
-8911 6459 0
-8911 6462 0
8912 -6462 -6462 -6477 0
-8912 6462 0
-8912 6462 0
-8912 6477 0
-4998 6456 8909 8910 8911 8912 0
4998 -6456 0
4998 -8909 0
4998 -8910 0
4998 -8911 0
4998 -8912 0
8913 -6462 -6709 0
-8913 6462 0
-8913 6709 0
8914 -6459 -6709 0
-8914 6459 0
-8914 6709 0
8915 -6459 -6714 0
-8915 6459 0
-8915 6714 0
8916 -6462 -6714 -6477 0
-8916 6462 0
-8916 6714 0
-8916 6477 0
-4994 6703 8913 8914 8915 8916 0
4994 -6703 0
4994 -8913 0
4994 -8914 0
4994 -8915 0
4994 -8916 0
8917 -6462 -6458 0
-8917 6462 0
-8917 6458 0
8918 -6459 -6461 0
-8918 6459 0
-8918 6461 0
8919 -6459 -6458 0
-8919 6459 0
-8919 6458 0
8920 -6462 -6461 -6477 0
-8920 6462 0
-8920 6461 0
-8920 6477 0
-5012 6455 8917 8918 8919 8920 0
5012 -6455 0
5012 -8917 0
5012 -8918 0
5012 -8919 0
5012 -8920 0
8921 -6465 -6458 0
-8921 6465 0
-8921 6458 0
8922 -6475 -6458 0
-8922 6475 0
-8922 6458 0
8923 -6475 -6461 0
-8923 6475 0
-8923 6461 0
8924 -6465 -6461 -6477 0
-8924 6465 0
-8924 6461 0
-8924 6477 0
-3602 6464 8921 8922 8923 8924 0
3602 -6464 0
3602 -8921 0
3602 -8922 0
3602 -8923 0
3602 -8924 0
8925 -6462 -6479 0
-8925 6462 0
-8925 6479 0
8926 -6459 -6479 0
-8926 6459 0
-8926 6479 0
8927 -6459 -6487 0
-8927 6459 0
-8927 6487 0
8928 -6462 -6487 -6477 0
-8928 6462 0
-8928 6487 0
-8928 6477 0
-5001 6468 8925 8926 8927 8928 0
5001 -6468 0
5001 -8925 0
5001 -8926 0
5001 -8927 0
5001 -8928 0
8929 -6462 -6481 0
-8929 6462 0
-8929 6481 0
8930 -6459 -6483 0
-8930 6459 0
-8930 6483 0
8931 -6459 -6481 0
-8931 6459 0
-8931 6481 0
8932 -6462 -6483 -6477 0
-8932 6462 0
-8932 6483 0
-8932 6477 0
-5006 6471 8929 8930 8931 8932 0
5006 -6471 0
5006 -8929 0
5006 -8930 0
5006 -8931 0
5006 -8932 0
8933 -6465 -6481 0
-8933 6465 0
-8933 6481 0
8934 -6475 -6481 0
-8934 6475 0
-8934 6481 0
8935 -6475 -6483 0
-8935 6475 0
-8935 6483 0
8936 -6465 -6483 -6477 0
-8936 6465 0
-8936 6483 0
-8936 6477 0
-3599 6473 8933 8934 8935 8936 0
3599 -6473 0
3599 -8933 0
3599 -8934 0
3599 -8935 0
3599 -8936 0
8937 -6714 -6475 0
-8937 6714 0
-8937 6475 0
8938 -6709 -6465 0
-8938 6709 0
-8938 6465 0
8939 -6709 -6475 0
-8939 6709 0
-8939 6475 0
8940 -6714 -6465 -6477 0
-8940 6714 0
-8940 6465 0
-8940 6477 0
-3592 6720 8937 8938 8939 8940 0
3592 -6720 0
3592 -8937 0
3592 -8938 0
3592 -8939 0
3592 -8940 0
8941 -6714 -6709 0
-8941 6714 0
-8941 6709 0
6742 -6709 -6709 0
-6742 6709 0
-6742 6709 0
8942 -6709 -6714 0
-8942 6709 0
-8942 6714 0
8943 -6714 -6714 -6477 0
-8943 6714 0
-8943 6714 0
-8943 6477 0
-3594 6707 8941 6742 8942 8943 0
3594 -6707 0
3594 -8941 0
3594 -6742 0
3594 -8942 0
3594 -8943 0
8944 -6714 -6479 0
-8944 6714 0
-8944 6479 0
8945 -6709 -6479 0
-8945 6709 0
-8945 6479 0
8946 -6709 -6487 0
-8946 6709 0
-8946 6487 0
8947 -6714 -6487 -6477 0
-8947 6714 0
-8947 6487 0
-8947 6477 0
-3597 6724 8944 8945 8946 8947 0
3597 -6724 0
3597 -8944 0
3597 -8945 0
3597 -8946 0
3597 -8947 0
8948 -6714 -6481 0
-8948 6714 0
-8948 6481 0
8949 -6709 -6483 0
-8949 6709 0
-8949 6483 0
8950 -6709 -6481 0
-8950 6709 0
-8950 6481 0
8951 -6714 -6483 -6477 0
-8951 6714 0
-8951 6483 0
-8951 6477 0
-3600 6729 8948 8949 8950 8951 0
3600 -6729 0
3600 -8948 0
3600 -8949 0
3600 -8950 0
3600 -8951 0
8952 -6461 -6481 0
-8952 6461 0
-8952 6481 0
8953 -6458 -6481 0
-8953 6458 0
-8953 6481 0
8954 -6458 -6483 0
-8954 6458 0
-8954 6483 0
8955 -6461 -6483 -6477 0
-8955 6461 0
-8955 6483 0
-8955 6477 0
-3603 6470 8952 8953 8954 8955 0
3603 -6470 0
3603 -8952 0
3603 -8953 0
3603 -8954 0
3603 -8955 0
8956 -6487 -6475 0
-8956 6487 0
-8956 6475 0
8957 -6479 -6465 0
-8957 6479 0
-8957 6465 0
8958 -6479 -6475 0
-8958 6479 0
-8958 6475 0
8959 -6487 -6465 -6477 0
-8959 6487 0
-8959 6465 0
-8959 6477 0
-3596 6485 8956 8957 8958 8959 0
3596 -6485 0
3596 -8956 0
3596 -8957 0
3596 -8958 0
3596 -8959 0
8960 -6487 -6458 0
-8960 6487 0
-8960 6458 0
8961 -6479 -6461 0
-8961 6479 0
-8961 6461 0
8962 -6479 -6458 0
-8962 6479 0
-8962 6458 0
8963 -6487 -6461 -6477 0
-8963 6487 0
-8963 6461 0
-8963 6477 0
-3605 6467 8960 8961 8962 8963 0
3605 -6467 0
3605 -8960 0
3605 -8961 0
3605 -8962 0
3605 -8963 0
8964 -6487 -6479 0
-8964 6487 0
-8964 6479 0
8965 -6479 -6479 0
-8965 6479 0
-8965 6479 0
8966 -6479 -6487 0
-8966 6479 0
-8966 6487 0
8967 -6487 -6487 -6477 0
-8967 6487 0
-8967 6487 0
-8967 6477 0
-3608 6489 8964 8965 8966 8967 0
3608 -6489 0
3608 -8964 0
3608 -8965 0
3608 -8966 0
3608 -8967 0
8968 -8859 -8969 0
-8968 8859 0
-8968 8969 0
8970 -8969 -8969 0
-8970 8969 0
-8970 8969 0
8971 -8969 -8859 0
-8971 8969 0
-8971 8859 0
8972 -8859 -8859 -8973 0
-8972 8859 0
-8972 8859 0
-8972 8973 0
-2630 8860 8968 8970 8971 8972 0
2630 -8860 0
2630 -8968 0
2630 -8970 0
2630 -8971 0
2630 -8972 0
8974 -8859 -8975 0
-8974 8859 0
-8974 8975 0
8976 -8969 -8975 0
-8976 8969 0
-8976 8975 0
8977 -8969 -8862 0
-8977 8969 0
-8977 8862 0
8978 -8859 -8862 -8973 0
-8978 8859 0
-8978 8862 0
-8978 8973 0
-2626 8863 8974 8976 8977 8978 0
2626 -8863 0
2626 -8974 0
2626 -8976 0
2626 -8977 0
2626 -8978 0
8979 -8859 -8980 0
-8979 8859 0
-8979 8980 0
8981 -8969 -8865 0
-8981 8969 0
-8981 8865 0
8982 -8969 -8980 0
-8982 8969 0
-8982 8980 0
8983 -8859 -8865 -8973 0
-8983 8859 0
-8983 8865 0
-8983 8973 0
-2650 8866 8979 8981 8982 8983 0
2650 -8866 0
2650 -8979 0
2650 -8981 0
2650 -8982 0
2650 -8983 0
8984 -8868 -8980 0
-8984 8868 0
-8984 8980 0
8985 -8986 -8980 0
-8985 8986 0
-8985 8980 0
8987 -8986 -8865 0
-8987 8986 0
-8987 8865 0
8988 -8868 -8865 -8973 0
-8988 8868 0
-8988 8865 0
-8988 8973 0
-2648 8869 8984 8985 8987 8988 0
2648 -8869 0
2648 -8984 0
2648 -8985 0
2648 -8987 0
2648 -8988 0
8989 -8859 -8990 0
-8989 8859 0
-8989 8990 0
8991 -8969 -8990 0
-8991 8969 0
-8991 8990 0
8992 -8969 -8871 0
-8992 8969 0
-8992 8871 0
8993 -8859 -8871 -8973 0
-8993 8859 0
-8993 8871 0
-8993 8973 0
-2634 8872 8989 8991 8992 8993 0
2634 -8872 0
2634 -8989 0
2634 -8991 0
2634 -8992 0
2634 -8993 0
8994 -8859 -8995 0
-8994 8859 0
-8994 8995 0
8996 -8969 -8874 0
-8996 8969 0
-8996 8874 0
8997 -8969 -8995 0
-8997 8969 0
-8997 8995 0
8998 -8859 -8874 -8973 0
-8998 8859 0
-8998 8874 0
-8998 8973 0
-2641 8875 8994 8996 8997 8998 0
2641 -8875 0
2641 -8994 0
2641 -8996 0
2641 -8997 0
2641 -8998 0
8999 -8868 -8995 0
-8999 8868 0
-8999 8995 0
9000 -8986 -8995 0
-9000 8986 0
-9000 8995 0
9001 -8986 -8874 0
-9001 8986 0
-9001 8874 0
9002 -8868 -8874 -8973 0
-9002 8868 0
-9002 8874 0
-9002 8973 0
-2643 8877 8999 9000 9001 9002 0
2643 -8877 0
2643 -8999 0
2643 -9000 0
2643 -9001 0
2643 -9002 0
9003 -8862 -8986 0
-9003 8862 0
-9003 8986 0
9004 -8975 -8868 0
-9004 8975 0
-9004 8868 0
9005 -8975 -8986 0
-9005 8975 0
-9005 8986 0
9006 -8862 -8868 -8973 0
-9006 8862 0
-9006 8868 0
-9006 8973 0
-2625 8879 9003 9004 9005 9006 0
2625 -8879 0
2625 -9003 0
2625 -9004 0
2625 -9005 0
2625 -9006 0
9007 -8862 -8975 0
-9007 8862 0
-9007 8975 0
9008 -8975 -8975 0
-9008 8975 0
-9008 8975 0
9009 -8975 -8862 0
-9009 8975 0
-9009 8862 0
9010 -8862 -8862 -8973 0
-9010 8862 0
-9010 8862 0
-9010 8973 0
-2632 8881 9007 9008 9009 9010 0
2632 -8881 0
2632 -9007 0
2632 -9008 0
2632 -9009 0
2632 -9010 0
9011 -8862 -8990 0
-9011 8862 0
-9011 8990 0
9012 -8975 -8990 0
-9012 8975 0
-9012 8990 0
9013 -8975 -8871 0
-9013 8975 0
-9013 8871 0
9014 -8862 -8871 -8973 0
-9014 8862 0
-9014 8871 0
-9014 8973 0
-2639 8883 9011 9012 9013 9014 0
2639 -8883 0
2639 -9011 0
2639 -9012 0
2639 -9013 0
2639 -9014 0
9015 -8862 -8995 0
-9015 8862 0
-9015 8995 0
9016 -8975 -8874 0
-9016 8975 0
-9016 8874 0
9017 -8975 -8995 0
-9017 8975 0
-9017 8995 0
9018 -8862 -8874 -8973 0
-9018 8862 0
-9018 8874 0
-9018 8973 0
-2646 8885 9015 9016 9017 9018 0
2646 -8885 0
2646 -9015 0
2646 -9016 0
2646 -9017 0
2646 -9018 0
9019 -8865 -8995 0
-9019 8865 0
-9019 8995 0
9020 -8980 -8995 0
-9020 8980 0
-9020 8995 0
9021 -8980 -8874 0
-9021 8980 0
-9021 8874 0
9022 -8865 -8874 -8973 0
-9022 8865 0
-9022 8874 0
-9022 8973 0
-2653 8887 9019 9020 9021 9022 0
2653 -8887 0
2653 -9019 0
2653 -9020 0
2653 -9021 0
2653 -9022 0
9023 -8871 -8986 0
-9023 8871 0
-9023 8986 0
9024 -8990 -8868 0
-9024 8990 0
-9024 8868 0
9025 -8990 -8986 0
-9025 8990 0
-9025 8986 0
9026 -8871 -8868 -8973 0
-9026 8871 0
-9026 8868 0
-9026 8973 0
-2637 8889 9023 9024 9025 9026 0
2637 -8889 0
2637 -9023 0
2637 -9024 0
2637 -9025 0
2637 -9026 0
9027 -8871 -8980 0
-9027 8871 0
-9027 8980 0
9028 -8990 -8865 0
-9028 8990 0
-9028 8865 0
9029 -8990 -8980 0
-9029 8990 0
-9029 8980 0
9030 -8871 -8865 -8973 0
-9030 8871 0
-9030 8865 0
-9030 8973 0
-2658 8891 9027 9028 9029 9030 0
2658 -8891 0
2658 -9027 0
2658 -9028 0
2658 -9029 0
2658 -9030 0
9031 -8871 -8990 0
-9031 8871 0
-9031 8990 0
9032 -8990 -8990 0
-9032 8990 0
-9032 8990 0
9033 -8990 -8871 0
-9033 8990 0
-9033 8871 0
9034 -8871 -8871 -8973 0
-9034 8871 0
-9034 8871 0
-9034 8973 0
-2664 8893 9031 9032 9033 9034 0
2664 -8893 0
2664 -9031 0
2664 -9032 0
2664 -9033 0
2664 -9034 0
9035 -6982 -6982 0
-9035 6982 0
-9035 6982 0
-1225 6988 9035 0
1225 -6988 0
1225 -9035 0
9036 -6982 -6993 0
-9036 6982 0
-9036 6993 0
-3848 6995 9036 0
3848 -6995 0
3848 -9036 0
9037 -6982 -6999 0
-9037 6982 0
-9037 6999 0
-1223 7002 9037 0
1223 -7002 0
1223 -9037 0
9038 -7004 -6999 0
-9038 7004 0
-9038 6999 0
-1233 7009 9038 0
1233 -7009 0
1233 -9038 0
9039 -6982 -7014 0
-9039 6982 0
-9039 7014 0
-1228 7016 9039 0
1228 -7016 0
1228 -9039 0
9040 -6982 -7020 0
-9040 6982 0
-9040 7020 0
-1231 7023 9040 0
1231 -7023 0
1231 -9040 0
9041 -7004 -7020 0
-9041 7004 0
-9041 7020 0
-1234 7028 9041 0
1234 -7028 0
1234 -9041 0
9042 -6993 -7004 0
-9042 6993 0
-9042 7004 0
-3866 7033 9042 0
3866 -7033 0
3866 -9042 0
9043 -6993 -6993 0
-9043 6993 0
-9043 6993 0
-3852 7038 9043 0
3852 -7038 0
3852 -9043 0
9044 -6993 -7014 0
-9044 6993 0
-9044 7014 0
-3855 7043 9044 0
3855 -7043 0
3855 -9044 0
9045 -6993 -7020 0
-9045 6993 0
-9045 7020 0
-3860 7048 9045 0
3860 -7048 0
3860 -9045 0
9046 -6999 -7020 0
-9046 6999 0
-9046 7020 0
-1230 7053 9046 0
1230 -7053 0
1230 -9046 0
9047 -7014 -7004 0
-9047 7014 0
-9047 7004 0
-1236 7058 9047 0
1236 -7058 0
1236 -9047 0
9048 -7014 -6999 0
-9048 7014 0
-9048 6999 0
-1227 7063 9048 0
1227 -7063 0
1227 -9048 0
9049 -7014 -7014 0
-9049 7014 0
-9049 7014 0
-1239 7068 9049 0
1239 -7068 0
1239 -9049 0
9050 -7716 -7716 0
-9050 7716 0
-9050 7716 0
-4657 7722 9050 0
4657 -7722 0
4657 -9050 0
9051 -7716 -7727 0
-9051 7716 0
-9051 7727 0
-4653 7729 9051 0
4653 -7729 0
4653 -9051 0
9052 -7716 -7733 0
-9052 7716 0
-9052 7733 0
-4671 7736 9052 0
4671 -7736 0
4671 -9052 0
9053 -7738 -7733 0
-9053 7738 0
-9053 7733 0
-2414 7743 9053 0
2414 -7743 0
2414 -9053 0
9054 -7716 -7748 0
-9054 7716 0
-9054 7748 0
-4660 7750 9054 0
4660 -7750 0
4660 -9054 0
9055 -7716 -7754 0
-9055 7716 0
-9055 7754 0
-4665 7757 9055 0
4665 -7757 0
4665 -9055 0
9056 -7738 -7754 0
-9056 7738 0
-9056 7754 0
-2411 7762 9056 0
2411 -7762 0
2411 -9056 0
9057 -7727 -7738 0
-9057 7727 0
-9057 7738 0
-2404 7767 9057 0
2404 -7767 0
2404 -9057 0
9058 -7727 -7727 0
-9058 7727 0
-9058 7727 0
-2406 7772 9058 0
2406 -7772 0
2406 -9058 0
9059 -7727 -7748 0
-9059 7727 0
-9059 7748 0
-2409 7777 9059 0
2409 -7777 0
2409 -9059 0
9060 -7727 -7754 0
-9060 7727 0
-9060 7754 0
-2412 7782 9060 0
2412 -7782 0
2412 -9060 0
9061 -7733 -7754 0
-9061 7733 0
-9061 7754 0
-2415 7787 9061 0
2415 -7787 0
2415 -9061 0
9062 -7748 -7738 0
-9062 7748 0
-9062 7738 0
-2408 7792 9062 0
2408 -7792 0
2408 -9062 0
9063 -7748 -7733 0
-9063 7748 0
-9063 7733 0
-2417 7797 9063 0
2417 -7797 0
2417 -9063 0
9064 -7748 -7748 0
-9064 7748 0
-9064 7748 0
-2420 7802 9064 0
2420 -7802 0
2420 -9064 0
9065 -6865 -6865 0
-9065 6865 0
-9065 6865 0
-3565 6859 9065 0
3565 -6859 0
3565 -9065 0
9066 -6865 -8559 0
-9066 6865 0
-9066 8559 0
-3561 8548 9066 0
3561 -8548 0
3561 -9066 0
9067 -6865 -6864 0
-9067 6865 0
-9067 6864 0
-3579 6858 9067 0
3579 -6858 0
3579 -9067 0
9068 -6868 -6864 0
-9068 6868 0
-9068 6864 0
-3017 6867 9068 0
3017 -6867 0
3017 -9068 0
9069 -6865 -6890 0
-9069 6865 0
-9069 6890 0
-3568 6871 9069 0
3568 -6871 0
3568 -9069 0
9070 -6865 -6886 0
-9070 6865 0
-9070 6886 0
-3573 6874 9070 0
3573 -6874 0
3573 -9070 0
9071 -6868 -6886 0
-9071 6868 0
-9071 6886 0
-3014 6876 9071 0
3014 -6876 0
3014 -9071 0
9072 -8559 -6868 0
-9072 8559 0
-9072 6868 0
-3007 8565 9072 0
3007 -8565 0
3007 -9072 0
9073 -8559 -8559 0
-9073 8559 0
-9073 8559 0
-3009 8552 9073 0
3009 -8552 0
3009 -9073 0
9074 -8559 -6890 0
-9074 8559 0
-9074 6890 0
-3012 8569 9074 0
3012 -8569 0
3012 -9074 0
9075 -8559 -6886 0
-9075 8559 0
-9075 6886 0
-3015 8574 9075 0
3015 -8574 0
3015 -9075 0
9076 -6864 -6886 0
-9076 6864 0
-9076 6886 0
-3018 6873 9076 0
3018 -6873 0
3018 -9076 0
9077 -6890 -6868 0
-9077 6890 0
-9077 6868 0
-3011 6888 9077 0
3011 -6888 0
3011 -9077 0
9078 -6890 -6864 0
-9078 6890 0
-9078 6864 0
-3020 6870 9078 0
3020 -6870 0
3020 -9078 0
9079 -6890 -6890 0
-9079 6890 0
-9079 6890 0
-3023 6892 9079 0
3023 -6892 0
3023 -9079 0
9080 -6635 -6628 0
-9080 6635 0
-9080 6628 0
9081 -6628 -6628 0
-9081 6628 0
-9081 6628 0
9082 -6628 -6635 0
-9082 6628 0
-9082 6635 0
9083 -6635 -6635 -6671 0
-9083 6635 0
-9083 6635 0
-9083 6671 0
-1372 6621 9080 9081 9082 9083 0
1372 -6621 0
1372 -9080 0
1372 -9081 0
1372 -9082 0
1372 -9083 0
9084 -6635 -6623 0
-9084 6635 0
-9084 6623 0
9085 -6628 -6623 0
-9085 6628 0
-9085 6623 0
9086 -6628 -6630 0
-9086 6628 0
-9086 6630 0
9087 -6635 -6630 -6671 0
-9087 6635 0
-9087 6630 0
-9087 6671 0
-1368 6616 9084 9085 9086 9087 0
1368 -6616 0
1368 -9084 0
1368 -9085 0
1368 -9086 0
1368 -9087 0
9088 -6635 -6626 0
-9088 6635 0
-9088 6626 0
9089 -6628 -6632 0
-9089 6628 0
-9089 6632 0
9090 -6628 -6626 0
-9090 6628 0
-9090 6626 0
9091 -6635 -6632 -6671 0
-9091 6635 0
-9091 6632 0
-9091 6671 0
-1392 6615 9088 9089 9090 9091 0
1392 -6615 0
1392 -9088 0
1392 -9089 0
1392 -9090 0
1392 -9091 0
9092 -6642 -6626 0
-9092 6642 0
-9092 6626 0
9093 -6666 -6626 0
-9093 6666 0
-9093 6626 0
9094 -6666 -6632 0
-9094 6666 0
-9094 6632 0
9095 -6642 -6632 -6671 0
-9095 6642 0
-9095 6632 0
-9095 6671 0
-1390 6637 9092 9093 9094 9095 0
1390 -6637 0
1390 -9092 0
1390 -9093 0
1390 -9094 0
1390 -9095 0
9096 -6635 -6676 0
-9096 6635 0
-9096 6676 0
9097 -6628 -6676 0
-9097 6628 0
-9097 6676 0
9098 -6628 -6696 0
-9098 6628 0
-9098 6696 0
9099 -6635 -6696 -6671 0
-9099 6635 0
-9099 6696 0
-9099 6671 0
-1376 6649 9096 9097 9098 9099 0
1376 -6649 0
1376 -9096 0
1376 -9097 0
1376 -9098 0
1376 -9099 0
9100 -6635 -6681 0
-9100 6635 0
-9100 6681 0
9101 -6628 -6686 0
-9101 6628 0
-9101 6686 0
9102 -6628 -6681 0
-9102 6628 0
-9102 6681 0
9103 -6635 -6686 -6671 0
-9103 6635 0
-9103 6686 0
-9103 6671 0
-1383 6656 9100 9101 9102 9103 0
1383 -6656 0
1383 -9100 0
1383 -9101 0
1383 -9102 0
1383 -9103 0
9104 -6642 -6681 0
-9104 6642 0
-9104 6681 0
9105 -6666 -6681 0
-9105 6666 0
-9105 6681 0
9106 -6666 -6686 0
-9106 6666 0
-9106 6686 0
9107 -6642 -6686 -6671 0
-9107 6642 0
-9107 6686 0
-9107 6671 0
-1385 6661 9104 9105 9106 9107 0
1385 -6661 0
1385 -9104 0
1385 -9105 0
1385 -9106 0
1385 -9107 0
9108 -6630 -6666 0
-9108 6630 0
-9108 6666 0
9109 -6623 -6642 0
-9109 6623 0
-9109 6642 0
9110 -6623 -6666 0
-9110 6623 0
-9110 6666 0
9111 -6630 -6642 -6671 0
-9111 6630 0
-9111 6642 0
-9111 6671 0
-1367 6639 9108 9109 9110 9111 0
1367 -6639 0
1367 -9108 0
1367 -9109 0
1367 -9110 0
1367 -9111 0
9112 -6630 -6623 0
-9112 6630 0
-9112 6623 0
6668 -6623 -6623 0
-6668 6623 0
-6668 6623 0
9113 -6623 -6630 0
-9113 6623 0
-9113 6630 0
9114 -6630 -6630 -6671 0
-9114 6630 0
-9114 6630 0
-9114 6671 0
-1374 6620 9112 6668 9113 9114 0
1374 -6620 0
1374 -9112 0
1374 -6668 0
1374 -9113 0
1374 -9114 0
9115 -6630 -6676 0
-9115 6630 0
-9115 6676 0
9116 -6623 -6676 0
-9116 6623 0
-9116 6676 0
9117 -6623 -6696 0
-9117 6623 0
-9117 6696 0
9118 -6630 -6696 -6671 0
-9118 6630 0
-9118 6696 0
-9118 6671 0
-1381 6644 9115 9116 9117 9118 0
1381 -6644 0
1381 -9115 0
1381 -9116 0
1381 -9117 0
1381 -9118 0
9119 -6630 -6681 0
-9119 6630 0
-9119 6681 0
9120 -6623 -6686 0
-9120 6623 0
-9120 6686 0
9121 -6623 -6681 0
-9121 6623 0
-9121 6681 0
9122 -6630 -6686 -6671 0
-9122 6630 0
-9122 6686 0
-9122 6671 0
-1388 6651 9119 9120 9121 9122 0
1388 -6651 0
1388 -9119 0
1388 -9120 0
1388 -9121 0
1388 -9122 0
9123 -6632 -6681 0
-9123 6632 0
-9123 6681 0
9124 -6626 -6681 0
-9124 6626 0
-9124 6681 0
9125 -6626 -6686 0
-9125 6626 0
-9125 6686 0
9126 -6632 -6686 -6671 0
-9126 6632 0
-9126 6686 0
-9126 6671 0
-1395 6653 9123 9124 9125 9126 0
1395 -6653 0
1395 -9123 0
1395 -9124 0
1395 -9125 0
1395 -9126 0
9127 -6696 -6666 0
-9127 6696 0
-9127 6666 0
9128 -6676 -6642 0
-9128 6676 0
-9128 6642 0
9129 -6676 -6666 0
-9129 6676 0
-9129 6666 0
9130 -6696 -6642 -6671 0
-9130 6696 0
-9130 6642 0
-9130 6671 0
-1379 6691 9127 9128 9129 9130 0
1379 -6691 0
1379 -9127 0
1379 -9128 0
1379 -9129 0
1379 -9130 0
9131 -6696 -6626 0
-9131 6696 0
-9131 6626 0
9132 -6676 -6632 0
-9132 6676 0
-9132 6632 0
9133 -6676 -6626 0
-9133 6676 0
-9133 6626 0
9134 -6696 -6632 -6671 0
-9134 6696 0
-9134 6632 0
-9134 6671 0
-1400 6647 9131 9132 9133 9134 0
1400 -6647 0
1400 -9131 0
1400 -9132 0
1400 -9133 0
1400 -9134 0
9135 -6696 -6676 0
-9135 6696 0
-9135 6676 0
9136 -6676 -6676 0
-9136 6676 0
-9136 6676 0
9137 -6676 -6696 0
-9137 6676 0
-9137 6696 0
9138 -6696 -6696 -6671 0
-9138 6696 0
-9138 6696 0
-9138 6671 0
-1406 6701 9135 9136 9137 9138 0
1406 -6701 0
1406 -9135 0
1406 -9136 0
1406 -9137 0
1406 -9138 0
9139 -8180 -9140 0
-9139 8180 0
-9139 9140 0
9141 -9140 -9140 0
-9141 9140 0
-9141 9140 0
9142 -9140 -8180 0
-9142 9140 0
-9142 8180 0
9143 -8180 -8180 -9144 0
-9143 8180 0
-9143 8180 0
-9143 9144 0
-2315 8181 9139 9141 9142 9143 0
2315 -8181 0
2315 -9139 0
2315 -9141 0
2315 -9142 0
2315 -9143 0
9145 -8180 -9146 0
-9145 8180 0
-9145 9146 0
9147 -9140 -9146 0
-9147 9140 0
-9147 9146 0
9148 -9140 -8183 0
-9148 9140 0
-9148 8183 0
9149 -8180 -8183 -9144 0
-9149 8180 0
-9149 8183 0
-9149 9144 0
-2311 8184 9145 9147 9148 9149 0
2311 -8184 0
2311 -9145 0
2311 -9147 0
2311 -9148 0
2311 -9149 0
9150 -8180 -9151 0
-9150 8180 0
-9150 9151 0
9152 -9140 -8186 0
-9152 9140 0
-9152 8186 0
9153 -9140 -9151 0
-9153 9140 0
-9153 9151 0
9154 -8180 -8186 -9144 0
-9154 8180 0
-9154 8186 0
-9154 9144 0
-2329 8187 9150 9152 9153 9154 0
2329 -8187 0
2329 -9150 0
2329 -9152 0
2329 -9153 0
2329 -9154 0
9155 -8189 -9151 0
-9155 8189 0
-9155 9151 0
9156 -9157 -9151 0
-9156 9157 0
-9156 9151 0
9158 -9157 -8186 0
-9158 9157 0
-9158 8186 0
9159 -8189 -8186 -9144 0
-9159 8189 0
-9159 8186 0
-9159 9144 0
-1287 8190 9155 9156 9158 9159 0
1287 -8190 0
1287 -9155 0
1287 -9156 0
1287 -9158 0
1287 -9159 0
9160 -8180 -9161 0
-9160 8180 0
-9160 9161 0
9162 -9140 -9161 0
-9162 9140 0
-9162 9161 0
9163 -9140 -8192 0
-9163 9140 0
-9163 8192 0
9164 -8180 -8192 -9144 0
-9164 8180 0
-9164 8192 0
-9164 9144 0
-2318 8193 9160 9162 9163 9164 0
2318 -8193 0
2318 -9160 0
2318 -9162 0
2318 -9163 0
2318 -9164 0
9165 -8180 -9166 0
-9165 8180 0
-9165 9166 0
9167 -9140 -8195 0
-9167 9140 0
-9167 8195 0
9168 -9140 -9166 0
-9168 9140 0
-9168 9166 0
9169 -8180 -8195 -9144 0
-9169 8180 0
-9169 8195 0
-9169 9144 0
-2323 8196 9165 9167 9168 9169 0
2323 -8196 0
2323 -9165 0
2323 -9167 0
2323 -9168 0
2323 -9169 0
9170 -8189 -9166 0
-9170 8189 0
-9170 9166 0
9171 -9157 -9166 0
-9171 9157 0
-9171 9166 0
9172 -9157 -8195 0
-9172 9157 0
-9172 8195 0
9173 -8189 -8195 -9144 0
-9173 8189 0
-9173 8195 0
-9173 9144 0
-1284 8198 9170 9171 9172 9173 0
1284 -8198 0
1284 -9170 0
1284 -9171 0
1284 -9172 0
1284 -9173 0
9174 -8183 -9157 0
-9174 8183 0
-9174 9157 0
9175 -9146 -8189 0
-9175 9146 0
-9175 8189 0
9176 -9146 -9157 0
-9176 9146 0
-9176 9157 0
9177 -8183 -8189 -9144 0
-9177 8183 0
-9177 8189 0
-9177 9144 0
-1277 8200 9174 9175 9176 9177 0
1277 -8200 0
1277 -9174 0
1277 -9175 0
1277 -9176 0
1277 -9177 0
9178 -8183 -9146 0
-9178 8183 0
-9178 9146 0
9179 -9146 -9146 0
-9179 9146 0
-9179 9146 0
9180 -9146 -8183 0
-9180 9146 0
-9180 8183 0
9181 -8183 -8183 -9144 0
-9181 8183 0
-9181 8183 0
-9181 9144 0
-1279 8202 9178 9179 9180 9181 0
1279 -8202 0
1279 -9178 0
1279 -9179 0
1279 -9180 0
1279 -9181 0
9182 -8183 -9161 0
-9182 8183 0
-9182 9161 0
9183 -9146 -9161 0
-9183 9146 0
-9183 9161 0
9184 -9146 -8192 0
-9184 9146 0
-9184 8192 0
9185 -8183 -8192 -9144 0
-9185 8183 0
-9185 8192 0
-9185 9144 0
-1282 8204 9182 9183 9184 9185 0
1282 -8204 0
1282 -9182 0
1282 -9183 0
1282 -9184 0
1282 -9185 0
9186 -8183 -9166 0
-9186 8183 0
-9186 9166 0
9187 -9146 -8195 0
-9187 9146 0
-9187 8195 0
9188 -9146 -9166 0
-9188 9146 0
-9188 9166 0
9189 -8183 -8195 -9144 0
-9189 8183 0
-9189 8195 0
-9189 9144 0
-1285 8206 9186 9187 9188 9189 0
1285 -8206 0
1285 -9186 0
1285 -9187 0
1285 -9188 0
1285 -9189 0
9190 -8186 -9166 0
-9190 8186 0
-9190 9166 0
9191 -9151 -9166 0
-9191 9151 0
-9191 9166 0
9192 -9151 -8195 0
-9192 9151 0
-9192 8195 0
9193 -8186 -8195 -9144 0
-9193 8186 0
-9193 8195 0
-9193 9144 0
-1288 8208 9190 9191 9192 9193 0
1288 -8208 0
1288 -9190 0
1288 -9191 0
1288 -9192 0
1288 -9193 0
9194 -8192 -9157 0
-9194 8192 0
-9194 9157 0
9195 -9161 -8189 0
-9195 9161 0
-9195 8189 0
9196 -9161 -9157 0
-9196 9161 0
-9196 9157 0
9197 -8192 -8189 -9144 0
-9197 8192 0
-9197 8189 0
-9197 9144 0
-1281 8210 9194 9195 9196 9197 0
1281 -8210 0
1281 -9194 0
1281 -9195 0
1281 -9196 0
1281 -9197 0
9198 -8192 -9151 0
-9198 8192 0
-9198 9151 0
9199 -9161 -8186 0
-9199 9161 0
-9199 8186 0
9200 -9161 -9151 0
-9200 9161 0
-9200 9151 0
9201 -8192 -8186 -9144 0
-9201 8192 0
-9201 8186 0
-9201 9144 0
-1290 8212 9198 9199 9200 9201 0
1290 -8212 0
1290 -9198 0
1290 -9199 0
1290 -9200 0
1290 -9201 0
9202 -8192 -9161 0
-9202 8192 0
-9202 9161 0
9203 -9161 -9161 0
-9203 9161 0
-9203 9161 0
9204 -9161 -8192 0
-9204 9161 0
-9204 8192 0
9205 -8192 -8192 -9144 0
-9205 8192 0
-9205 8192 0
-9205 9144 0
-1293 8214 9202 9203 9204 9205 0
1293 -8214 0
1293 -9202 0
1293 -9203 0
1293 -9204 0
1293 -9205 0
9206 -8371 -8371 0
-9206 8371 0
-9206 8371 0
-5908 8377 9206 0
5908 -8377 0
5908 -9206 0
9207 -8371 -8382 0
-9207 8371 0
-9207 8382 0
-5904 8384 9207 0
5904 -8384 0
5904 -9207 0
9208 -8371 -8388 0
-9208 8371 0
-9208 8388 0
-5922 8391 9208 0
5922 -8391 0
5922 -9208 0
9209 -8393 -8388 0
-9209 8393 0
-9209 8388 0
-1518 8398 9209 0
1518 -8398 0
1518 -9209 0
9210 -8371 -8403 0
-9210 8371 0
-9210 8403 0
-5911 8405 9210 0
5911 -8405 0
5911 -9210 0
9211 -8371 -8409 0
-9211 8371 0
-9211 8409 0
-5916 8412 9211 0
5916 -8412 0
5916 -9211 0
9212 -8393 -8409 0
-9212 8393 0
-9212 8409 0
-1515 8417 9212 0
1515 -8417 0
1515 -9212 0
9213 -8382 -8393 0
-9213 8382 0
-9213 8393 0
-1508 8422 9213 0
1508 -8422 0
1508 -9213 0
9214 -8382 -8382 0
-9214 8382 0
-9214 8382 0
-1510 8427 9214 0
1510 -8427 0
1510 -9214 0
9215 -8382 -8403 0
-9215 8382 0
-9215 8403 0
-1513 8432 9215 0
1513 -8432 0
1513 -9215 0
9216 -8382 -8409 0
-9216 8382 0
-9216 8409 0
-1516 8437 9216 0
1516 -8437 0
1516 -9216 0
9217 -8388 -8409 0
-9217 8388 0
-9217 8409 0
-1519 8442 9217 0
1519 -8442 0
1519 -9217 0
9218 -8403 -8393 0
-9218 8403 0
-9218 8393 0
-1512 8447 9218 0
1512 -8447 0
1512 -9218 0
9219 -8403 -8388 0
-9219 8403 0
-9219 8388 0
-1521 8452 9219 0
1521 -8452 0
1521 -9219 0
9220 -8403 -8403 0
-9220 8403 0
-9220 8403 0
-1524 8457 9220 0
1524 -8457 0
1524 -9220 0
9221 -8866 -8866 0
-9221 8866 0
-9221 8866 0
-3715 8860 9221 0
3715 -8860 0
3715 -9221 0
9222 -8866 -8891 0
-9222 8866 0
-9222 8891 0
-3711 8872 9222 0
3711 -8872 0
3711 -9222 0
9223 -8866 -8887 0
-9223 8866 0
-9223 8887 0
-3735 8875 9223 0
3735 -8875 0
3735 -9223 0
9224 -8869 -8887 0
-9224 8869 0
-9224 8887 0
-3733 8877 9224 0
3733 -8877 0
3733 -9224 0
9225 -8866 -8980 0
-9225 8866 0
-9225 8980 0
-3719 8969 9225 0
3719 -8969 0
3719 -9225 0
9226 -8866 -8865 0
-9226 8866 0
-9226 8865 0
-3726 8859 9226 0
3726 -8859 0
3726 -9226 0
9227 -8869 -8865 0
-9227 8869 0
-9227 8865 0
-3728 8868 9227 0
3728 -8868 0
3728 -9227 0
9228 -8891 -8869 0
-9228 8891 0
-9228 8869 0
-3710 8889 9228 0
3710 -8889 0
3710 -9228 0
9229 -8891 -8891 0
-9229 8891 0
-9229 8891 0
-3717 8893 9229 0
3717 -8893 0
3717 -9229 0
9230 -8891 -8980 0
-9230 8891 0
-9230 8980 0
-3724 8990 9230 0
3724 -8990 0
3724 -9230 0
9231 -8891 -8865 0
-9231 8891 0
-9231 8865 0
-3731 8871 9231 0
3731 -8871 0
3731 -9231 0
9232 -8887 -8865 0
-9232 8887 0
-9232 8865 0
-3738 8874 9232 0
3738 -8874 0
3738 -9232 0
9233 -8980 -8869 0
-9233 8980 0
-9233 8869 0
-3722 8986 9233 0
3722 -8986 0
3722 -9233 0
9234 -8980 -8887 0
-9234 8980 0
-9234 8887 0
-3743 8995 9234 0
3743 -8995 0
3743 -9234 0
9235 -8980 -8980 0
-9235 8980 0
-9235 8980 0
-3749 8973 9235 0
3749 -8973 0
3749 -9235 0
9236 -8092 -8092 0
-9236 8092 0
-9236 8092 0
-2824 8098 9236 0
2824 -8098 0
2824 -9236 0
9237 -8092 -8103 0
-9237 8092 0
-9237 8103 0
-2820 8105 9237 0
2820 -8105 0
2820 -9237 0
9238 -8092 -8109 0
-9238 8092 0
-9238 8109 0
-2838 8112 9238 0
2838 -8112 0
2838 -9238 0
9239 -8114 -8109 0
-9239 8114 0
-9239 8109 0
-2530 8119 9239 0
2530 -8119 0
2530 -9239 0
9240 -8092 -8124 0
-9240 8092 0
-9240 8124 0
-2827 8126 9240 0
2827 -8126 0
2827 -9240 0
9241 -8092 -8130 0
-9241 8092 0
-9241 8130 0
-2832 8133 9241 0
2832 -8133 0
2832 -9241 0
9242 -8114 -8130 0
-9242 8114 0
-9242 8130 0
-2527 8138 9242 0
2527 -8138 0
2527 -9242 0
9243 -8103 -8114 0
-9243 8103 0
-9243 8114 0
-2520 8143 9243 0
2520 -8143 0
2520 -9243 0
9244 -8103 -8103 0
-9244 8103 0
-9244 8103 0
-2522 8148 9244 0
2522 -8148 0
2522 -9244 0
9245 -8103 -8124 0
-9245 8103 0
-9245 8124 0
-2525 8153 9245 0
2525 -8153 0
2525 -9245 0
9246 -8103 -8130 0
-9246 8103 0
-9246 8130 0
-2528 8158 9246 0
2528 -8158 0
2528 -9246 0
9247 -8109 -8130 0
-9247 8109 0
-9247 8130 0
-2531 8163 9247 0
2531 -8163 0
2531 -9247 0
9248 -8124 -8114 0
-9248 8124 0
-9248 8114 0
-2524 8168 9248 0
2524 -8168 0
2524 -9248 0
9249 -8124 -8109 0
-9249 8124 0
-9249 8109 0
-2533 8173 9249 0
2533 -8173 0
2533 -9249 0
9250 -8124 -8124 0
-9250 8124 0
-9250 8124 0
-2536 8178 9250 0
2536 -8178 0
2536 -9250 0
9251 -6471 -6471 0
-9251 6471 0
-9251 6471 0
-2102 6456 9251 0
2102 -6456 0
2102 -9251 0
9252 -6471 -6481 0
-9252 6471 0
-9252 6481 0
-2096 6459 9252 0
2096 -6459 0
2096 -9252 0
9253 -6471 -6483 0
-9253 6471 0
-9253 6483 0
-2095 6462 9253 0
2095 -6462 0
2095 -9253 0
9254 -6473 -6483 0
-9254 6473 0
-9254 6483 0
-2118 6465 9254 0
2118 -6465 0
2118 -9254 0
9255 -6471 -6729 0
-9255 6471 0
-9255 6729 0
-2109 6703 9255 0
2109 -6703 0
2109 -9255 0
9256 -6471 -6470 0
-9256 6471 0
-9256 6470 0
-2116 6455 9256 0
2116 -6455 0
2116 -9256 0
9257 -6473 -6470 0
-9257 6473 0
-9257 6470 0
-2123 6464 9257 0
2123 -6464 0
2123 -9257 0
9258 -6481 -6473 0
-9258 6481 0
-9258 6473 0
-2120 6475 9258 0
2120 -6475 0
2120 -9258 0
9259 -6481 -6481 0
-9259 6481 0
-9259 6481 0
-2100 6477 9259 0
2100 -6477 0
2100 -9259 0
9260 -6481 -6729 0
-9260 6481 0
-9260 6729 0
-2104 6709 9260 0
2104 -6709 0
2104 -9260 0
9261 -6481 -6470 0
-9261 6481 0
-9261 6470 0
-2111 6458 9261 0
2111 -6458 0
2111 -9261 0
9262 -6483 -6470 0
-9262 6483 0
-9262 6470 0
-2113 6461 9262 0
2113 -6461 0
2113 -9262 0
9263 -6729 -6473 0
-9263 6729 0
-9263 6473 0
-2128 6720 9263 0
2128 -6720 0
2128 -9263 0
9264 -6729 -6483 0
-9264 6729 0
-9264 6483 0
-2107 6714 9264 0
2107 -6714 0
2107 -9264 0
9265 -6729 -6729 0
-9265 6729 0
-9265 6729 0
-2134 6707 9265 0
2134 -6707 0
2134 -9265 0
9266 -7886 -7886 0
-9266 7886 0
-9266 7886 0
-5626 7892 9266 0
5626 -7892 0
5626 -9266 0
9267 -7886 -7897 0
-9267 7886 0
-9267 7897 0
-5622 7899 9267 0
5622 -7899 0
5622 -9267 0
9268 -7886 -7903 0
-9268 7886 0
-9268 7903 0
-5640 7906 9268 0
5640 -7906 0
5640 -9268 0
9269 -7908 -7903 0
-9269 7908 0
-9269 7903 0
-4534 7913 9269 0
4534 -7913 0
4534 -9269 0
9270 -7886 -7918 0
-9270 7886 0
-9270 7918 0
-5629 7920 9270 0
5629 -7920 0
5629 -9270 0
9271 -7886 -7924 0
-9271 7886 0
-9271 7924 0
-5634 7927 9271 0
5634 -7927 0
5634 -9271 0
9272 -7908 -7924 0
-9272 7908 0
-9272 7924 0
-4531 7932 9272 0
4531 -7932 0
4531 -9272 0
9273 -7897 -7908 0
-9273 7897 0
-9273 7908 0
-4524 7937 9273 0
4524 -7937 0
4524 -9273 0
9274 -7897 -7897 0
-9274 7897 0
-9274 7897 0
-4526 7942 9274 0
4526 -7942 0
4526 -9274 0
9275 -7897 -7918 0
-9275 7897 0
-9275 7918 0
-4529 7947 9275 0
4529 -7947 0
4529 -9275 0
9276 -7897 -7924 0
-9276 7897 0
-9276 7924 0
-4532 7952 9276 0
4532 -7952 0
4532 -9276 0
9277 -7903 -7924 0
-9277 7903 0
-9277 7924 0
-4535 7957 9277 0
4535 -7957 0
4535 -9277 0
9278 -7918 -7908 0
-9278 7918 0
-9278 7908 0
-4528 7962 9278 0
4528 -7962 0
4528 -9278 0
9279 -7918 -7903 0
-9279 7918 0
-9279 7903 0
-4537 7967 9279 0
4537 -7967 0
4537 -9279 0
9280 -7918 -7918 0
-9280 7918 0
-9280 7918 0
-4540 7972 9280 0
4540 -7972 0
4540 -9280 0
9281 -9282 -9283 0
-9281 9282 0
-9281 9283 0
9284 -9283 -9283 0
-9284 9283 0
-9284 9283 0
9285 -9283 -9282 0
-9285 9283 0
-9285 9282 0
9286 -9282 -9282 -9287 0
-9286 9282 0
-9286 9282 0
-9286 9287 0
-4754 9288 9281 9284 9285 9286 0
4754 -9288 0
4754 -9281 0
4754 -9284 0
4754 -9285 0
4754 -9286 0
9289 -9282 -9290 0
-9289 9282 0
-9289 9290 0
9291 -9283 -9290 0
-9291 9283 0
-9291 9290 0
9292 -9283 -9293 0
-9292 9283 0
-9292 9293 0
9294 -9282 -9293 -9287 0
-9294 9282 0
-9294 9293 0
-9294 9287 0
-4750 9295 9289 9291 9292 9294 0
4750 -9295 0
4750 -9289 0
4750 -9291 0
4750 -9292 0
4750 -9294 0
9296 -9282 -9297 0
-9296 9282 0
-9296 9297 0
9298 -9283 -9299 0
-9298 9283 0
-9298 9299 0
9300 -9283 -9297 0
-9300 9283 0
-9300 9297 0
9301 -9282 -9299 -9287 0
-9301 9282 0
-9301 9299 0
-9301 9287 0
-4768 9302 9296 9298 9300 9301 0
4768 -9302 0
4768 -9296 0
4768 -9298 0
4768 -9300 0
4768 -9301 0
9303 -9304 -9297 0
-9303 9304 0
-9303 9297 0
9305 -9306 -9297 0
-9305 9306 0
-9305 9297 0
9307 -9306 -9299 0
-9307 9306 0
-9307 9299 0
9308 -9304 -9299 -9287 0
-9308 9304 0
-9308 9299 0
-9308 9287 0
-1703 9309 9303 9305 9307 9308 0
1703 -9309 0
1703 -9303 0
1703 -9305 0
1703 -9307 0
1703 -9308 0
9310 -9282 -9311 0
-9310 9282 0
-9310 9311 0
9312 -9283 -9311 0
-9312 9283 0
-9312 9311 0
9313 -9283 -9314 0
-9313 9283 0
-9313 9314 0
9315 -9282 -9314 -9287 0
-9315 9282 0
-9315 9314 0
-9315 9287 0
-4757 9316 9310 9312 9313 9315 0
4757 -9316 0
4757 -9310 0
4757 -9312 0
4757 -9313 0
4757 -9315 0
9317 -9282 -9318 0
-9317 9282 0
-9317 9318 0
9319 -9283 -9320 0
-9319 9283 0
-9319 9320 0
9321 -9283 -9318 0
-9321 9283 0
-9321 9318 0
9322 -9282 -9320 -9287 0
-9322 9282 0
-9322 9320 0
-9322 9287 0
-4762 9323 9317 9319 9321 9322 0
4762 -9323 0
4762 -9317 0
4762 -9319 0
4762 -9321 0
4762 -9322 0
9324 -9304 -9318 0
-9324 9304 0
-9324 9318 0
9325 -9306 -9318 0
-9325 9306 0
-9325 9318 0
9326 -9306 -9320 0
-9326 9306 0
-9326 9320 0
9327 -9304 -9320 -9287 0
-9327 9304 0
-9327 9320 0
-9327 9287 0
-1700 9328 9324 9325 9326 9327 0
1700 -9328 0
1700 -9324 0
1700 -9325 0
1700 -9326 0
1700 -9327 0
9329 -9293 -9306 0
-9329 9293 0
-9329 9306 0
9330 -9290 -9304 0
-9330 9290 0
-9330 9304 0
9331 -9290 -9306 0
-9331 9290 0
-9331 9306 0
9332 -9293 -9304 -9287 0
-9332 9293 0
-9332 9304 0
-9332 9287 0
-1693 9333 9329 9330 9331 9332 0
1693 -9333 0
1693 -9329 0
1693 -9330 0
1693 -9331 0
1693 -9332 0
9334 -9293 -9290 0
-9334 9293 0
-9334 9290 0
9335 -9290 -9290 0
-9335 9290 0
-9335 9290 0
9336 -9290 -9293 0
-9336 9290 0
-9336 9293 0
9337 -9293 -9293 -9287 0
-9337 9293 0
-9337 9293 0
-9337 9287 0
-1695 9338 9334 9335 9336 9337 0
1695 -9338 0
1695 -9334 0
1695 -9335 0
1695 -9336 0
1695 -9337 0
9339 -9293 -9311 0
-9339 9293 0
-9339 9311 0
9340 -9290 -9311 0
-9340 9290 0
-9340 9311 0
9341 -9290 -9314 0
-9341 9290 0
-9341 9314 0
9342 -9293 -9314 -9287 0
-9342 9293 0
-9342 9314 0
-9342 9287 0
-1698 9343 9339 9340 9341 9342 0
1698 -9343 0
1698 -9339 0
1698 -9340 0
1698 -9341 0
1698 -9342 0
9344 -9293 -9318 0
-9344 9293 0
-9344 9318 0
9345 -9290 -9320 0
-9345 9290 0
-9345 9320 0
9346 -9290 -9318 0
-9346 9290 0
-9346 9318 0
9347 -9293 -9320 -9287 0
-9347 9293 0
-9347 9320 0
-9347 9287 0
-1701 9348 9344 9345 9346 9347 0
1701 -9348 0
1701 -9344 0
1701 -9345 0
1701 -9346 0
1701 -9347 0
9349 -9299 -9318 0
-9349 9299 0
-9349 9318 0
9350 -9297 -9318 0
-9350 9297 0
-9350 9318 0
9351 -9297 -9320 0
-9351 9297 0
-9351 9320 0
9352 -9299 -9320 -9287 0
-9352 9299 0
-9352 9320 0
-9352 9287 0
-1704 9353 9349 9350 9351 9352 0
1704 -9353 0
1704 -9349 0
1704 -9350 0
1704 -9351 0
1704 -9352 0
9354 -9314 -9306 0
-9354 9314 0
-9354 9306 0
9355 -9311 -9304 0
-9355 9311 0
-9355 9304 0
9356 -9311 -9306 0
-9356 9311 0
-9356 9306 0
9357 -9314 -9304 -9287 0
-9357 9314 0
-9357 9304 0
-9357 9287 0
-1697 9358 9354 9355 9356 9357 0
1697 -9358 0
1697 -9354 0
1697 -9355 0
1697 -9356 0
1697 -9357 0
9359 -9314 -9297 0
-9359 9314 0
-9359 9297 0
9360 -9311 -9299 0
-9360 9311 0
-9360 9299 0
9361 -9311 -9297 0
-9361 9311 0
-9361 9297 0
9362 -9314 -9299 -9287 0
-9362 9314 0
-9362 9299 0
-9362 9287 0
-1706 9363 9359 9360 9361 9362 0
1706 -9363 0
1706 -9359 0
1706 -9360 0
1706 -9361 0
1706 -9362 0
9364 -9314 -9311 0
-9364 9314 0
-9364 9311 0
9365 -9311 -9311 0
-9365 9311 0
-9365 9311 0
9366 -9311 -9314 0
-9366 9311 0
-9366 9314 0
9367 -9314 -9314 -9287 0
-9367 9314 0
-9367 9314 0
-9367 9287 0
-1709 9368 9364 9365 9366 9367 0
1709 -9368 0
1709 -9364 0
1709 -9365 0
1709 -9366 0
1709 -9367 0
9369 -8866 -8863 0
-9369 8866 0
-9369 8863 0
9370 -8863 -8863 0
-9370 8863 0
-9370 8863 0
9371 -8863 -8866 0
-9371 8863 0
-9371 8866 0
9372 -8866 -8866 -8881 0
-9372 8866 0
-9372 8866 0
-9372 8881 0
-4253 8860 9369 9370 9371 9372 0
4253 -8860 0
4253 -9369 0
4253 -9370 0
4253 -9371 0
4253 -9372 0
9373 -8866 -8883 0
-9373 8866 0
-9373 8883 0
9374 -8863 -8883 0
-9374 8863 0
-9374 8883 0
9375 -8863 -8891 0
-9375 8863 0
-9375 8891 0
9376 -8866 -8891 -8881 0
-9376 8866 0
-9376 8891 0
-9376 8881 0
-4249 8872 9373 9374 9375 9376 0
4249 -8872 0
4249 -9373 0
4249 -9374 0
4249 -9375 0
4249 -9376 0
9377 -8866 -8885 0
-9377 8866 0
-9377 8885 0
9378 -8863 -8887 0
-9378 8863 0
-9378 8887 0
9379 -8863 -8885 0
-9379 8863 0
-9379 8885 0
9380 -8866 -8887 -8881 0
-9380 8866 0
-9380 8887 0
-9380 8881 0
-4267 8875 9377 9378 9379 9380 0
4267 -8875 0
4267 -9377 0
4267 -9378 0
4267 -9379 0
4267 -9380 0
9381 -8869 -8885 0
-9381 8869 0
-9381 8885 0
9382 -8879 -8885 0
-9382 8879 0
-9382 8885 0
9383 -8879 -8887 0
-9383 8879 0
-9383 8887 0
9384 -8869 -8887 -8881 0
-9384 8869 0
-9384 8887 0
-9384 8881 0
-3536 8877 9381 9382 9383 9384 0
3536 -8877 0
3536 -9381 0
3536 -9382 0
3536 -9383 0
3536 -9384 0
9385 -8866 -8975 0
-9385 8866 0
-9385 8975 0
9386 -8863 -8975 0
-9386 8863 0
-9386 8975 0
9387 -8863 -8980 0
-9387 8863 0
-9387 8980 0
9388 -8866 -8980 -8881 0
-9388 8866 0
-9388 8980 0
-9388 8881 0
-4256 8969 9385 9386 9387 9388 0
4256 -8969 0
4256 -9385 0
4256 -9386 0
4256 -9387 0
4256 -9388 0
9389 -8866 -8862 0
-9389 8866 0
-9389 8862 0
9390 -8863 -8865 0
-9390 8863 0
-9390 8865 0
9391 -8863 -8862 0
-9391 8863 0
-9391 8862 0
9392 -8866 -8865 -8881 0
-9392 8866 0
-9392 8865 0
-9392 8881 0
-4261 8859 9389 9390 9391 9392 0
4261 -8859 0
4261 -9389 0
4261 -9390 0
4261 -9391 0
4261 -9392 0
9393 -8869 -8862 0
-9393 8869 0
-9393 8862 0
9394 -8879 -8862 0
-9394 8879 0
-9394 8862 0
9395 -8879 -8865 0
-9395 8879 0
-9395 8865 0
9396 -8869 -8865 -8881 0
-9396 8869 0
-9396 8865 0
-9396 8881 0
-3533 8868 9393 9394 9395 9396 0
3533 -8868 0
3533 -9393 0
3533 -9394 0
3533 -9395 0
3533 -9396 0
9397 -8891 -8879 0
-9397 8891 0
-9397 8879 0
9398 -8883 -8869 0
-9398 8883 0
-9398 8869 0
9399 -8883 -8879 0
-9399 8883 0
-9399 8879 0
9400 -8891 -8869 -8881 0
-9400 8891 0
-9400 8869 0
-9400 8881 0
-3526 8889 9397 9398 9399 9400 0
3526 -8889 0
3526 -9397 0
3526 -9398 0
3526 -9399 0
3526 -9400 0
9401 -8891 -8883 0
-9401 8891 0
-9401 8883 0
9402 -8883 -8883 0
-9402 8883 0
-9402 8883 0
9403 -8883 -8891 0
-9403 8883 0
-9403 8891 0
9404 -8891 -8891 -8881 0
-9404 8891 0
-9404 8891 0
-9404 8881 0
-3528 8893 9401 9402 9403 9404 0
3528 -8893 0
3528 -9401 0
3528 -9402 0
3528 -9403 0
3528 -9404 0
9405 -8891 -8975 0
-9405 8891 0
-9405 8975 0
9406 -8883 -8975 0
-9406 8883 0
-9406 8975 0
9407 -8883 -8980 0
-9407 8883 0
-9407 8980 0
9408 -8891 -8980 -8881 0
-9408 8891 0
-9408 8980 0
-9408 8881 0
-3531 8990 9405 9406 9407 9408 0
3531 -8990 0
3531 -9405 0
3531 -9406 0
3531 -9407 0
3531 -9408 0
9409 -8891 -8862 0
-9409 8891 0
-9409 8862 0
9410 -8883 -8865 0
-9410 8883 0
-9410 8865 0
9411 -8883 -8862 0
-9411 8883 0
-9411 8862 0
9412 -8891 -8865 -8881 0
-9412 8891 0
-9412 8865 0
-9412 8881 0
-3534 8871 9409 9410 9411 9412 0
3534 -8871 0
3534 -9409 0
3534 -9410 0
3534 -9411 0
3534 -9412 0
9413 -8887 -8862 0
-9413 8887 0
-9413 8862 0
9414 -8885 -8862 0
-9414 8885 0
-9414 8862 0
9415 -8885 -8865 0
-9415 8885 0
-9415 8865 0
9416 -8887 -8865 -8881 0
-9416 8887 0
-9416 8865 0
-9416 8881 0
-3537 8874 9413 9414 9415 9416 0
3537 -8874 0
3537 -9413 0
3537 -9414 0
3537 -9415 0
3537 -9416 0
9417 -8980 -8879 0
-9417 8980 0
-9417 8879 0
9418 -8975 -8869 0
-9418 8975 0
-9418 8869 0
9419 -8975 -8879 0
-9419 8975 0
-9419 8879 0
9420 -8980 -8869 -8881 0
-9420 8980 0
-9420 8869 0
-9420 8881 0
-3530 8986 9417 9418 9419 9420 0
3530 -8986 0
3530 -9417 0
3530 -9418 0
3530 -9419 0
3530 -9420 0
9421 -8980 -8885 0
-9421 8980 0
-9421 8885 0
9422 -8975 -8887 0
-9422 8975 0
-9422 8887 0
9423 -8975 -8885 0
-9423 8975 0
-9423 8885 0
9424 -8980 -8887 -8881 0
-9424 8980 0
-9424 8887 0
-9424 8881 0
-3539 8995 9421 9422 9423 9424 0
3539 -8995 0
3539 -9421 0
3539 -9422 0
3539 -9423 0
3539 -9424 0
9425 -8980 -8975 0
-9425 8980 0
-9425 8975 0
9008 -8975 -8975 0
-9008 8975 0
-9008 8975 0
9426 -8975 -8980 0
-9426 8975 0
-9426 8980 0
9427 -8980 -8980 -8881 0
-9427 8980 0
-9427 8980 0
-9427 8881 0
-3542 8973 9425 9008 9426 9427 0
3542 -8973 0
3542 -9425 0
3542 -9008 0
3542 -9426 0
3542 -9427 0
9428 -7158 -7158 0
-9428 7158 0
-9428 7158 0
-5691 7164 9428 0
5691 -7164 0
5691 -9428 0
9429 -7158 -7169 0
-9429 7158 0
-9429 7169 0
-5687 7171 9429 0
5687 -7171 0
5687 -9429 0
9430 -7158 -7175 0
-9430 7158 0
-9430 7175 0
-5711 7178 9430 0
5711 -7178 0
5711 -9430 0
9431 -7180 -7175 0
-9431 7180 0
-9431 7175 0
-5709 7185 9431 0
5709 -7185 0
5709 -9431 0
9432 -7158 -7190 0
-9432 7158 0
-9432 7190 0
-5695 7192 9432 0
5695 -7192 0
5695 -9432 0
9433 -7158 -7196 0
-9433 7158 0
-9433 7196 0
-5702 7199 9433 0
5702 -7199 0
5702 -9433 0
9434 -7180 -7196 0
-9434 7180 0
-9434 7196 0
-5704 7204 9434 0
5704 -7204 0
5704 -9434 0
9435 -7169 -7180 0
-9435 7169 0
-9435 7180 0
-5686 7209 9435 0
5686 -7209 0
5686 -9435 0
9436 -7169 -7169 0
-9436 7169 0
-9436 7169 0
-5693 7214 9436 0
5693 -7214 0
5693 -9436 0
9437 -7169 -7190 0
-9437 7169 0
-9437 7190 0
-5700 7219 9437 0
5700 -7219 0
5700 -9437 0
9438 -7169 -7196 0
-9438 7169 0
-9438 7196 0
-5707 7224 9438 0
5707 -7224 0
5707 -9438 0
9439 -7175 -7196 0
-9439 7175 0
-9439 7196 0
-5714 7229 9439 0
5714 -7229 0
5714 -9439 0
9440 -7190 -7180 0
-9440 7190 0
-9440 7180 0
-5698 7234 9440 0
5698 -7234 0
5698 -9440 0
9441 -7190 -7175 0
-9441 7190 0
-9441 7175 0
-5719 7239 9441 0
5719 -7239 0
5719 -9441 0
9442 -7190 -7190 0
-9442 7190 0
-9442 7190 0
-5725 7244 9442 0
5725 -7244 0
5725 -9442 0
9443 -6491 -6491 0
-9443 6491 0
-9443 6491 0
-5579 6497 9443 0
5579 -6497 0
5579 -9443 0
9444 -6491 -6502 0
-9444 6491 0
-9444 6502 0
-5575 6504 9444 0
5575 -6504 0
5575 -9444 0
9445 -6491 -6508 0
-9445 6491 0
-9445 6508 0
-5593 6511 9445 0
5593 -6511 0
5593 -9445 0
9446 -6513 -6508 0
-9446 6513 0
-9446 6508 0
-2303 6518 9446 0
2303 -6518 0
2303 -9446 0
9447 -6491 -6523 0
-9447 6491 0
-9447 6523 0
-5582 6525 9447 0
5582 -6525 0
5582 -9447 0
9448 -6491 -6529 0
-9448 6491 0
-9448 6529 0
-5587 6532 9448 0
5587 -6532 0
5587 -9448 0
9449 -6513 -6529 0
-9449 6513 0
-9449 6529 0
-2300 6537 9449 0
2300 -6537 0
2300 -9449 0
9450 -6502 -6513 0
-9450 6502 0
-9450 6513 0
-2293 6542 9450 0
2293 -6542 0
2293 -9450 0
9451 -6502 -6502 0
-9451 6502 0
-9451 6502 0
-2295 6547 9451 0
2295 -6547 0
2295 -9451 0
9452 -6502 -6523 0
-9452 6502 0
-9452 6523 0
-2298 6552 9452 0
2298 -6552 0
2298 -9452 0
9453 -6502 -6529 0
-9453 6502 0
-9453 6529 0
-2301 6557 9453 0
2301 -6557 0
2301 -9453 0
9454 -6508 -6529 0
-9454 6508 0
-9454 6529 0
-2304 6562 9454 0
2304 -6562 0
2304 -9454 0
9455 -6523 -6513 0
-9455 6523 0
-9455 6513 0
-2297 6567 9455 0
2297 -6567 0
2297 -9455 0
9456 -6523 -6508 0
-9456 6523 0
-9456 6508 0
-2306 6572 9456 0
2306 -6572 0
2306 -9456 0
9457 -6523 -6523 0
-9457 6523 0
-9457 6523 0
-2309 6577 9457 0
2309 -6577 0
2309 -9457 0
9458 -8283 -8283 0
-9458 8283 0
-9458 8283 0
-4387 8289 9458 0
4387 -8289 0
4387 -9458 0
9459 -8283 -8294 0
-9459 8283 0
-9459 8294 0
-4383 8296 9459 0
4383 -8296 0
4383 -9459 0
9460 -8283 -8300 0
-9460 8283 0
-9460 8300 0
-4407 8303 9460 0
4407 -8303 0
4407 -9460 0
9461 -8305 -8300 0
-9461 8305 0
-9461 8300 0
-4405 8310 9461 0
4405 -8310 0
4405 -9461 0
9462 -8283 -8315 0
-9462 8283 0
-9462 8315 0
-4391 8317 9462 0
4391 -8317 0
4391 -9462 0
9463 -8283 -8321 0
-9463 8283 0
-9463 8321 0
-4398 8324 9463 0
4398 -8324 0
4398 -9463 0
9464 -8305 -8321 0
-9464 8305 0
-9464 8321 0
-4400 8329 9464 0
4400 -8329 0
4400 -9464 0
9465 -8294 -8305 0
-9465 8294 0
-9465 8305 0
-4382 8334 9465 0
4382 -8334 0
4382 -9465 0
9466 -8294 -8294 0
-9466 8294 0
-9466 8294 0
-4389 8339 9466 0
4389 -8339 0
4389 -9466 0
9467 -8294 -8315 0
-9467 8294 0
-9467 8315 0
-4396 8344 9467 0
4396 -8344 0
4396 -9467 0
9468 -8294 -8321 0
-9468 8294 0
-9468 8321 0
-4403 8349 9468 0
4403 -8349 0
4403 -9468 0
9469 -8300 -8321 0
-9469 8300 0
-9469 8321 0
-4410 8354 9469 0
4410 -8354 0
4410 -9469 0
9470 -8315 -8305 0
-9470 8315 0
-9470 8305 0
-4394 8359 9470 0
4394 -8359 0
4394 -9470 0
9471 -8315 -8300 0
-9471 8315 0
-9471 8300 0
-4415 8364 9471 0
4415 -8364 0
4415 -9471 0
9472 -8315 -8315 0
-9472 8315 0
-9472 8315 0
-4421 8369 9472 0
4421 -8369 0
4421 -9472 0
9473 -7002 -6995 0
-9473 7002 0
-9473 6995 0
9474 -6995 -6995 0
-9474 6995 0
-9474 6995 0
9475 -6995 -7002 0
-9475 6995 0
-9475 7002 0
9476 -7002 -7002 -7038 0
-9476 7002 0
-9476 7002 0
-9476 7038 0
-2678 6988 9473 9474 9475 9476 0
2678 -6988 0
2678 -9473 0
2678 -9474 0
2678 -9475 0
2678 -9476 0
9477 -7002 -6990 0
-9477 7002 0
-9477 6990 0
9478 -6995 -6990 0
-9478 6995 0
-9478 6990 0
9479 -6995 -6997 0
-9479 6995 0
-9479 6997 0
9480 -7002 -6997 -7038 0
-9480 7002 0
-9480 6997 0
-9480 7038 0
-2674 6983 9477 9478 9479 9480 0
2674 -6983 0
2674 -9477 0
2674 -9478 0
2674 -9479 0
2674 -9480 0
9481 -7002 -6993 0
-9481 7002 0
-9481 6993 0
9482 -6995 -6999 0
-9482 6995 0
-9482 6999 0
9483 -6995 -6993 0
-9483 6995 0
-9483 6993 0
9484 -7002 -6999 -7038 0
-9484 7002 0
-9484 6999 0
-9484 7038 0
-2692 6982 9481 9482 9483 9484 0
2692 -6982 0
2692 -9481 0
2692 -9482 0
2692 -9483 0
2692 -9484 0
9485 -7009 -6993 0
-9485 7009 0
-9485 6993 0
9486 -7033 -6993 0
-9486 7033 0
-9486 6993 0
9487 -7033 -6999 0
-9487 7033 0
-9487 6999 0
9488 -7009 -6999 -7038 0
-9488 7009 0
-9488 6999 0
-9488 7038 0
-1269 7004 9485 9486 9487 9488 0
1269 -7004 0
1269 -9485 0
1269 -9486 0
1269 -9487 0
1269 -9488 0
9489 -7002 -7043 0
-9489 7002 0
-9489 7043 0
9490 -6995 -7043 0
-9490 6995 0
-9490 7043 0
9491 -6995 -7063 0
-9491 6995 0
-9491 7063 0
9492 -7002 -7063 -7038 0
-9492 7002 0
-9492 7063 0
-9492 7038 0
-2681 7016 9489 9490 9491 9492 0
2681 -7016 0
2681 -9489 0
2681 -9490 0
2681 -9491 0
2681 -9492 0
9493 -7002 -7048 0
-9493 7002 0
-9493 7048 0
9494 -6995 -7053 0
-9494 6995 0
-9494 7053 0
9495 -6995 -7048 0
-9495 6995 0
-9495 7048 0
9496 -7002 -7053 -7038 0
-9496 7002 0
-9496 7053 0
-9496 7038 0
-2686 7023 9493 9494 9495 9496 0
2686 -7023 0
2686 -9493 0
2686 -9494 0
2686 -9495 0
2686 -9496 0
9497 -7009 -7048 0
-9497 7009 0
-9497 7048 0
9498 -7033 -7048 0
-9498 7033 0
-9498 7048 0
9499 -7033 -7053 0
-9499 7033 0
-9499 7053 0
9500 -7009 -7053 -7038 0
-9500 7009 0
-9500 7053 0
-9500 7038 0
-1266 7028 9497 9498 9499 9500 0
1266 -7028 0
1266 -9497 0
1266 -9498 0
1266 -9499 0
1266 -9500 0
9501 -6997 -7033 0
-9501 6997 0
-9501 7033 0
9502 -6990 -7009 0
-9502 6990 0
-9502 7009 0
9503 -6990 -7033 0
-9503 6990 0
-9503 7033 0
9504 -6997 -7009 -7038 0
-9504 6997 0
-9504 7009 0
-9504 7038 0
-1259 7006 9501 9502 9503 9504 0
1259 -7006 0
1259 -9501 0
1259 -9502 0
1259 -9503 0
1259 -9504 0
9505 -6997 -6990 0
-9505 6997 0
-9505 6990 0
7035 -6990 -6990 0
-7035 6990 0
-7035 6990 0
9506 -6990 -6997 0
-9506 6990 0
-9506 6997 0
9507 -6997 -6997 -7038 0
-9507 6997 0
-9507 6997 0
-9507 7038 0
-1261 6987 9505 7035 9506 9507 0
1261 -6987 0
1261 -9505 0
1261 -7035 0
1261 -9506 0
1261 -9507 0
9508 -6997 -7043 0
-9508 6997 0
-9508 7043 0
9509 -6990 -7043 0
-9509 6990 0
-9509 7043 0
9510 -6990 -7063 0
-9510 6990 0
-9510 7063 0
9511 -6997 -7063 -7038 0
-9511 6997 0
-9511 7063 0
-9511 7038 0
-1264 7011 9508 9509 9510 9511 0
1264 -7011 0
1264 -9508 0
1264 -9509 0
1264 -9510 0
1264 -9511 0
9512 -6997 -7048 0
-9512 6997 0
-9512 7048 0
9513 -6990 -7053 0
-9513 6990 0
-9513 7053 0
9514 -6990 -7048 0
-9514 6990 0
-9514 7048 0
9515 -6997 -7053 -7038 0
-9515 6997 0
-9515 7053 0
-9515 7038 0
-1267 7018 9512 9513 9514 9515 0
1267 -7018 0
1267 -9512 0
1267 -9513 0
1267 -9514 0
1267 -9515 0
9516 -6999 -7048 0
-9516 6999 0
-9516 7048 0
9517 -6993 -7048 0
-9517 6993 0
-9517 7048 0
9518 -6993 -7053 0
-9518 6993 0
-9518 7053 0
9519 -6999 -7053 -7038 0
-9519 6999 0
-9519 7053 0
-9519 7038 0
-1270 7020 9516 9517 9518 9519 0
1270 -7020 0
1270 -9516 0
1270 -9517 0
1270 -9518 0
1270 -9519 0
9520 -7063 -7033 0
-9520 7063 0
-9520 7033 0
9521 -7043 -7009 0
-9521 7043 0
-9521 7009 0
9522 -7043 -7033 0
-9522 7043 0
-9522 7033 0
9523 -7063 -7009 -7038 0
-9523 7063 0
-9523 7009 0
-9523 7038 0
-1263 7058 9520 9521 9522 9523 0
1263 -7058 0
1263 -9520 0
1263 -9521 0
1263 -9522 0
1263 -9523 0
9524 -7063 -6993 0
-9524 7063 0
-9524 6993 0
9525 -7043 -6999 0
-9525 7043 0
-9525 6999 0
9526 -7043 -6993 0
-9526 7043 0
-9526 6993 0
9527 -7063 -6999 -7038 0
-9527 7063 0
-9527 6999 0
-9527 7038 0
-1272 7014 9524 9525 9526 9527 0
1272 -7014 0
1272 -9524 0
1272 -9525 0
1272 -9526 0
1272 -9527 0
9528 -7063 -7043 0
-9528 7063 0
-9528 7043 0
9529 -7043 -7043 0
-9529 7043 0
-9529 7043 0
9530 -7043 -7063 0
-9530 7043 0
-9530 7063 0
9531 -7063 -7063 -7038 0
-9531 7063 0
-9531 7063 0
-9531 7038 0
-1275 7068 9528 9529 9530 9531 0
1275 -7068 0
1275 -9528 0
1275 -9529 0
1275 -9530 0
1275 -9531 0
9532 -7090 -7090 0
-9532 7090 0
-9532 7090 0
-3821 7076 9532 0
3821 -7076 0
3821 -9532 0
9533 -7090 -7085 0
-9533 7090 0
-9533 7085 0
-3817 7071 9533 0
3817 -7071 0
3817 -9533 0
9534 -7090 -7087 0
-9534 7090 0
-9534 7087 0
-3835 7070 9534 0
3835 -7070 0
3835 -9534 0
9535 -7097 -7087 0
-9535 7097 0
-9535 7087 0
-3167 7092 9535 0
3167 -7092 0
3167 -9535 0
9536 -7090 -7151 0
-9536 7090 0
-9536 7151 0
-3824 7104 9536 0
3824 -7104 0
3824 -9536 0
9537 -7090 -7141 0
-9537 7090 0
-9537 7141 0
-3829 7111 9537 0
3829 -7111 0
3829 -9537 0
9538 -7097 -7141 0
-9538 7097 0
-9538 7141 0
-3164 7116 9538 0
3164 -7116 0
3164 -9538 0
9539 -7085 -7097 0
-9539 7085 0
-9539 7097 0
-3157 7094 9539 0
3157 -7094 0
3157 -9539 0
9540 -7085 -7085 0
-9540 7085 0
-9540 7085 0
-3159 7075 9540 0
3159 -7075 0
3159 -9540 0
9541 -7085 -7151 0
-9541 7085 0
-9541 7151 0
-3162 7099 9541 0
3162 -7099 0
3162 -9541 0
9542 -7085 -7141 0
-9542 7085 0
-9542 7141 0
-3165 7106 9542 0
3165 -7106 0
3165 -9542 0
9543 -7087 -7141 0
-9543 7087 0
-9543 7141 0
-3168 7108 9543 0
3168 -7108 0
3168 -9543 0
9544 -7151 -7097 0
-9544 7151 0
-9544 7097 0
-3161 7146 9544 0
3161 -7146 0
3161 -9544 0
9545 -7151 -7087 0
-9545 7151 0
-9545 7087 0
-3170 7102 9545 0
3170 -7102 0
3170 -9545 0
9546 -7151 -7151 0
-9546 7151 0
-9546 7151 0
-3173 7156 9546 0
3173 -7156 0
3173 -9546 0
9547 -6586 -6586 0
-9547 6586 0
-9547 6586 0
-4926 6580 9547 0
4926 -6580 0
4926 -9547 0
9548 -6586 -7811 0
-9548 6586 0
-9548 7811 0
-4922 7813 9548 0
4922 -7813 0
4922 -9548 0
9549 -6586 -6585 0
-9549 6586 0
-9549 6585 0
-4940 6579 9549 0
4940 -6579 0
4940 -9549 0
9550 -6589 -6585 0
-9550 6589 0
-9550 6585 0
-1341 6588 9550 0
1341 -6588 0
1341 -9550 0
9551 -6586 -6611 0
-9551 6586 0
-9551 6611 0
-4929 6592 9551 0
4929 -6592 0
4929 -9551 0
9552 -6586 -6607 0
-9552 6586 0
-9552 6607 0
-4934 6595 9552 0
4934 -6595 0
4934 -9552 0
9553 -6589 -6607 0
-9553 6589 0
-9553 6607 0
-1338 6597 9553 0
1338 -6597 0
1338 -9553 0
9554 -7811 -6589 0
-9554 7811 0
-9554 6589 0
-1331 7838 9554 0
1331 -7838 0
1331 -9554 0
9555 -7811 -7811 0
-9555 7811 0
-9555 7811 0
-1333 7843 9555 0
1333 -7843 0
1333 -9555 0
9556 -7811 -6611 0
-9556 7811 0
-9556 6611 0
-1336 7848 9556 0
1336 -7848 0
1336 -9556 0
9557 -7811 -6607 0
-9557 7811 0
-9557 6607 0
-1339 7853 9557 0
1339 -7853 0
1339 -9557 0
9558 -6585 -6607 0
-9558 6585 0
-9558 6607 0
-1342 6594 9558 0
1342 -6594 0
1342 -9558 0
9559 -6611 -6589 0
-9559 6611 0
-9559 6589 0
-1335 6609 9559 0
1335 -6609 0
1335 -9559 0
9560 -6611 -6585 0
-9560 6611 0
-9560 6585 0
-1344 6591 9560 0
1344 -6591 0
1344 -9560 0
9561 -6611 -6611 0
-9561 6611 0
-9561 6611 0
-1347 6613 9561 0
1347 -6613 0
1347 -9561 0
9562 -9563 -9563 0
-9562 9563 0
-9562 9563 0
-3066 9564 9562 0
3066 -9564 0
3066 -9562 0
9565 -9563 -9566 0
-9565 9563 0
-9565 9566 0
-3062 9567 9565 0
3062 -9567 0
3062 -9565 0
9568 -9563 -9569 0
-9568 9563 0
-9568 9569 0
-3080 9570 9568 0
3080 -9570 0
3080 -9568 0
9571 -9572 -9569 0
-9571 9572 0
-9571 9569 0
-2195 9573 9571 0
2195 -9573 0
2195 -9571 0
9574 -9563 -9575 0
-9574 9563 0
-9574 9575 0
-3069 9576 9574 0
3069 -9576 0
3069 -9574 0
9577 -9563 -9578 0
-9577 9563 0
-9577 9578 0
-3074 9579 9577 0
3074 -9579 0
3074 -9577 0
9580 -9572 -9578 0
-9580 9572 0
-9580 9578 0
-2192 9581 9580 0
2192 -9581 0
2192 -9580 0
9582 -9566 -9572 0
-9582 9566 0
-9582 9572 0
-2185 9583 9582 0
2185 -9583 0
2185 -9582 0
9584 -9566 -9566 0
-9584 9566 0
-9584 9566 0
-2187 9585 9584 0
2187 -9585 0
2187 -9584 0
9586 -9566 -9575 0
-9586 9566 0
-9586 9575 0
-2190 9587 9586 0
2190 -9587 0
2190 -9586 0
9588 -9566 -9578 0
-9588 9566 0
-9588 9578 0
-2193 9589 9588 0
2193 -9589 0
2193 -9588 0
9590 -9569 -9578 0
-9590 9569 0
-9590 9578 0
-2196 9591 9590 0
2196 -9591 0
2196 -9590 0
9592 -9575 -9572 0
-9592 9575 0
-9592 9572 0
-2189 9593 9592 0
2189 -9593 0
2189 -9592 0
9594 -9575 -9569 0
-9594 9575 0
-9594 9569 0
-2198 9595 9594 0
2198 -9595 0
2198 -9594 0
9596 -9575 -9575 0
-9596 9575 0
-9596 9575 0
-2201 9597 9596 0
2201 -9597 0
2201 -9596 0
9598 -6471 -6468 0
-9598 6471 0
-9598 6468 0
9599 -6468 -6468 0
-9599 6468 0
-9599 6468 0
9600 -6468 -6471 0
-9600 6468 0
-9600 6471 0
9601 -6471 -6471 -6489 0
-9601 6471 0
-9601 6471 0
-9601 6489 0
-1668 6456 9598 9599 9600 9601 0
1668 -6456 0
1668 -9598 0
1668 -9599 0
1668 -9600 0
1668 -9601 0
9602 -6471 -6479 0
-9602 6471 0
-9602 6479 0
9603 -6468 -6479 0
-9603 6468 0
-9603 6479 0
9604 -6468 -6481 0
-9604 6468 0
-9604 6481 0
9605 -6471 -6481 -6489 0
-9605 6471 0
-9605 6481 0
-9605 6489 0
-1663 6459 9602 9603 9604 9605 0
1663 -6459 0
1663 -9602 0
1663 -9603 0
1663 -9604 0
1663 -9605 0
9606 -6471 -6487 0
-9606 6471 0
-9606 6487 0
9607 -6468 -6483 0
-9607 6468 0
-9607 6483 0
9608 -6468 -6487 0
-9608 6468 0
-9608 6487 0
9609 -6471 -6483 -6489 0
-9609 6471 0
-9609 6483 0
-9609 6489 0
-1662 6462 9606 9607 9608 9609 0
1662 -6462 0
1662 -9606 0
1662 -9607 0
1662 -9608 0
1662 -9609 0
9610 -6473 -6487 0
-9610 6473 0
-9610 6487 0
9611 -6485 -6487 0
-9611 6485 0
-9611 6487 0
9612 -6485 -6483 0
-9612 6485 0
-9612 6483 0
9613 -6473 -6483 -6489 0
-9613 6473 0
-9613 6483 0
-9613 6489 0
-1595 6465 9610 9611 9612 9613 0
1595 -6465 0
1595 -9610 0
1595 -9611 0
1595 -9612 0
1595 -9613 0
9614 -6471 -6724 0
-9614 6471 0
-9614 6724 0
9615 -6468 -6724 0
-9615 6468 0
-9615 6724 0
9616 -6468 -6729 0
-9616 6468 0
-9616 6729 0
9617 -6471 -6729 -6489 0
-9617 6471 0
-9617 6729 0
-9617 6489 0
-1673 6703 9614 9615 9616 9617 0
1673 -6703 0
1673 -9614 0
1673 -9615 0
1673 -9616 0
1673 -9617 0
9618 -6471 -6467 0
-9618 6471 0
-9618 6467 0
9619 -6468 -6470 0
-9619 6468 0
-9619 6470 0
9620 -6468 -6467 0
-9620 6468 0
-9620 6467 0
9621 -6471 -6470 -6489 0
-9621 6471 0
-9621 6470 0
-9621 6489 0
-1678 6455 9618 9619 9620 9621 0
1678 -6455 0
1678 -9618 0
1678 -9619 0
1678 -9620 0
1678 -9621 0
9622 -6473 -6467 0
-9622 6473 0
-9622 6467 0
9623 -6485 -6467 0
-9623 6485 0
-9623 6467 0
9624 -6485 -6470 0
-9624 6485 0
-9624 6470 0
9625 -6473 -6470 -6489 0
-9625 6473 0
-9625 6470 0
-9625 6489 0
-1592 6464 9622 9623 9624 9625 0
1592 -6464 0
1592 -9622 0
1592 -9623 0
1592 -9624 0
1592 -9625 0
9626 -6481 -6485 0
-9626 6481 0
-9626 6485 0
9627 -6479 -6473 0
-9627 6479 0
-9627 6473 0
9628 -6479 -6485 0
-9628 6479 0
-9628 6485 0
9629 -6481 -6473 -6489 0
-9629 6481 0
-9629 6473 0
-9629 6489 0
-1585 6475 9626 9627 9628 9629 0
1585 -6475 0
1585 -9626 0
1585 -9627 0
1585 -9628 0
1585 -9629 0
9630 -6481 -6479 0
-9630 6481 0
-9630 6479 0
8965 -6479 -6479 0
-8965 6479 0
-8965 6479 0
9631 -6479 -6481 0
-9631 6479 0
-9631 6481 0
9632 -6481 -6481 -6489 0
-9632 6481 0
-9632 6481 0
-9632 6489 0
-1587 6477 9630 8965 9631 9632 0
1587 -6477 0
1587 -9630 0
1587 -8965 0
1587 -9631 0
1587 -9632 0
9633 -6481 -6724 0
-9633 6481 0
-9633 6724 0
9634 -6479 -6724 0
-9634 6479 0
-9634 6724 0
9635 -6479 -6729 0
-9635 6479 0
-9635 6729 0
9636 -6481 -6729 -6489 0
-9636 6481 0
-9636 6729 0
-9636 6489 0
-1590 6709 9633 9634 9635 9636 0
1590 -6709 0
1590 -9633 0
1590 -9634 0
1590 -9635 0
1590 -9636 0
9637 -6481 -6467 0
-9637 6481 0
-9637 6467 0
9638 -6479 -6470 0
-9638 6479 0
-9638 6470 0
9639 -6479 -6467 0
-9639 6479 0
-9639 6467 0
9640 -6481 -6470 -6489 0
-9640 6481 0
-9640 6470 0
-9640 6489 0
-1593 6458 9637 9638 9639 9640 0
1593 -6458 0
1593 -9637 0
1593 -9638 0
1593 -9639 0
1593 -9640 0
9641 -6483 -6467 0
-9641 6483 0
-9641 6467 0
9642 -6487 -6467 0
-9642 6487 0
-9642 6467 0
9643 -6487 -6470 0
-9643 6487 0
-9643 6470 0
9644 -6483 -6470 -6489 0
-9644 6483 0
-9644 6470 0
-9644 6489 0
-1596 6461 9641 9642 9643 9644 0
1596 -6461 0
1596 -9641 0
1596 -9642 0
1596 -9643 0
1596 -9644 0
9645 -6729 -6485 0
-9645 6729 0
-9645 6485 0
9646 -6724 -6473 0
-9646 6724 0
-9646 6473 0
9647 -6724 -6485 0
-9647 6724 0
-9647 6485 0
9648 -6729 -6473 -6489 0
-9648 6729 0
-9648 6473 0
-9648 6489 0
-1589 6720 9645 9646 9647 9648 0
1589 -6720 0
1589 -9645 0
1589 -9646 0
1589 -9647 0
1589 -9648 0
9649 -6729 -6487 0
-9649 6729 0
-9649 6487 0
9650 -6724 -6483 0
-9650 6724 0
-9650 6483 0
9651 -6724 -6487 0
-9651 6724 0
-9651 6487 0
9652 -6729 -6483 -6489 0
-9652 6729 0
-9652 6483 0
-9652 6489 0
-1598 6714 9649 9650 9651 9652 0
1598 -6714 0
1598 -9649 0
1598 -9650 0
1598 -9651 0
1598 -9652 0
9653 -6729 -6724 0
-9653 6729 0
-9653 6724 0
6766 -6724 -6724 0
-6766 6724 0
-6766 6724 0
9654 -6724 -6729 0
-9654 6724 0
-9654 6729 0
9655 -6729 -6729 -6489 0
-9655 6729 0
-9655 6729 0
-9655 6489 0
-1601 6707 9653 6766 9654 9655 0
1601 -6707 0
1601 -9653 0
1601 -6766 0
1601 -9654 0
1601 -9655 0
9656 -9282 -9282 0
-9656 9282 0
-9656 9282 0
-2018 9288 9656 0
2018 -9288 0
2018 -9656 0
9657 -9282 -9293 0
-9657 9282 0
-9657 9293 0
-2014 9295 9657 0
2014 -9295 0
2014 -9657 0
9658 -9282 -9299 0
-9658 9282 0
-9658 9299 0
-2038 9302 9658 0
2038 -9302 0
2038 -9658 0
9659 -9304 -9299 0
-9659 9304 0
-9659 9299 0
-2036 9309 9659 0
2036 -9309 0
2036 -9659 0
9660 -9282 -9314 0
-9660 9282 0
-9660 9314 0
-2022 9316 9660 0
2022 -9316 0
2022 -9660 0
9661 -9282 -9320 0
-9661 9282 0
-9661 9320 0
-2029 9323 9661 0
2029 -9323 0
2029 -9661 0
9662 -9304 -9320 0
-9662 9304 0
-9662 9320 0
-2031 9328 9662 0
2031 -9328 0
2031 -9662 0
9663 -9293 -9304 0
-9663 9293 0
-9663 9304 0
-2013 9333 9663 0
2013 -9333 0
2013 -9663 0
9664 -9293 -9293 0
-9664 9293 0
-9664 9293 0
-2020 9338 9664 0
2020 -9338 0
2020 -9664 0
9665 -9293 -9314 0
-9665 9293 0
-9665 9314 0
-2027 9343 9665 0
2027 -9343 0
2027 -9665 0
9666 -9293 -9320 0
-9666 9293 0
-9666 9320 0
-2034 9348 9666 0
2034 -9348 0
2034 -9666 0
9667 -9299 -9320 0
-9667 9299 0
-9667 9320 0
-2041 9353 9667 0
2041 -9353 0
2041 -9667 0
9668 -9314 -9304 0
-9668 9314 0
-9668 9304 0
-2025 9358 9668 0
2025 -9358 0
2025 -9668 0
9669 -9314 -9299 0
-9669 9314 0
-9669 9299 0
-2046 9363 9669 0
2046 -9363 0
2046 -9669 0
9670 -9314 -9314 0
-9670 9314 0
-9670 9314 0
-2052 9368 9670 0
2052 -9368 0
2052 -9670 0
9671 -6935 -6935 0
-9671 6935 0
-9671 6935 0
-1795 6900 9671 0
1795 -6900 0
1795 -9671 0
9672 -6935 -6930 0
-9672 6935 0
-9672 6930 0
-1789 6895 9672 0
1789 -6895 0
1789 -9672 0
9673 -6935 -6932 0
-9673 6935 0
-9673 6932 0
-1788 6894 9673 0
1788 -6894 0
1788 -9673 0
9674 -6940 -6932 0
-9674 6940 0
-9674 6932 0
-1811 6916 9674 0
1811 -6916 0
1811 -9674 0
9675 -6935 -6960 0
-9675 6935 0
-9675 6960 0
-1802 6907 9675 0
1802 -6907 0
1802 -9675 0
9676 -6935 -6965 0
-9676 6935 0
-9676 6965 0
-1809 6914 9676 0
1809 -6914 0
1809 -9676 0
9677 -6940 -6965 0
-9677 6940 0
-9677 6965 0
-1816 6921 9677 0
1816 -6921 0
1816 -9677 0
9678 -6930 -6940 0
-9678 6930 0
-9678 6940 0
-1813 6918 9678 0
1813 -6918 0
1813 -9678 0
9679 -6930 -6930 0
-9679 6930 0
-9679 6930 0
-1793 6899 9679 0
1793 -6899 0
1793 -9679 0
9680 -6930 -6960 0
-9680 6930 0
-9680 6960 0
-1797 6902 9680 0
1797 -6902 0
1797 -9680 0
9681 -6930 -6965 0
-9681 6930 0
-9681 6965 0
-1804 6909 9681 0
1804 -6909 0
1804 -9681 0
9682 -6932 -6965 0
-9682 6932 0
-9682 6965 0
-1806 6911 9682 0
1806 -6911 0
1806 -9682 0
9683 -6960 -6940 0
-9683 6960 0
-9683 6940 0
-1821 6945 9683 0
1821 -6945 0
1821 -9683 0
9684 -6960 -6932 0
-9684 6960 0
-9684 6932 0
-1800 6905 9684 0
1800 -6905 0
1800 -9684 0
9685 -6960 -6960 0
-9685 6960 0
-9685 6960 0
-1827 6950 9685 0
1827 -6950 0
1827 -9685 0
9686 -9687 -9687 0
-9686 9687 0
-9686 9687 0
-1608 9688 9686 0
1608 -9688 0
1608 -9686 0
9689 -9687 -9690 0
-9689 9687 0
-9689 9690 0
-1604 9691 9689 0
1604 -9691 0
1604 -9689 0
9692 -9687 -9693 0
-9692 9687 0
-9692 9693 0
-1628 9694 9692 0
1628 -9694 0
1628 -9692 0
9695 -9696 -9693 0
-9695 9696 0
-9695 9693 0
-1626 9697 9695 0
1626 -9697 0
1626 -9695 0
9698 -9687 -9699 0
-9698 9687 0
-9698 9699 0
-1612 9700 9698 0
1612 -9700 0
1612 -9698 0
9701 -9687 -9702 0
-9701 9687 0
-9701 9702 0
-1619 9703 9701 0
1619 -9703 0
1619 -9701 0
9704 -9696 -9702 0
-9704 9696 0
-9704 9702 0
-1621 9705 9704 0
1621 -9705 0
1621 -9704 0
9706 -9690 -9696 0
-9706 9690 0
-9706 9696 0
-1603 9707 9706 0
1603 -9707 0
1603 -9706 0
9708 -9690 -9690 0
-9708 9690 0
-9708 9690 0
-1610 9709 9708 0
1610 -9709 0
1610 -9708 0
9710 -9690 -9699 0
-9710 9690 0
-9710 9699 0
-1617 9711 9710 0
1617 -9711 0
1617 -9710 0
9712 -9690 -9702 0
-9712 9690 0
-9712 9702 0
-1624 9713 9712 0
1624 -9713 0
1624 -9712 0
9714 -9693 -9702 0
-9714 9693 0
-9714 9702 0
-1631 9715 9714 0
1631 -9715 0
1631 -9714 0
9716 -9699 -9696 0
-9716 9699 0
-9716 9696 0
-1615 9717 9716 0
1615 -9717 0
1615 -9716 0
9718 -9699 -9693 0
-9718 9699 0
-9718 9693 0
-1636 9719 9718 0
1636 -9719 0
1636 -9718 0
9720 -9699 -9699 0
-9720 9699 0
-9720 9699 0
-1642 9721 9720 0
1642 -9721 0
1642 -9720 0
9722 -6462 -6462 0
-9722 6462 0
-9722 6462 0
-6157 6456 9722 0
6157 -6456 0
6157 -9722 0
9723 -6462 -6714 0
-9723 6462 0
-9723 6714 0
-6153 6703 9723 0
6153 -6703 0
6153 -9723 0
9724 -6462 -6461 0
-9724 6462 0
-9724 6461 0
-6171 6455 9724 0
6171 -6455 0
6171 -9724 0
9725 -6465 -6461 0
-9725 6465 0
-9725 6461 0
-5035 6464 9725 0
5035 -6464 0
5035 -9725 0
9726 -6462 -6487 0
-9726 6462 0
-9726 6487 0
-6160 6468 9726 0
6160 -6468 0
6160 -9726 0
9727 -6462 -6483 0
-9727 6462 0
-9727 6483 0
-6165 6471 9727 0
6165 -6471 0
6165 -9727 0
9728 -6465 -6483 0
-9728 6465 0
-9728 6483 0
-5032 6473 9728 0
5032 -6473 0
5032 -9728 0
9729 -6714 -6465 0
-9729 6714 0
-9729 6465 0
-5025 6720 9729 0
5025 -6720 0
5025 -9729 0
9730 -6714 -6714 0
-9730 6714 0
-9730 6714 0
-5027 6707 9730 0
5027 -6707 0
5027 -9730 0
9731 -6714 -6487 0
-9731 6714 0
-9731 6487 0
-5030 6724 9731 0
5030 -6724 0
5030 -9731 0
9732 -6714 -6483 0
-9732 6714 0
-9732 6483 0
-5033 6729 9732 0
5033 -6729 0
5033 -9732 0
9733 -6461 -6483 0
-9733 6461 0
-9733 6483 0
-5036 6470 9733 0
5036 -6470 0
5036 -9733 0
9734 -6487 -6465 0
-9734 6487 0
-9734 6465 0
-5029 6485 9734 0
5029 -6485 0
5029 -9734 0
9735 -6487 -6461 0
-9735 6487 0
-9735 6461 0
-5038 6467 9735 0
5038 -6467 0
5038 -9735 0
9736 -6487 -6487 0
-9736 6487 0
-9736 6487 0
-5041 6489 9736 0
5041 -6489 0
5041 -9736 0
9737 -7090 -7083 0
-9737 7090 0
-9737 7083 0
9738 -7083 -7083 0
-9738 7083 0
-9738 7083 0
9739 -7083 -7090 0
-9739 7083 0
-9739 7090 0
9740 -7090 -7090 -7126 0
-9740 7090 0
-9740 7090 0
-9740 7126 0
-2466 7076 9737 9738 9739 9740 0
2466 -7076 0
2466 -9737 0
2466 -9738 0
2466 -9739 0
2466 -9740 0
9741 -7090 -7078 0
-9741 7090 0
-9741 7078 0
9742 -7083 -7078 0
-9742 7083 0
-9742 7078 0
9743 -7083 -7085 0
-9743 7083 0
-9743 7085 0
9744 -7090 -7085 -7126 0
-9744 7090 0
-9744 7085 0
-9744 7126 0
-2462 7071 9741 9742 9743 9744 0
2462 -7071 0
2462 -9741 0
2462 -9742 0
2462 -9743 0
2462 -9744 0
9745 -7090 -7081 0
-9745 7090 0
-9745 7081 0
9746 -7083 -7087 0
-9746 7083 0
-9746 7087 0
9747 -7083 -7081 0
-9747 7083 0
-9747 7081 0
9748 -7090 -7087 -7126 0
-9748 7090 0
-9748 7087 0
-9748 7126 0
-2486 7070 9745 9746 9747 9748 0
2486 -7070 0
2486 -9745 0
2486 -9746 0
2486 -9747 0
2486 -9748 0
9749 -7097 -7081 0
-9749 7097 0
-9749 7081 0
9750 -7121 -7081 0
-9750 7121 0
-9750 7081 0
9751 -7121 -7087 0
-9751 7121 0
-9751 7087 0
9752 -7097 -7087 -7126 0
-9752 7097 0
-9752 7087 0
-9752 7126 0
-2484 7092 9749 9750 9751 9752 0
2484 -7092 0
2484 -9749 0
2484 -9750 0
2484 -9751 0
2484 -9752 0
9753 -7090 -7131 0
-9753 7090 0
-9753 7131 0
9754 -7083 -7131 0
-9754 7083 0
-9754 7131 0
9755 -7083 -7151 0
-9755 7083 0
-9755 7151 0
9756 -7090 -7151 -7126 0
-9756 7090 0
-9756 7151 0
-9756 7126 0
-2470 7104 9753 9754 9755 9756 0
2470 -7104 0
2470 -9753 0
2470 -9754 0
2470 -9755 0
2470 -9756 0
9757 -7090 -7136 0
-9757 7090 0
-9757 7136 0
9758 -7083 -7141 0
-9758 7083 0
-9758 7141 0
9759 -7083 -7136 0
-9759 7083 0
-9759 7136 0
9760 -7090 -7141 -7126 0
-9760 7090 0
-9760 7141 0
-9760 7126 0
-2477 7111 9757 9758 9759 9760 0
2477 -7111 0
2477 -9757 0
2477 -9758 0
2477 -9759 0
2477 -9760 0
9761 -7097 -7136 0
-9761 7097 0
-9761 7136 0
9762 -7121 -7136 0
-9762 7121 0
-9762 7136 0
9763 -7121 -7141 0
-9763 7121 0
-9763 7141 0
9764 -7097 -7141 -7126 0
-9764 7097 0
-9764 7141 0
-9764 7126 0
-2479 7116 9761 9762 9763 9764 0
2479 -7116 0
2479 -9761 0
2479 -9762 0
2479 -9763 0
2479 -9764 0
9765 -7085 -7121 0
-9765 7085 0
-9765 7121 0
9766 -7078 -7097 0
-9766 7078 0
-9766 7097 0
9767 -7078 -7121 0
-9767 7078 0
-9767 7121 0
9768 -7085 -7097 -7126 0
-9768 7085 0
-9768 7097 0
-9768 7126 0
-2461 7094 9765 9766 9767 9768 0
2461 -7094 0
2461 -9765 0
2461 -9766 0
2461 -9767 0
2461 -9768 0
9769 -7085 -7078 0
-9769 7085 0
-9769 7078 0
7123 -7078 -7078 0
-7123 7078 0
-7123 7078 0
9770 -7078 -7085 0
-9770 7078 0
-9770 7085 0
9771 -7085 -7085 -7126 0
-9771 7085 0
-9771 7085 0
-9771 7126 0
-2468 7075 9769 7123 9770 9771 0
2468 -7075 0
2468 -9769 0
2468 -7123 0
2468 -9770 0
2468 -9771 0
9772 -7085 -7131 0
-9772 7085 0
-9772 7131 0
9773 -7078 -7131 0
-9773 7078 0
-9773 7131 0
9774 -7078 -7151 0
-9774 7078 0
-9774 7151 0
9775 -7085 -7151 -7126 0
-9775 7085 0
-9775 7151 0
-9775 7126 0
-2475 7099 9772 9773 9774 9775 0
2475 -7099 0
2475 -9772 0
2475 -9773 0
2475 -9774 0
2475 -9775 0
9776 -7085 -7136 0
-9776 7085 0
-9776 7136 0
9777 -7078 -7141 0
-9777 7078 0
-9777 7141 0
9778 -7078 -7136 0
-9778 7078 0
-9778 7136 0
9779 -7085 -7141 -7126 0
-9779 7085 0
-9779 7141 0
-9779 7126 0
-2482 7106 9776 9777 9778 9779 0
2482 -7106 0
2482 -9776 0
2482 -9777 0
2482 -9778 0
2482 -9779 0
9780 -7087 -7136 0
-9780 7087 0
-9780 7136 0
9781 -7081 -7136 0
-9781 7081 0
-9781 7136 0
9782 -7081 -7141 0
-9782 7081 0
-9782 7141 0
9783 -7087 -7141 -7126 0
-9783 7087 0
-9783 7141 0
-9783 7126 0
-2489 7108 9780 9781 9782 9783 0
2489 -7108 0
2489 -9780 0
2489 -9781 0
2489 -9782 0
2489 -9783 0
9784 -7151 -7121 0
-9784 7151 0
-9784 7121 0
9785 -7131 -7097 0
-9785 7131 0
-9785 7097 0
9786 -7131 -7121 0
-9786 7131 0
-9786 7121 0
9787 -7151 -7097 -7126 0
-9787 7151 0
-9787 7097 0
-9787 7126 0
-2473 7146 9784 9785 9786 9787 0
2473 -7146 0
2473 -9784 0
2473 -9785 0
2473 -9786 0
2473 -9787 0
9788 -7151 -7081 0
-9788 7151 0
-9788 7081 0
9789 -7131 -7087 0
-9789 7131 0
-9789 7087 0
9790 -7131 -7081 0
-9790 7131 0
-9790 7081 0
9791 -7151 -7087 -7126 0
-9791 7151 0
-9791 7087 0
-9791 7126 0
-2494 7102 9788 9789 9790 9791 0
2494 -7102 0
2494 -9788 0
2494 -9789 0
2494 -9790 0
2494 -9791 0
9792 -7151 -7131 0
-9792 7151 0
-9792 7131 0
9793 -7131 -7131 0
-9793 7131 0
-9793 7131 0
9794 -7131 -7151 0
-9794 7131 0
-9794 7151 0
9795 -7151 -7151 -7126 0
-9795 7151 0
-9795 7151 0
-9795 7126 0
-2500 7156 9792 9793 9794 9795 0
2500 -7156 0
2500 -9792 0
2500 -9793 0
2500 -9794 0
2500 -9795 0
9796 -6914 -6907 0
-9796 6914 0
-9796 6907 0
9797 -6907 -6907 0
-9797 6907 0
-9797 6907 0
9798 -6907 -6914 0
-9798 6907 0
-9798 6914 0
9799 -6914 -6914 -6950 0
-9799 6914 0
-9799 6914 0
-9799 6950 0
-5140 6900 9796 9797 9798 9799 0
5140 -6900 0
5140 -9796 0
5140 -9797 0
5140 -9798 0
5140 -9799 0
9800 -6914 -6902 0
-9800 6914 0
-9800 6902 0
9801 -6907 -6902 0
-9801 6907 0
-9801 6902 0
9802 -6907 -6909 0
-9802 6907 0
-9802 6909 0
9803 -6914 -6909 -6950 0
-9803 6914 0
-9803 6909 0
-9803 6950 0
-5135 6895 9800 9801 9802 9803 0
5135 -6895 0
5135 -9800 0
5135 -9801 0
5135 -9802 0
5135 -9803 0
9804 -6914 -6905 0
-9804 6914 0
-9804 6905 0
9805 -6907 -6911 0
-9805 6907 0
-9805 6911 0
9806 -6907 -6905 0
-9806 6907 0
-9806 6905 0
9807 -6914 -6911 -6950 0
-9807 6914 0
-9807 6911 0
-9807 6950 0
-5134 6894 9804 9805 9806 9807 0
5134 -6894 0
5134 -9804 0
5134 -9805 0
5134 -9806 0
5134 -9807 0
9808 -6921 -6905 0
-9808 6921 0
-9808 6905 0
9809 -6945 -6905 0
-9809 6945 0
-9809 6905 0
9810 -6945 -6911 0
-9810 6945 0
-9810 6911 0
9811 -6921 -6911 -6950 0
-9811 6921 0
-9811 6911 0
-9811 6950 0
-4175 6916 9808 9809 9810 9811 0
4175 -6916 0
4175 -9808 0
4175 -9809 0
4175 -9810 0
4175 -9811 0
9812 -6914 -6955 0
-9812 6914 0
-9812 6955 0
9813 -6907 -6955 0
-9813 6907 0
-9813 6955 0
9814 -6907 -6975 0
-9814 6907 0
-9814 6975 0
9815 -6914 -6975 -6950 0
-9815 6914 0
-9815 6975 0
-9815 6950 0
-5145 6928 9812 9813 9814 9815 0
5145 -6928 0
5145 -9812 0
5145 -9813 0
5145 -9814 0
5145 -9815 0
9816 -6914 -6960 0
-9816 6914 0
-9816 6960 0
9817 -6907 -6965 0
-9817 6907 0
-9817 6965 0
9818 -6907 -6960 0
-9818 6907 0
-9818 6960 0
9819 -6914 -6965 -6950 0
-9819 6914 0
-9819 6965 0
-9819 6950 0
-5150 6935 9816 9817 9818 9819 0
5150 -6935 0
5150 -9816 0
5150 -9817 0
5150 -9818 0
5150 -9819 0
9820 -6921 -6960 0
-9820 6921 0
-9820 6960 0
9821 -6945 -6960 0
-9821 6945 0
-9821 6960 0
9822 -6945 -6965 0
-9822 6945 0
-9822 6965 0
9823 -6921 -6965 -6950 0
-9823 6921 0
-9823 6965 0
-9823 6950 0
-4172 6940 9820 9821 9822 9823 0
4172 -6940 0
4172 -9820 0
4172 -9821 0
4172 -9822 0
4172 -9823 0
9824 -6909 -6945 0
-9824 6909 0
-9824 6945 0
9825 -6902 -6921 0
-9825 6902 0
-9825 6921 0
9826 -6902 -6945 0
-9826 6902 0
-9826 6945 0
9827 -6909 -6921 -6950 0
-9827 6909 0
-9827 6921 0
-9827 6950 0
-4165 6918 9824 9825 9826 9827 0
4165 -6918 0
4165 -9824 0
4165 -9825 0
4165 -9826 0
4165 -9827 0
9828 -6909 -6902 0
-9828 6909 0
-9828 6902 0
6947 -6902 -6902 0
-6947 6902 0
-6947 6902 0
9829 -6902 -6909 0
-9829 6902 0
-9829 6909 0
9830 -6909 -6909 -6950 0
-9830 6909 0
-9830 6909 0
-9830 6950 0
-4167 6899 9828 6947 9829 9830 0
4167 -6899 0
4167 -9828 0
4167 -6947 0
4167 -9829 0
4167 -9830 0
9831 -6909 -6955 0
-9831 6909 0
-9831 6955 0
9832 -6902 -6955 0
-9832 6902 0
-9832 6955 0
9833 -6902 -6975 0
-9833 6902 0
-9833 6975 0
9834 -6909 -6975 -6950 0
-9834 6909 0
-9834 6975 0
-9834 6950 0
-4170 6923 9831 9832 9833 9834 0
4170 -6923 0
4170 -9831 0
4170 -9832 0
4170 -9833 0
4170 -9834 0
9835 -6909 -6960 0
-9835 6909 0
-9835 6960 0
9836 -6902 -6965 0
-9836 6902 0
-9836 6965 0
9837 -6902 -6960 0
-9837 6902 0
-9837 6960 0
9838 -6909 -6965 -6950 0
-9838 6909 0
-9838 6965 0
-9838 6950 0
-4173 6930 9835 9836 9837 9838 0
4173 -6930 0
4173 -9835 0
4173 -9836 0
4173 -9837 0
4173 -9838 0
9839 -6911 -6960 0
-9839 6911 0
-9839 6960 0
9840 -6905 -6960 0
-9840 6905 0
-9840 6960 0
9841 -6905 -6965 0
-9841 6905 0
-9841 6965 0
9842 -6911 -6965 -6950 0
-9842 6911 0
-9842 6965 0
-9842 6950 0
-4176 6932 9839 9840 9841 9842 0
4176 -6932 0
4176 -9839 0
4176 -9840 0
4176 -9841 0
4176 -9842 0
9843 -6975 -6945 0
-9843 6975 0
-9843 6945 0
9844 -6955 -6921 0
-9844 6955 0
-9844 6921 0
9845 -6955 -6945 0
-9845 6955 0
-9845 6945 0
9846 -6975 -6921 -6950 0
-9846 6975 0
-9846 6921 0
-9846 6950 0
-4169 6970 9843 9844 9845 9846 0
4169 -6970 0
4169 -9843 0
4169 -9844 0
4169 -9845 0
4169 -9846 0
9847 -6975 -6905 0
-9847 6975 0
-9847 6905 0
9848 -6955 -6911 0
-9848 6955 0
-9848 6911 0
9849 -6955 -6905 0
-9849 6955 0
-9849 6905 0
9850 -6975 -6911 -6950 0
-9850 6975 0
-9850 6911 0
-9850 6950 0
-4178 6926 9847 9848 9849 9850 0
4178 -6926 0
4178 -9847 0
4178 -9848 0
4178 -9849 0
4178 -9850 0
9851 -6975 -6955 0
-9851 6975 0
-9851 6955 0
7682 -6955 -6955 0
-7682 6955 0
-7682 6955 0
9852 -6955 -6975 0
-9852 6955 0
-9852 6975 0
9853 -6975 -6975 -6950 0
-9853 6975 0
-9853 6975 0
-9853 6950 0
-4181 6980 9851 7682 9852 9853 0
4181 -6980 0
4181 -9851 0
4181 -7682 0
4181 -9852 0
4181 -9853 0
9854 -8875 -8872 0
-9854 8875 0
-9854 8872 0
9855 -8872 -8872 0
-9855 8872 0
-9855 8872 0
9856 -8872 -8875 0
-9856 8872 0
-9856 8875 0
9857 -8875 -8875 -8893 0
-9857 8875 0
-9857 8875 0
-9857 8893 0
-2259 8860 9854 9855 9856 9857 0
2259 -8860 0
2259 -9854 0
2259 -9855 0
2259 -9856 0
2259 -9857 0
9858 -8875 -8883 0
-9858 8875 0
-9858 8883 0
9859 -8872 -8883 0
-9859 8872 0
-9859 8883 0
9860 -8872 -8885 0
-9860 8872 0
-9860 8885 0
9861 -8875 -8885 -8893 0
-9861 8875 0
-9861 8885 0
-9861 8893 0
-2253 8863 9858 9859 9860 9861 0
2253 -8863 0
2253 -9858 0
2253 -9859 0
2253 -9860 0
2253 -9861 0
9862 -8875 -8891 0
-9862 8875 0
-9862 8891 0
9863 -8872 -8887 0
-9863 8872 0
-9863 8887 0
9864 -8872 -8891 0
-9864 8872 0
-9864 8891 0
9865 -8875 -8887 -8893 0
-9865 8875 0
-9865 8887 0
-9865 8893 0
-2252 8866 9862 9863 9864 9865 0
2252 -8866 0
2252 -9862 0
2252 -9863 0
2252 -9864 0
2252 -9865 0
9866 -8877 -8891 0
-9866 8877 0
-9866 8891 0
9867 -8889 -8891 0
-9867 8889 0
-9867 8891 0
9868 -8889 -8887 0
-9868 8889 0
-9868 8887 0
9869 -8877 -8887 -8893 0
-9869 8877 0
-9869 8887 0
-9869 8893 0
-2275 8869 9866 9867 9868 9869 0
2275 -8869 0
2275 -9866 0
2275 -9867 0
2275 -9868 0
2275 -9869 0
9870 -8875 -8990 0
-9870 8875 0
-9870 8990 0
9871 -8872 -8990 0
-9871 8872 0
-9871 8990 0
9872 -8872 -8995 0
-9872 8872 0
-9872 8995 0
9873 -8875 -8995 -8893 0
-9873 8875 0
-9873 8995 0
-9873 8893 0
-2266 8969 9870 9871 9872 9873 0
2266 -8969 0
2266 -9870 0
2266 -9871 0
2266 -9872 0
2266 -9873 0
9874 -8875 -8871 0
-9874 8875 0
-9874 8871 0
9875 -8872 -8874 0
-9875 8872 0
-9875 8874 0
9876 -8872 -8871 0
-9876 8872 0
-9876 8871 0
9877 -8875 -8874 -8893 0
-9877 8875 0
-9877 8874 0
-9877 8893 0
-2273 8859 9874 9875 9876 9877 0
2273 -8859 0
2273 -9874 0
2273 -9875 0
2273 -9876 0
2273 -9877 0
9878 -8877 -8871 0
-9878 8877 0
-9878 8871 0
9879 -8889 -8871 0
-9879 8889 0
-9879 8871 0
9880 -8889 -8874 0
-9880 8889 0
-9880 8874 0
9881 -8877 -8874 -8893 0
-9881 8877 0
-9881 8874 0
-9881 8893 0
-2280 8868 9878 9879 9880 9881 0
2280 -8868 0
2280 -9878 0
2280 -9879 0
2280 -9880 0
2280 -9881 0
9882 -8885 -8889 0
-9882 8885 0
-9882 8889 0
9883 -8883 -8877 0
-9883 8883 0
-9883 8877 0
9884 -8883 -8889 0
-9884 8883 0
-9884 8889 0
9885 -8885 -8877 -8893 0
-9885 8885 0
-9885 8877 0
-9885 8893 0
-2277 8879 9882 9883 9884 9885 0
2277 -8879 0
2277 -9882 0
2277 -9883 0
2277 -9884 0
2277 -9885 0
9886 -8885 -8883 0
-9886 8885 0
-9886 8883 0
9402 -8883 -8883 0
-9402 8883 0
-9402 8883 0
9887 -8883 -8885 0
-9887 8883 0
-9887 8885 0
9888 -8885 -8885 -8893 0
-9888 8885 0
-9888 8885 0
-9888 8893 0
-2257 8881 9886 9402 9887 9888 0
2257 -8881 0
2257 -9886 0
2257 -9402 0
2257 -9887 0
2257 -9888 0
9889 -8885 -8990 0
-9889 8885 0
-9889 8990 0
9890 -8883 -8990 0
-9890 8883 0
-9890 8990 0
9891 -8883 -8995 0
-9891 8883 0
-9891 8995 0
9892 -8885 -8995 -8893 0
-9892 8885 0
-9892 8995 0
-9892 8893 0
-2261 8975 9889 9890 9891 9892 0
2261 -8975 0
2261 -9889 0
2261 -9890 0
2261 -9891 0
2261 -9892 0
9893 -8885 -8871 0
-9893 8885 0
-9893 8871 0
9894 -8883 -8874 0
-9894 8883 0
-9894 8874 0
9895 -8883 -8871 0
-9895 8883 0
-9895 8871 0
9896 -8885 -8874 -8893 0
-9896 8885 0
-9896 8874 0
-9896 8893 0
-2268 8862 9893 9894 9895 9896 0
2268 -8862 0
2268 -9893 0
2268 -9894 0
2268 -9895 0
2268 -9896 0
9897 -8887 -8871 0
-9897 8887 0
-9897 8871 0
9898 -8891 -8871 0
-9898 8891 0
-9898 8871 0
9899 -8891 -8874 0
-9899 8891 0
-9899 8874 0
9900 -8887 -8874 -8893 0
-9900 8887 0
-9900 8874 0
-9900 8893 0
-2270 8865 9897 9898 9899 9900 0
2270 -8865 0
2270 -9897 0
2270 -9898 0
2270 -9899 0
2270 -9900 0
9901 -8995 -8889 0
-9901 8995 0
-9901 8889 0
9902 -8990 -8877 0
-9902 8990 0
-9902 8877 0
9903 -8990 -8889 0
-9903 8990 0
-9903 8889 0
9904 -8995 -8877 -8893 0
-9904 8995 0
-9904 8877 0
-9904 8893 0
-2285 8986 9901 9902 9903 9904 0
2285 -8986 0
2285 -9901 0
2285 -9902 0
2285 -9903 0
2285 -9904 0
9905 -8995 -8891 0
-9905 8995 0
-9905 8891 0
9906 -8990 -8887 0
-9906 8990 0
-9906 8887 0
9907 -8990 -8891 0
-9907 8990 0
-9907 8891 0
9908 -8995 -8887 -8893 0
-9908 8995 0
-9908 8887 0
-9908 8893 0
-2264 8980 9905 9906 9907 9908 0
2264 -8980 0
2264 -9905 0
2264 -9906 0
2264 -9907 0
2264 -9908 0
9909 -8995 -8990 0
-9909 8995 0
-9909 8990 0
9032 -8990 -8990 0
-9032 8990 0
-9032 8990 0
9910 -8990 -8995 0
-9910 8990 0
-9910 8995 0
9911 -8995 -8995 -8893 0
-9911 8995 0
-9911 8995 0
-9911 8893 0
-2291 8973 9909 9032 9910 9911 0
2291 -8973 0
2291 -9909 0
2291 -9032 0
2291 -9910 0
2291 -9911 0
9912 -9563 -9913 0
-9912 9563 0
-9912 9913 0
9914 -9913 -9913 0
-9914 9913 0
-9914 9913 0
9915 -9913 -9563 0
-9915 9913 0
-9915 9563 0
9916 -9563 -9563 -9917 0
-9916 9563 0
-9916 9563 0
-9916 9917 0
-6219 9564 9912 9914 9915 9916 0
6219 -9564 0
6219 -9912 0
6219 -9914 0
6219 -9915 0
6219 -9916 0
9918 -9563 -9919 0
-9918 9563 0
-9918 9919 0
9920 -9913 -9919 0
-9920 9913 0
-9920 9919 0
9921 -9913 -9566 0
-9921 9913 0
-9921 9566 0
9922 -9563 -9566 -9917 0
-9922 9563 0
-9922 9566 0
-9922 9917 0
-6215 9567 9918 9920 9921 9922 0
6215 -9567 0
6215 -9918 0
6215 -9920 0
6215 -9921 0
6215 -9922 0
9923 -9563 -9924 0
-9923 9563 0
-9923 9924 0
9925 -9913 -9569 0
-9925 9913 0
-9925 9569 0
9926 -9913 -9924 0
-9926 9913 0
-9926 9924 0
9927 -9563 -9569 -9917 0
-9927 9563 0
-9927 9569 0
-9927 9917 0
-6233 9570 9923 9925 9926 9927 0
6233 -9570 0
6233 -9923 0
6233 -9925 0
6233 -9926 0
6233 -9927 0
9928 -9572 -9924 0
-9928 9572 0
-9928 9924 0
9929 -9930 -9924 0
-9929 9930 0
-9929 9924 0
9931 -9930 -9569 0
-9931 9930 0
-9931 9569 0
9932 -9572 -9569 -9917 0
-9932 9572 0
-9932 9569 0
-9932 9917 0
-5953 9573 9928 9929 9931 9932 0
5953 -9573 0
5953 -9928 0
5953 -9929 0
5953 -9931 0
5953 -9932 0
9933 -9563 -9934 0
-9933 9563 0
-9933 9934 0
9935 -9913 -9934 0
-9935 9913 0
-9935 9934 0
9936 -9913 -9575 0
-9936 9913 0
-9936 9575 0
9937 -9563 -9575 -9917 0
-9937 9563 0
-9937 9575 0
-9937 9917 0
-6222 9576 9933 9935 9936 9937 0
6222 -9576 0
6222 -9933 0
6222 -9935 0
6222 -9936 0
6222 -9937 0
9938 -9563 -9939 0
-9938 9563 0
-9938 9939 0
9940 -9913 -9578 0
-9940 9913 0
-9940 9578 0
9941 -9913 -9939 0
-9941 9913 0
-9941 9939 0
9942 -9563 -9578 -9917 0
-9942 9563 0
-9942 9578 0
-9942 9917 0
-6227 9579 9938 9940 9941 9942 0
6227 -9579 0
6227 -9938 0
6227 -9940 0
6227 -9941 0
6227 -9942 0
9943 -9572 -9939 0
-9943 9572 0
-9943 9939 0
9944 -9930 -9939 0
-9944 9930 0
-9944 9939 0
9945 -9930 -9578 0
-9945 9930 0
-9945 9578 0
9946 -9572 -9578 -9917 0
-9946 9572 0
-9946 9578 0
-9946 9917 0
-5950 9581 9943 9944 9945 9946 0
5950 -9581 0
5950 -9943 0
5950 -9944 0
5950 -9945 0
5950 -9946 0
9947 -9566 -9930 0
-9947 9566 0
-9947 9930 0
9948 -9919 -9572 0
-9948 9919 0
-9948 9572 0
9949 -9919 -9930 0
-9949 9919 0
-9949 9930 0
9950 -9566 -9572 -9917 0
-9950 9566 0
-9950 9572 0
-9950 9917 0
-5943 9583 9947 9948 9949 9950 0
5943 -9583 0
5943 -9947 0
5943 -9948 0
5943 -9949 0
5943 -9950 0
9951 -9566 -9919 0
-9951 9566 0
-9951 9919 0
9952 -9919 -9919 0
-9952 9919 0
-9952 9919 0
9953 -9919 -9566 0
-9953 9919 0
-9953 9566 0
9954 -9566 -9566 -9917 0
-9954 9566 0
-9954 9566 0
-9954 9917 0
-5945 9585 9951 9952 9953 9954 0
5945 -9585 0
5945 -9951 0
5945 -9952 0
5945 -9953 0
5945 -9954 0
9955 -9566 -9934 0
-9955 9566 0
-9955 9934 0
9956 -9919 -9934 0
-9956 9919 0
-9956 9934 0
9957 -9919 -9575 0
-9957 9919 0
-9957 9575 0
9958 -9566 -9575 -9917 0
-9958 9566 0
-9958 9575 0
-9958 9917 0
-5948 9587 9955 9956 9957 9958 0
5948 -9587 0
5948 -9955 0
5948 -9956 0
5948 -9957 0
5948 -9958 0
9959 -9566 -9939 0
-9959 9566 0
-9959 9939 0
9960 -9919 -9578 0
-9960 9919 0
-9960 9578 0
9961 -9919 -9939 0
-9961 9919 0
-9961 9939 0
9962 -9566 -9578 -9917 0
-9962 9566 0
-9962 9578 0
-9962 9917 0
-5951 9589 9959 9960 9961 9962 0
5951 -9589 0
5951 -9959 0
5951 -9960 0
5951 -9961 0
5951 -9962 0
9963 -9569 -9939 0
-9963 9569 0
-9963 9939 0
9964 -9924 -9939 0
-9964 9924 0
-9964 9939 0
9965 -9924 -9578 0
-9965 9924 0
-9965 9578 0
9966 -9569 -9578 -9917 0
-9966 9569 0
-9966 9578 0
-9966 9917 0
-5954 9591 9963 9964 9965 9966 0
5954 -9591 0
5954 -9963 0
5954 -9964 0
5954 -9965 0
5954 -9966 0
9967 -9575 -9930 0
-9967 9575 0
-9967 9930 0
9968 -9934 -9572 0
-9968 9934 0
-9968 9572 0
9969 -9934 -9930 0
-9969 9934 0
-9969 9930 0
9970 -9575 -9572 -9917 0
-9970 9575 0
-9970 9572 0
-9970 9917 0
-5947 9593 9967 9968 9969 9970 0
5947 -9593 0
5947 -9967 0
5947 -9968 0
5947 -9969 0
5947 -9970 0
9971 -9575 -9924 0
-9971 9575 0
-9971 9924 0
9972 -9934 -9569 0
-9972 9934 0
-9972 9569 0
9973 -9934 -9924 0
-9973 9934 0
-9973 9924 0
9974 -9575 -9569 -9917 0
-9974 9575 0
-9974 9569 0
-9974 9917 0
-5956 9595 9971 9972 9973 9974 0
5956 -9595 0
5956 -9971 0
5956 -9972 0
5956 -9973 0
5956 -9974 0
9975 -9575 -9934 0
-9975 9575 0
-9975 9934 0
9976 -9934 -9934 0
-9976 9934 0
-9976 9934 0
9977 -9934 -9575 0
-9977 9934 0
-9977 9575 0
9978 -9575 -9575 -9917 0
-9978 9575 0
-9978 9575 0
-9978 9917 0
-5959 9597 9975 9976 9977 9978 0
5959 -9597 0
5959 -9975 0
5959 -9976 0
5959 -9977 0
5959 -9978 0
9979 -9687 -9980 0
-9979 9687 0
-9979 9980 0
9981 -9980 -9980 0
-9981 9980 0
-9981 9980 0
9982 -9980 -9687 0
-9982 9980 0
-9982 9687 0
9983 -9687 -9687 -9984 0
-9983 9687 0
-9983 9687 0
-9983 9984 0
-5395 9688 9979 9981 9982 9983 0
5395 -9688 0
5395 -9979 0
5395 -9981 0
5395 -9982 0
5395 -9983 0
9985 -9687 -9986 0
-9985 9687 0
-9985 9986 0
9987 -9980 -9986 0
-9987 9980 0
-9987 9986 0
9988 -9980 -9690 0
-9988 9980 0
-9988 9690 0
9989 -9687 -9690 -9984 0
-9989 9687 0
-9989 9690 0
-9989 9984 0
-5391 9691 9985 9987 9988 9989 0
5391 -9691 0
5391 -9985 0
5391 -9987 0
5391 -9988 0
5391 -9989 0
9990 -9687 -9991 0
-9990 9687 0
-9990 9991 0
9992 -9980 -9693 0
-9992 9980 0
-9992 9693 0
9993 -9980 -9991 0
-9993 9980 0
-9993 9991 0
9994 -9687 -9693 -9984 0
-9994 9687 0
-9994 9693 0
-9994 9984 0
-5409 9694 9990 9992 9993 9994 0
5409 -9694 0
5409 -9990 0
5409 -9992 0
5409 -9993 0
5409 -9994 0
9995 -9696 -9991 0
-9995 9696 0
-9995 9991 0
9996 -9997 -9991 0
-9996 9997 0
-9996 9991 0
9998 -9997 -9693 0
-9998 9997 0
-9998 9693 0
9999 -9696 -9693 -9984 0
-9999 9696 0
-9999 9693 0
-9999 9984 0
-1780 9697 9995 9996 9998 9999 0
1780 -9697 0
1780 -9995 0
1780 -9996 0
1780 -9998 0
1780 -9999 0
10000 -9687 -10001 0
-10000 9687 0
-10000 10001 0
10002 -9980 -10001 0
-10002 9980 0
-10002 10001 0
10003 -9980 -9699 0
-10003 9980 0
-10003 9699 0
10004 -9687 -9699 -9984 0
-10004 9687 0
-10004 9699 0
-10004 9984 0
-5398 9700 10000 10002 10003 10004 0
5398 -9700 0
5398 -10000 0
5398 -10002 0
5398 -10003 0
5398 -10004 0
10005 -9687 -10006 0
-10005 9687 0
-10005 10006 0
10007 -9980 -9702 0
-10007 9980 0
-10007 9702 0
10008 -9980 -10006 0
-10008 9980 0
-10008 10006 0
10009 -9687 -9702 -9984 0
-10009 9687 0
-10009 9702 0
-10009 9984 0
-5403 9703 10005 10007 10008 10009 0
5403 -9703 0
5403 -10005 0
5403 -10007 0
5403 -10008 0
5403 -10009 0
10010 -9696 -10006 0
-10010 9696 0
-10010 10006 0
10011 -9997 -10006 0
-10011 9997 0
-10011 10006 0
10012 -9997 -9702 0
-10012 9997 0
-10012 9702 0
10013 -9696 -9702 -9984 0
-10013 9696 0
-10013 9702 0
-10013 9984 0
-1777 9705 10010 10011 10012 10013 0
1777 -9705 0
1777 -10010 0
1777 -10011 0
1777 -10012 0
1777 -10013 0
10014 -9690 -9997 0
-10014 9690 0
-10014 9997 0
10015 -9986 -9696 0
-10015 9986 0
-10015 9696 0
10016 -9986 -9997 0
-10016 9986 0
-10016 9997 0
10017 -9690 -9696 -9984 0
-10017 9690 0
-10017 9696 0
-10017 9984 0
-1770 9707 10014 10015 10016 10017 0
1770 -9707 0
1770 -10014 0
1770 -10015 0
1770 -10016 0
1770 -10017 0
10018 -9690 -9986 0
-10018 9690 0
-10018 9986 0
10019 -9986 -9986 0
-10019 9986 0
-10019 9986 0
10020 -9986 -9690 0
-10020 9986 0
-10020 9690 0
10021 -9690 -9690 -9984 0
-10021 9690 0
-10021 9690 0
-10021 9984 0
-1772 9709 10018 10019 10020 10021 0
1772 -9709 0
1772 -10018 0
1772 -10019 0
1772 -10020 0
1772 -10021 0
10022 -9690 -10001 0
-10022 9690 0
-10022 10001 0
10023 -9986 -10001 0
-10023 9986 0
-10023 10001 0
10024 -9986 -9699 0
-10024 9986 0
-10024 9699 0
10025 -9690 -9699 -9984 0
-10025 9690 0
-10025 9699 0
-10025 9984 0
-1775 9711 10022 10023 10024 10025 0
1775 -9711 0
1775 -10022 0
1775 -10023 0
1775 -10024 0
1775 -10025 0
10026 -9690 -10006 0
-10026 9690 0
-10026 10006 0
10027 -9986 -9702 0
-10027 9986 0
-10027 9702 0
10028 -9986 -10006 0
-10028 9986 0
-10028 10006 0
10029 -9690 -9702 -9984 0
-10029 9690 0
-10029 9702 0
-10029 9984 0
-1778 9713 10026 10027 10028 10029 0
1778 -9713 0
1778 -10026 0
1778 -10027 0
1778 -10028 0
1778 -10029 0
10030 -9693 -10006 0
-10030 9693 0
-10030 10006 0
10031 -9991 -10006 0
-10031 9991 0
-10031 10006 0
10032 -9991 -9702 0
-10032 9991 0
-10032 9702 0
10033 -9693 -9702 -9984 0
-10033 9693 0
-10033 9702 0
-10033 9984 0
-1781 9715 10030 10031 10032 10033 0
1781 -9715 0
1781 -10030 0
1781 -10031 0
1781 -10032 0
1781 -10033 0
10034 -9699 -9997 0
-10034 9699 0
-10034 9997 0
10035 -10001 -9696 0
-10035 10001 0
-10035 9696 0
10036 -10001 -9997 0
-10036 10001 0
-10036 9997 0
10037 -9699 -9696 -9984 0
-10037 9699 0
-10037 9696 0
-10037 9984 0
-1774 9717 10034 10035 10036 10037 0
1774 -9717 0
1774 -10034 0
1774 -10035 0
1774 -10036 0
1774 -10037 0
10038 -9699 -9991 0
-10038 9699 0
-10038 9991 0
10039 -10001 -9693 0
-10039 10001 0
-10039 9693 0
10040 -10001 -9991 0
-10040 10001 0
-10040 9991 0
10041 -9699 -9693 -9984 0
-10041 9699 0
-10041 9693 0
-10041 9984 0
-1783 9719 10038 10039 10040 10041 0
1783 -9719 0
1783 -10038 0
1783 -10039 0
1783 -10040 0
1783 -10041 0
10042 -9699 -10001 0
-10042 9699 0
-10042 10001 0
10043 -10001 -10001 0
-10043 10001 0
-10043 10001 0
10044 -10001 -9699 0
-10044 10001 0
-10044 9699 0
10045 -9699 -9699 -9984 0
-10045 9699 0
-10045 9699 0
-10045 9984 0
-1786 9721 10042 10043 10044 10045 0
1786 -9721 0
1786 -10042 0
1786 -10043 0
1786 -10044 0
1786 -10045 0
10046 -6790 -6790 0
-10046 6790 0
-10046 6790 0
-1831 6776 10046 0
1831 -6776 0
1831 -10046 0
10047 -6790 -6785 0
-10047 6790 0
-10047 6785 0
-6030 6771 10047 0
6030 -6771 0
6030 -10047 0
10048 -6790 -6787 0
-10048 6790 0
-10048 6787 0
-1829 6770 10048 0
1829 -6770 0
1829 -10048 0
10049 -6797 -6787 0
-10049 6797 0
-10049 6787 0
-1839 6792 10049 0
1839 -6792 0
1839 -10049 0
10050 -6790 -6851 0
-10050 6790 0
-10050 6851 0
-1834 6804 10050 0
1834 -6804 0
1834 -10050 0
10051 -6790 -6841 0
-10051 6790 0
-10051 6841 0
-1837 6811 10051 0
1837 -6811 0
1837 -10051 0
10052 -6797 -6841 0
-10052 6797 0
-10052 6841 0
-1840 6816 10052 0
1840 -6816 0
1840 -10052 0
10053 -6785 -6797 0
-10053 6785 0
-10053 6797 0
-6018 6794 10053 0
6018 -6794 0
6018 -10053 0
10054 -6785 -6785 0
-10054 6785 0
-10054 6785 0
-6020 6775 10054 0
6020 -6775 0
6020 -10054 0
10055 -6785 -6851 0
-10055 6785 0
-10055 6851 0
-6022 6799 10055 0
6022 -6799 0
6022 -10055 0
10056 -6785 -6841 0
-10056 6785 0
-10056 6841 0
-6024 6806 10056 0
6024 -6806 0
6024 -10056 0
10057 -6787 -6841 0
-10057 6787 0
-10057 6841 0
-1836 6808 10057 0
1836 -6808 0
1836 -10057 0
10058 -6851 -6797 0
-10058 6851 0
-10058 6797 0
-1842 6846 10058 0
1842 -6846 0
1842 -10058 0
10059 -6851 -6787 0
-10059 6851 0
-10059 6787 0
-1833 6802 10059 0
1833 -6802 0
1833 -10059 0
10060 -6851 -6851 0
-10060 6851 0
-10060 6851 0
-1845 6856 10060 0
1845 -6856 0
1845 -10060 0
10061 -8875 -8875 0
-10061 8875 0
-10061 8875 0
-2712 8860 10061 0
2712 -8860 0
2712 -10061 0
10062 -8875 -8885 0
-10062 8875 0
-10062 8885 0
-2706 8863 10062 0
2706 -8863 0
2706 -10062 0
10063 -8875 -8887 0
-10063 8875 0
-10063 8887 0
-2705 8866 10063 0
2705 -8866 0
2705 -10063 0
10064 -8877 -8887 0
-10064 8877 0
-10064 8887 0
-2728 8869 10064 0
2728 -8869 0
2728 -10064 0
10065 -8875 -8995 0
-10065 8875 0
-10065 8995 0
-2719 8969 10065 0
2719 -8969 0
2719 -10065 0
10066 -8875 -8874 0
-10066 8875 0
-10066 8874 0
-2726 8859 10066 0
2726 -8859 0
2726 -10066 0
10067 -8877 -8874 0
-10067 8877 0
-10067 8874 0
-2733 8868 10067 0
2733 -8868 0
2733 -10067 0
10068 -8885 -8877 0
-10068 8885 0
-10068 8877 0
-2730 8879 10068 0
2730 -8879 0
2730 -10068 0
10069 -8885 -8885 0
-10069 8885 0
-10069 8885 0
-2710 8881 10069 0
2710 -8881 0
2710 -10069 0
10070 -8885 -8995 0
-10070 8885 0
-10070 8995 0
-2714 8975 10070 0
2714 -8975 0
2714 -10070 0
10071 -8885 -8874 0
-10071 8885 0
-10071 8874 0
-2721 8862 10071 0
2721 -8862 0
2721 -10071 0
10072 -8887 -8874 0
-10072 8887 0
-10072 8874 0
-2723 8865 10072 0
2723 -8865 0
2723 -10072 0
10073 -8995 -8877 0
-10073 8995 0
-10073 8877 0
-2738 8986 10073 0
2738 -8986 0
2738 -10073 0
10074 -8995 -8887 0
-10074 8995 0
-10074 8887 0
-2717 8980 10074 0
2717 -8980 0
2717 -10074 0
10075 -8995 -8995 0
-10075 8995 0
-10075 8995 0
-2744 8973 10075 0
2744 -8973 0
2744 -10075 0
10076 -6914 -6914 0
-10076 6914 0
-10076 6914 0
-2973 6900 10076 0
2973 -6900 0
2973 -10076 0
10077 -6914 -6909 0
-10077 6914 0
-10077 6909 0
-2967 6895 10077 0
2967 -6895 0
2967 -10077 0
10078 -6914 -6911 0
-10078 6914 0
-10078 6911 0
-2966 6894 10078 0
2966 -6894 0
2966 -10078 0
10079 -6921 -6911 0
-10079 6921 0
-10079 6911 0
-2989 6916 10079 0
2989 -6916 0
2989 -10079 0
10080 -6914 -6975 0
-10080 6914 0
-10080 6975 0
-2980 6928 10080 0
2980 -6928 0
2980 -10080 0
10081 -6914 -6965 0
-10081 6914 0
-10081 6965 0
-2987 6935 10081 0
2987 -6935 0
2987 -10081 0
10082 -6921 -6965 0
-10082 6921 0
-10082 6965 0
-2994 6940 10082 0
2994 -6940 0
2994 -10082 0
10083 -6909 -6921 0
-10083 6909 0
-10083 6921 0
-2991 6918 10083 0
2991 -6918 0
2991 -10083 0
10084 -6909 -6909 0
-10084 6909 0
-10084 6909 0
-2971 6899 10084 0
2971 -6899 0
2971 -10084 0
10085 -6909 -6975 0
-10085 6909 0
-10085 6975 0
-2975 6923 10085 0
2975 -6923 0
2975 -10085 0
10086 -6909 -6965 0
-10086 6909 0
-10086 6965 0
-2982 6930 10086 0
2982 -6930 0
2982 -10086 0
10087 -6911 -6965 0
-10087 6911 0
-10087 6965 0
-2984 6932 10087 0
2984 -6932 0
2984 -10087 0
10088 -6975 -6921 0
-10088 6975 0
-10088 6921 0
-2999 6970 10088 0
2999 -6970 0
2999 -10088 0
10089 -6975 -6911 0
-10089 6975 0
-10089 6911 0
-2978 6926 10089 0
2978 -6926 0
2978 -10089 0
10090 -6975 -6975 0
-10090 6975 0
-10090 6975 0
-3005 6980 10090 0
3005 -6980 0
3005 -10090 0
10091 -7070 -7070 0
-10091 7070 0
-10091 7070 0
-1413 7076 10091 0
1413 -7076 0
1413 -10091 0
10092 -7070 -7081 0
-10092 7070 0
-10092 7081 0
-1409 7083 10092 0
1409 -7083 0
1409 -10092 0
10093 -7070 -7087 0
-10093 7070 0
-10093 7087 0
-1433 7090 10093 0
1433 -7090 0
1433 -10093 0
10094 -7092 -7087 0
-10094 7092 0
-10094 7087 0
-1431 7097 10094 0
1431 -7097 0
1431 -10094 0
10095 -7070 -7102 0
-10095 7070 0
-10095 7102 0
-1417 7104 10095 0
1417 -7104 0
1417 -10095 0
10096 -7070 -7108 0
-10096 7070 0
-10096 7108 0
-1424 7111 10096 0
1424 -7111 0
1424 -10096 0
10097 -7092 -7108 0
-10097 7092 0
-10097 7108 0
-1426 7116 10097 0
1426 -7116 0
1426 -10097 0
10098 -7081 -7092 0
-10098 7081 0
-10098 7092 0
-1408 7121 10098 0
1408 -7121 0
1408 -10098 0
10099 -7081 -7081 0
-10099 7081 0
-10099 7081 0
-1415 7126 10099 0
1415 -7126 0
1415 -10099 0
10100 -7081 -7102 0
-10100 7081 0
-10100 7102 0
-1422 7131 10100 0
1422 -7131 0
1422 -10100 0
10101 -7081 -7108 0
-10101 7081 0
-10101 7108 0
-1429 7136 10101 0
1429 -7136 0
1429 -10101 0
10102 -7087 -7108 0
-10102 7087 0
-10102 7108 0
-1436 7141 10102 0
1436 -7141 0
1436 -10102 0
10103 -7102 -7092 0
-10103 7102 0
-10103 7092 0
-1420 7146 10103 0
1420 -7146 0
1420 -10103 0
10104 -7102 -7087 0
-10104 7102 0
-10104 7087 0
-1441 7151 10104 0
1441 -7151 0
1441 -10104 0
10105 -7102 -7102 0
-10105 7102 0
-10105 7102 0
-1447 7156 10105 0
1447 -7156 0
1447 -10105 0
10106 -10107 -10107 0
-10106 10107 0
-10106 10107 0
-6859 10108 10106 0
6859 -10108 0
6859 -10106 0
10109 -10107 -10110 0
-10109 10107 0
-10109 10110 0
-6862 10111 10109 0
6862 -10111 0
6862 -10109 0
10112 -10107 -10113 0
-10112 10107 0
-10112 10113 0
-6865 10114 10112 0
6865 -10114 0
6865 -10112 0
10115 -10116 -10113 0
-10115 10116 0
-10115 10113 0
-6868 10117 10115 0
6868 -10117 0
6868 -10115 0
10118 -10107 -10119 0
-10118 10107 0
-10118 10119 0
-8548 10120 10118 0
8548 -10120 0
8548 -10118 0
10121 -10107 -10122 0
-10121 10107 0
-10121 10122 0
-6858 10123 10121 0
6858 -10123 0
6858 -10121 0
10124 -10116 -10122 0
-10124 10116 0
-10124 10122 0
-6867 10125 10124 0
6867 -10125 0
6867 -10124 0
10126 -10107 -10127 0
-10126 10107 0
-10126 10127 0
-6871 10128 10126 0
6871 -10128 0
6871 -10126 0
10129 -10107 -10130 0
-10129 10107 0
-10129 10130 0
-6874 10131 10129 0
6874 -10131 0
6874 -10129 0
10132 -10116 -10130 0
-10132 10116 0
-10132 10130 0
-6876 10133 10132 0
6876 -10133 0
6876 -10132 0
10134 -10110 -10116 0
-10134 10110 0
-10134 10116 0
-6878 10135 10134 0
6878 -10135 0
6878 -10134 0
10136 -10110 -10110 0
-10136 10110 0
-10136 10110 0
-6880 10137 10136 0
6880 -10137 0
6880 -10136 0
10138 -10110 -10119 0
-10138 10110 0
-10138 10119 0
-8554 10139 10138 0
8554 -10139 0
8554 -10138 0
10140 -10110 -10122 0
-10140 10110 0
-10140 10122 0
-6861 10141 10140 0
6861 -10141 0
6861 -10140 0
10142 -10113 -10122 0
-10142 10113 0
-10142 10122 0
-6864 10143 10142 0
6864 -10143 0
6864 -10142 0
10144 -10110 -10127 0
-10144 10110 0
-10144 10127 0
-6882 10145 10144 0
6882 -10145 0
6882 -10144 0
10146 -10110 -10130 0
-10146 10110 0
-10146 10130 0
-6884 10147 10146 0
6884 -10147 0
6884 -10146 0
10148 -10113 -10130 0
-10148 10113 0
-10148 10130 0
-6886 10149 10148 0
6886 -10149 0
6886 -10148 0
10150 -10119 -10116 0
-10150 10119 0
-10150 10116 0
-8565 10151 10150 0
8565 -10151 0
8565 -10150 0
10152 -10119 -10113 0
-10152 10119 0
-10152 10113 0
-8559 10153 10152 0
8559 -10153 0
8559 -10152 0
10154 -10119 -10119 0
-10154 10119 0
-10154 10119 0
-8552 10155 10154 0
8552 -10155 0
8552 -10154 0
10156 -10119 -10127 0
-10156 10119 0
-10156 10127 0
-8569 10157 10156 0
8569 -10157 0
8569 -10156 0
10158 -10119 -10130 0
-10158 10119 0
-10158 10130 0
-8574 10159 10158 0
8574 -10159 0
8574 -10158 0
10160 -10122 -10130 0
-10160 10122 0
-10160 10130 0
-6873 10161 10160 0
6873 -10161 0
6873 -10160 0
10162 -10127 -10116 0
-10162 10127 0
-10162 10116 0
-6888 10163 10162 0
6888 -10163 0
6888 -10162 0
10164 -10127 -10113 0
-10164 10127 0
-10164 10113 0
-6890 10165 10164 0
6890 -10165 0
6890 -10164 0
10166 -10127 -10122 0
-10166 10127 0
-10166 10122 0
-6870 10167 10166 0
6870 -10167 0
6870 -10166 0
10168 -10127 -10127 0
-10168 10127 0
-10168 10127 0
-6892 10169 10168 0
6892 -10169 0
6892 -10168 0
10170 -10171 -10172 0
-10170 10171 0
-10170 10172 0
10173 -10172 -10172 0
-10173 10172 0
-10173 10172 0
10174 -10172 -10171 0
-10174 10172 0
-10174 10171 0
10175 -10171 -10171 -10176 0
-10175 10171 0
-10175 10171 0
-10175 10176 0
-8289 10177 10170 10173 10174 10175 0
8289 -10177 0
8289 -10170 0
8289 -10173 0
8289 -10174 0
8289 -10175 0
10178 -10171 -10179 0
-10178 10171 0
-10178 10179 0
10180 -10172 -10179 0
-10180 10172 0
-10180 10179 0
10181 -10172 -10182 0
-10181 10172 0
-10181 10182 0
10183 -10171 -10182 -10176 0
-10183 10171 0
-10183 10182 0
-10183 10176 0
-8296 10184 10178 10180 10181 10183 0
8296 -10184 0
8296 -10178 0
8296 -10180 0
8296 -10181 0
8296 -10183 0
10185 -10171 -10186 0
-10185 10171 0
-10185 10186 0
10187 -10172 -10188 0
-10187 10172 0
-10187 10188 0
10189 -10172 -10186 0
-10189 10172 0
-10189 10186 0
10190 -10171 -10188 -10176 0
-10190 10171 0
-10190 10188 0
-10190 10176 0
-8303 10191 10185 10187 10189 10190 0
8303 -10191 0
8303 -10185 0
8303 -10187 0
8303 -10189 0
8303 -10190 0
10192 -10193 -10186 0
-10192 10193 0
-10192 10186 0
10194 -10195 -10186 0
-10194 10195 0
-10194 10186 0
10196 -10195 -10188 0
-10196 10195 0
-10196 10188 0
10197 -10193 -10188 -10176 0
-10197 10193 0
-10197 10188 0
-10197 10176 0
-8310 10198 10192 10194 10196 10197 0
8310 -10198 0
8310 -10192 0
8310 -10194 0
8310 -10196 0
8310 -10197 0
10199 -10171 -10200 0
-10199 10171 0
-10199 10200 0
10201 -10172 -10200 0
-10201 10172 0
-10201 10200 0
10202 -10172 -10203 0
-10202 10172 0
-10202 10203 0
10204 -10171 -10203 -10176 0
-10204 10171 0
-10204 10203 0
-10204 10176 0
-8284 10205 10199 10201 10202 10204 0
8284 -10205 0
8284 -10199 0
8284 -10201 0
8284 -10202 0
8284 -10204 0
10206 -10171 -10207 0
-10206 10171 0
-10206 10207 0
10208 -10172 -10209 0
-10208 10172 0
-10208 10209 0
10210 -10172 -10207 0
-10210 10172 0
-10210 10207 0
10211 -10171 -10209 -10176 0
-10211 10171 0
-10211 10209 0
-10211 10176 0
-8283 10212 10206 10208 10210 10211 0
8283 -10212 0
8283 -10206 0
8283 -10208 0
8283 -10210 0
8283 -10211 0
10213 -10193 -10207 0
-10213 10193 0
-10213 10207 0
10214 -10195 -10207 0
-10214 10195 0
-10214 10207 0
10215 -10195 -10209 0
-10215 10195 0
-10215 10209 0
10216 -10193 -10209 -10176 0
-10216 10193 0
-10216 10209 0
-10216 10176 0
-8305 10217 10213 10214 10215 10216 0
8305 -10217 0
8305 -10213 0
8305 -10214 0
8305 -10215 0
8305 -10216 0
10218 -10171 -10219 0
-10218 10171 0
-10218 10219 0
10220 -10172 -10219 0
-10220 10172 0
-10220 10219 0
10221 -10172 -10222 0
-10221 10172 0
-10221 10222 0
10223 -10171 -10222 -10176 0
-10223 10171 0
-10223 10222 0
-10223 10176 0
-8317 10224 10218 10220 10221 10223 0
8317 -10224 0
8317 -10218 0
8317 -10220 0
8317 -10221 0
8317 -10223 0
10225 -10171 -10226 0
-10225 10171 0
-10225 10226 0
10227 -10172 -10228 0
-10227 10172 0
-10227 10228 0
10229 -10172 -10226 0
-10229 10172 0
-10229 10226 0
10230 -10171 -10228 -10176 0
-10230 10171 0
-10230 10228 0
-10230 10176 0
-8324 10231 10225 10227 10229 10230 0
8324 -10231 0
8324 -10225 0
8324 -10227 0
8324 -10229 0
8324 -10230 0
10232 -10193 -10226 0
-10232 10193 0
-10232 10226 0
10233 -10195 -10226 0
-10233 10195 0
-10233 10226 0
10234 -10195 -10228 0
-10234 10195 0
-10234 10228 0
10235 -10193 -10228 -10176 0
-10235 10193 0
-10235 10228 0
-10235 10176 0
-8329 10236 10232 10233 10234 10235 0
8329 -10236 0
8329 -10232 0
8329 -10233 0
8329 -10234 0
8329 -10235 0
10237 -10182 -10195 0
-10237 10182 0
-10237 10195 0
10238 -10179 -10193 0
-10238 10179 0
-10238 10193 0
10239 -10179 -10195 0
-10239 10179 0
-10239 10195 0
10240 -10182 -10193 -10176 0
-10240 10182 0
-10240 10193 0
-10240 10176 0
-8334 10241 10237 10238 10239 10240 0
8334 -10241 0
8334 -10237 0
8334 -10238 0
8334 -10239 0
8334 -10240 0
10242 -10182 -10179 0
-10242 10182 0
-10242 10179 0
10243 -10179 -10179 0
-10243 10179 0
-10243 10179 0
10244 -10179 -10182 0
-10244 10179 0
-10244 10182 0
10245 -10182 -10182 -10176 0
-10245 10182 0
-10245 10182 0
-10245 10176 0
-8339 10246 10242 10243 10244 10245 0
8339 -10246 0
8339 -10242 0
8339 -10243 0
8339 -10244 0
8339 -10245 0
10247 -10182 -10200 0
-10247 10182 0
-10247 10200 0
10248 -10179 -10200 0
-10248 10179 0
-10248 10200 0
10249 -10179 -10203 0
-10249 10179 0
-10249 10203 0
10250 -10182 -10203 -10176 0
-10250 10182 0
-10250 10203 0
-10250 10176 0
-8291 10251 10247 10248 10249 10250 0
8291 -10251 0
8291 -10247 0
8291 -10248 0
8291 -10249 0
8291 -10250 0
10252 -10182 -10207 0
-10252 10182 0
-10252 10207 0
10253 -10179 -10209 0
-10253 10179 0
-10253 10209 0
10254 -10179 -10207 0
-10254 10179 0
-10254 10207 0
10255 -10182 -10209 -10176 0
-10255 10182 0
-10255 10209 0
-10255 10176 0
-8294 10256 10252 10253 10254 10255 0
8294 -10256 0
8294 -10252 0
8294 -10253 0
8294 -10254 0
8294 -10255 0
10257 -10188 -10207 0
-10257 10188 0
-10257 10207 0
10258 -10186 -10207 0
-10258 10186 0
-10258 10207 0
10259 -10186 -10209 0
-10259 10186 0
-10259 10209 0
10260 -10188 -10209 -10176 0
-10260 10188 0
-10260 10209 0
-10260 10176 0
-8300 10261 10257 10258 10259 10260 0
8300 -10261 0
8300 -10257 0
8300 -10258 0
8300 -10259 0
8300 -10260 0
10262 -10182 -10219 0
-10262 10182 0
-10262 10219 0
10263 -10179 -10219 0
-10263 10179 0
-10263 10219 0
10264 -10179 -10222 0
-10264 10179 0
-10264 10222 0
10265 -10182 -10222 -10176 0
-10265 10182 0
-10265 10222 0
-10265 10176 0
-8344 10266 10262 10263 10264 10265 0
8344 -10266 0
8344 -10262 0
8344 -10263 0
8344 -10264 0
8344 -10265 0
10267 -10182 -10226 0
-10267 10182 0
-10267 10226 0
10268 -10179 -10228 0
-10268 10179 0
-10268 10228 0
10269 -10179 -10226 0
-10269 10179 0
-10269 10226 0
10270 -10182 -10228 -10176 0
-10270 10182 0
-10270 10228 0
-10270 10176 0
-8349 10271 10267 10268 10269 10270 0
8349 -10271 0
8349 -10267 0
8349 -10268 0
8349 -10269 0
8349 -10270 0
10272 -10188 -10226 0
-10272 10188 0
-10272 10226 0
10273 -10186 -10226 0
-10273 10186 0
-10273 10226 0
10274 -10186 -10228 0
-10274 10186 0
-10274 10228 0
10275 -10188 -10228 -10176 0
-10275 10188 0
-10275 10228 0
-10275 10176 0
-8354 10276 10272 10273 10274 10275 0
8354 -10276 0
8354 -10272 0
8354 -10273 0
8354 -10274 0
8354 -10275 0
10277 -10203 -10195 0
-10277 10203 0
-10277 10195 0
10278 -10200 -10193 0
-10278 10200 0
-10278 10193 0
10279 -10200 -10195 0
-10279 10200 0
-10279 10195 0
10280 -10203 -10193 -10176 0
-10280 10203 0
-10280 10193 0
-10280 10176 0
-8307 10281 10277 10278 10279 10280 0
8307 -10281 0
8307 -10277 0
8307 -10278 0
8307 -10279 0
8307 -10280 0
10282 -10203 -10186 0
-10282 10203 0
-10282 10186 0
10283 -10200 -10188 0
-10283 10200 0
-10283 10188 0
10284 -10200 -10186 0
-10284 10200 0
-10284 10186 0
10285 -10203 -10188 -10176 0
-10285 10203 0
-10285 10188 0
-10285 10176 0
-8298 10286 10282 10283 10284 10285 0
8298 -10286 0
8298 -10282 0
8298 -10283 0
8298 -10284 0
8298 -10285 0
10287 -10203 -10200 0
-10287 10203 0
-10287 10200 0
10288 -10200 -10200 0
-10288 10200 0
-10288 10200 0
10289 -10200 -10203 0
-10289 10200 0
-10289 10203 0
10290 -10203 -10203 -10176 0
-10290 10203 0
-10290 10203 0
-10290 10176 0
-8288 10291 10287 10288 10289 10290 0
8288 -10291 0
8288 -10287 0
8288 -10288 0
8288 -10289 0
8288 -10290 0
10292 -10203 -10219 0
-10292 10203 0
-10292 10219 0
10293 -10200 -10219 0
-10293 10200 0
-10293 10219 0
10294 -10200 -10222 0
-10294 10200 0
-10294 10222 0
10295 -10203 -10222 -10176 0
-10295 10203 0
-10295 10222 0
-10295 10176 0
-8312 10296 10292 10293 10294 10295 0
8312 -10296 0
8312 -10292 0
8312 -10293 0
8312 -10294 0
8312 -10295 0
10297 -10203 -10226 0
-10297 10203 0
-10297 10226 0
10298 -10200 -10228 0
-10298 10200 0
-10298 10228 0
10299 -10200 -10226 0
-10299 10200 0
-10299 10226 0
10300 -10203 -10228 -10176 0
-10300 10203 0
-10300 10228 0
-10300 10176 0
-8319 10301 10297 10298 10299 10300 0
8319 -10301 0
8319 -10297 0
8319 -10298 0
8319 -10299 0
8319 -10300 0
10302 -10209 -10226 0
-10302 10209 0
-10302 10226 0
10303 -10207 -10226 0
-10303 10207 0
-10303 10226 0
10304 -10207 -10228 0
-10304 10207 0
-10304 10228 0
10305 -10209 -10228 -10176 0
-10305 10209 0
-10305 10228 0
-10305 10176 0
-8321 10306 10302 10303 10304 10305 0
8321 -10306 0
8321 -10302 0
8321 -10303 0
8321 -10304 0
8321 -10305 0
10307 -10222 -10195 0
-10307 10222 0
-10307 10195 0
10308 -10219 -10193 0
-10308 10219 0
-10308 10193 0
10309 -10219 -10195 0
-10309 10219 0
-10309 10195 0
10310 -10222 -10193 -10176 0
-10310 10222 0
-10310 10193 0
-10310 10176 0
-8359 10311 10307 10308 10309 10310 0
8359 -10311 0
8359 -10307 0
8359 -10308 0
8359 -10309 0
8359 -10310 0
10312 -10222 -10186 0
-10312 10222 0
-10312 10186 0
10313 -10219 -10188 0
-10313 10219 0
-10313 10188 0
10314 -10219 -10186 0
-10314 10219 0
-10314 10186 0
10315 -10222 -10188 -10176 0
-10315 10222 0
-10315 10188 0
-10315 10176 0
-8364 10316 10312 10313 10314 10315 0
8364 -10316 0
8364 -10312 0
8364 -10313 0
8364 -10314 0
8364 -10315 0
10317 -10222 -10207 0
-10317 10222 0
-10317 10207 0
10318 -10219 -10209 0
-10318 10219 0
-10318 10209 0
10319 -10219 -10207 0
-10319 10219 0
-10319 10207 0
10320 -10222 -10209 -10176 0
-10320 10222 0
-10320 10209 0
-10320 10176 0
-8315 10321 10317 10318 10319 10320 0
8315 -10321 0
8315 -10317 0
8315 -10318 0
8315 -10319 0
8315 -10320 0
10322 -10222 -10219 0
-10322 10222 0
-10322 10219 0
10323 -10219 -10219 0
-10323 10219 0
-10323 10219 0
10324 -10219 -10222 0
-10324 10219 0
-10324 10222 0
10325 -10222 -10222 -10176 0
-10325 10222 0
-10325 10222 0
-10325 10176 0
-8369 10326 10322 10323 10324 10325 0
8369 -10326 0
8369 -10322 0
8369 -10323 0
8369 -10324 0
8369 -10325 0
10327 -10328 -10328 0
-10327 10328 0
-10327 10328 0
-8860 10329 10327 0
8860 -10329 0
8860 -10327 0
10330 -10328 -10331 0
-10330 10328 0
-10330 10331 0
-8863 10332 10330 0
8863 -10332 0
8863 -10330 0
10333 -10328 -10334 0
-10333 10328 0
-10333 10334 0
-8866 10335 10333 0
8866 -10335 0
8866 -10333 0
10336 -10337 -10334 0
-10336 10337 0
-10336 10334 0
-8869 10338 10336 0
8869 -10338 0
8869 -10336 0
10339 -10328 -10340 0
-10339 10328 0
-10339 10340 0
-8872 10341 10339 0
8872 -10341 0
8872 -10339 0
10342 -10328 -10343 0
-10342 10328 0
-10342 10343 0
-8875 10344 10342 0
8875 -10344 0
8875 -10342 0
10345 -10337 -10343 0
-10345 10337 0
-10345 10343 0
-8877 10346 10345 0
8877 -10346 0
8877 -10345 0
10347 -10328 -10348 0
-10347 10328 0
-10347 10348 0
-8969 10349 10347 0
8969 -10349 0
8969 -10347 0
10350 -10328 -10351 0
-10350 10328 0
-10350 10351 0
-8859 10352 10350 0
8859 -10352 0
8859 -10350 0
10353 -10337 -10351 0
-10353 10337 0
-10353 10351 0
-8868 10354 10353 0
8868 -10354 0
8868 -10353 0
10355 -10331 -10337 0
-10355 10331 0
-10355 10337 0
-8879 10356 10355 0
8879 -10356 0
8879 -10355 0
10357 -10331 -10331 0
-10357 10331 0
-10357 10331 0
-8881 10358 10357 0
8881 -10358 0
8881 -10357 0
10359 -10331 -10340 0
-10359 10331 0
-10359 10340 0
-8883 10360 10359 0
8883 -10360 0
8883 -10359 0
10361 -10331 -10343 0
-10361 10331 0
-10361 10343 0
-8885 10362 10361 0
8885 -10362 0
8885 -10361 0
10363 -10334 -10343 0
-10363 10334 0
-10363 10343 0
-8887 10364 10363 0
8887 -10364 0
8887 -10363 0
10365 -10331 -10348 0
-10365 10331 0
-10365 10348 0
-8975 10366 10365 0
8975 -10366 0
8975 -10365 0
10367 -10331 -10351 0
-10367 10331 0
-10367 10351 0
-8862 10368 10367 0
8862 -10368 0
8862 -10367 0
10369 -10334 -10351 0
-10369 10334 0
-10369 10351 0
-8865 10370 10369 0
8865 -10370 0
8865 -10369 0
10371 -10340 -10337 0
-10371 10340 0
-10371 10337 0
-8889 10372 10371 0
8889 -10372 0
8889 -10371 0
10373 -10340 -10334 0
-10373 10340 0
-10373 10334 0
-8891 10374 10373 0
8891 -10374 0
8891 -10373 0
10375 -10340 -10340 0
-10375 10340 0
-10375 10340 0
-8893 10376 10375 0
8893 -10376 0
8893 -10375 0
10377 -10340 -10348 0
-10377 10340 0
-10377 10348 0
-8990 10378 10377 0
8990 -10378 0
8990 -10377 0
10379 -10340 -10351 0
-10379 10340 0
-10379 10351 0
-8871 10380 10379 0
8871 -10380 0
8871 -10379 0
10381 -10343 -10351 0
-10381 10343 0
-10381 10351 0
-8874 10382 10381 0
8874 -10382 0
8874 -10381 0
10383 -10348 -10337 0
-10383 10348 0
-10383 10337 0
-8986 10384 10383 0
8986 -10384 0
8986 -10383 0
10385 -10348 -10334 0
-10385 10348 0
-10385 10334 0
-8980 10386 10385 0
8980 -10386 0
8980 -10385 0
10387 -10348 -10343 0
-10387 10348 0
-10387 10343 0
-8995 10388 10387 0
8995 -10388 0
8995 -10387 0
10389 -10348 -10348 0
-10389 10348 0
-10389 10348 0
-8973 10390 10389 0
8973 -10390 0
8973 -10389 0
10391 -10344 -10344 0
-10391 10344 0
-10391 10344 0
-8098 10329 10391 0
8098 -10329 0
8098 -10391 0
10392 -10344 -10362 0
-10392 10344 0
-10392 10362 0
-8093 10332 10392 0
8093 -10332 0
8093 -10392 0
10393 -10344 -10364 0
-10393 10344 0
-10393 10364 0
-8092 10335 10393 0
8092 -10335 0
8092 -10393 0
10394 -10346 -10364 0
-10394 10346 0
-10394 10364 0
-8114 10338 10394 0
8114 -10338 0
8114 -10394 0
10395 -10344 -10388 0
-10395 10344 0
-10395 10388 0
-8105 10349 10395 0
8105 -10349 0
8105 -10395 0
10396 -10344 -10382 0
-10396 10344 0
-10396 10382 0
-8112 10352 10396 0
8112 -10352 0
8112 -10396 0
10397 -10346 -10382 0
-10397 10346 0
-10397 10382 0
-8119 10354 10397 0
8119 -10354 0
8119 -10397 0
10398 -10344 -10399 0
-10398 10344 0
-10398 10399 0
-8126 10400 10398 0
8126 -10400 0
8126 -10398 0
10401 -10344 -10343 0
-10401 10344 0
-10401 10343 0
-8133 10328 10401 0
8133 -10328 0
8133 -10401 0
10402 -10346 -10343 0
-10402 10346 0
-10402 10343 0
-8138 10337 10402 0
8138 -10337 0
8138 -10402 0
10403 -10362 -10346 0
-10403 10362 0
-10403 10346 0
-8116 10356 10403 0
8116 -10356 0
8116 -10403 0
10404 -10362 -10362 0
-10404 10362 0
-10404 10362 0
-8097 10358 10404 0
8097 -10358 0
8097 -10404 0
10405 -10362 -10388 0
-10405 10362 0
-10405 10388 0
-8100 10366 10405 0
8100 -10366 0
8100 -10405 0
10406 -10362 -10382 0
-10406 10362 0
-10406 10382 0
-8107 10368 10406 0
8107 -10368 0
8107 -10406 0
10407 -10364 -10382 0
-10407 10364 0
-10407 10382 0
-8109 10370 10407 0
8109 -10370 0
8109 -10407 0
10408 -10362 -10399 0
-10408 10362 0
-10408 10399 0
-8121 10409 10408 0
8121 -10409 0
8121 -10408 0
10410 -10362 -10343 0
-10410 10362 0
-10410 10343 0
-8128 10331 10410 0
8128 -10331 0
8128 -10410 0
10411 -10364 -10343 0
-10411 10364 0
-10411 10343 0
-8130 10334 10411 0
8130 -10334 0
8130 -10411 0
10412 -10388 -10346 0
-10412 10388 0
-10412 10346 0
-8143 10384 10412 0
8143 -10384 0
8143 -10412 0
10413 -10388 -10364 0
-10413 10388 0
-10413 10364 0
-8103 10386 10413 0
8103 -10386 0
8103 -10413 0
10414 -10388 -10388 0
-10414 10388 0
-10414 10388 0
-8148 10390 10414 0
8148 -10390 0
8148 -10414 0
10415 -10388 -10399 0
-10415 10388 0
-10415 10399 0
-8153 10416 10415 0
8153 -10416 0
8153 -10415 0
10417 -10388 -10343 0
-10417 10388 0
-10417 10343 0
-8158 10348 10417 0
8158 -10348 0
8158 -10417 0
10418 -10382 -10343 0
-10418 10382 0
-10418 10343 0
-8163 10351 10418 0
8163 -10351 0
8163 -10418 0
10419 -10399 -10346 0
-10419 10399 0
-10419 10346 0
-8168 10420 10419 0
8168 -10420 0
8168 -10419 0
10421 -10399 -10364 0
-10421 10399 0
-10421 10364 0
-8124 10422 10421 0
8124 -10422 0
8124 -10421 0
10423 -10399 -10382 0
-10423 10399 0
-10423 10382 0
-8173 10424 10423 0
8173 -10424 0
8173 -10423 0
10425 -10399 -10399 0
-10425 10399 0
-10425 10399 0
-8178 10426 10425 0
8178 -10426 0
8178 -10425 0
10427 -10428 -10428 0
-10427 10428 0
-10427 10428 0
-9288 10429 10427 0
9288 -10429 0
9288 -10427 0
10430 -10428 -10431 0
-10430 10428 0
-10430 10431 0
-9283 10432 10430 0
9283 -10432 0
9283 -10430 0
10433 -10428 -10434 0
-10433 10428 0
-10433 10434 0
-9282 10435 10433 0
9282 -10435 0
9282 -10433 0
10436 -10437 -10434 0
-10436 10437 0
-10436 10434 0
-9304 10438 10436 0
9304 -10438 0
9304 -10436 0
10439 -10428 -10440 0
-10439 10428 0
-10439 10440 0
-9295 10441 10439 0
9295 -10441 0
9295 -10439 0
10442 -10428 -10443 0
-10442 10428 0
-10442 10443 0
-9302 10444 10442 0
9302 -10444 0
9302 -10442 0
10445 -10437 -10443 0
-10445 10437 0
-10445 10443 0
-9309 10446 10445 0
9309 -10446 0
9309 -10445 0
10447 -10428 -10448 0
-10447 10428 0
-10447 10448 0
-9316 10449 10447 0
9316 -10449 0
9316 -10447 0
10450 -10428 -10451 0
-10450 10428 0
-10450 10451 0
-9323 10452 10450 0
9323 -10452 0
9323 -10450 0
10453 -10437 -10451 0
-10453 10437 0
-10453 10451 0
-9328 10454 10453 0
9328 -10454 0
9328 -10453 0
10455 -10431 -10437 0
-10455 10431 0
-10455 10437 0
-9306 10456 10455 0
9306 -10456 0
9306 -10455 0
10457 -10431 -10431 0
-10457 10431 0
-10457 10431 0
-9287 10458 10457 0
9287 -10458 0
9287 -10457 0
10459 -10431 -10440 0
-10459 10431 0
-10459 10440 0
-9290 10460 10459 0
9290 -10460 0
9290 -10459 0
10461 -10431 -10443 0
-10461 10431 0
-10461 10443 0
-9297 10462 10461 0
9297 -10462 0
9297 -10461 0
10463 -10434 -10443 0
-10463 10434 0
-10463 10443 0
-9299 10464 10463 0
9299 -10464 0
9299 -10463 0
10465 -10431 -10448 0
-10465 10431 0
-10465 10448 0
-9311 10466 10465 0
9311 -10466 0
9311 -10465 0
10467 -10431 -10451 0
-10467 10431 0
-10467 10451 0
-9318 10468 10467 0
9318 -10468 0
9318 -10467 0
10469 -10434 -10451 0
-10469 10434 0
-10469 10451 0
-9320 10470 10469 0
9320 -10470 0
9320 -10469 0
10471 -10440 -10437 0
-10471 10440 0
-10471 10437 0
-9333 10472 10471 0
9333 -10472 0
9333 -10471 0
10473 -10440 -10434 0
-10473 10440 0
-10473 10434 0
-9293 10474 10473 0
9293 -10474 0
9293 -10473 0
10475 -10440 -10440 0
-10475 10440 0
-10475 10440 0
-9338 10476 10475 0
9338 -10476 0
9338 -10475 0
10477 -10440 -10448 0
-10477 10440 0
-10477 10448 0
-9343 10478 10477 0
9343 -10478 0
9343 -10477 0
10479 -10440 -10451 0
-10479 10440 0
-10479 10451 0
-9348 10480 10479 0
9348 -10480 0
9348 -10479 0
10481 -10443 -10451 0
-10481 10443 0
-10481 10451 0
-9353 10482 10481 0
9353 -10482 0
9353 -10481 0
10483 -10448 -10437 0
-10483 10448 0
-10483 10437 0
-9358 10484 10483 0
9358 -10484 0
9358 -10483 0
10485 -10448 -10434 0
-10485 10448 0
-10485 10434 0
-9314 10486 10485 0
9314 -10486 0
9314 -10485 0
10487 -10448 -10443 0
-10487 10448 0
-10487 10443 0
-9363 10488 10487 0
9363 -10488 0
9363 -10487 0
10489 -10448 -10448 0
-10489 10448 0
-10489 10448 0
-9368 10490 10489 0
9368 -10490 0
9368 -10489 0
10491 -10492 -10493 0
-10491 10492 0
-10491 10493 0
10494 -10493 -10493 0
-10494 10493 0
-10494 10493 0
10495 -10493 -10492 0
-10495 10493 0
-10495 10492 0
10496 -10492 -10492 -10497 0
-10496 10492 0
-10496 10492 0
-10496 10497 0
-7247 10498 10491 10494 10495 10496 0
7247 -10498 0
7247 -10491 0
7247 -10494 0
7247 -10495 0
7247 -10496 0
10499 -10492 -10500 0
-10499 10492 0
-10499 10500 0
10501 -10493 -10500 0
-10501 10493 0
-10501 10500 0
10502 -10493 -10503 0
-10502 10493 0
-10502 10503 0
10504 -10492 -10503 -10497 0
-10504 10492 0
-10504 10503 0
-10504 10497 0
-7377 10505 10499 10501 10502 10504 0
7377 -10505 0
7377 -10499 0
7377 -10501 0
7377 -10502 0
7377 -10504 0
10506 -10492 -10507 0
-10506 10492 0
-10506 10507 0
10508 -10493 -10509 0
-10508 10493 0
-10508 10509 0
10510 -10493 -10507 0
-10510 10493 0
-10510 10507 0
10511 -10492 -10509 -10497 0
-10511 10492 0
-10511 10509 0
-10511 10497 0
-7246 10512 10506 10508 10510 10511 0
7246 -10512 0
7246 -10506 0
7246 -10508 0
7246 -10510 0
7246 -10511 0
10513 -10514 -10507 0
-10513 10514 0
-10513 10507 0
10515 -10516 -10507 0
-10515 10516 0
-10515 10507 0
10517 -10516 -10509 0
-10517 10516 0
-10517 10509 0
10518 -10514 -10509 -10497 0
-10518 10514 0
-10518 10509 0
-10518 10497 0
-7255 10519 10513 10515 10517 10518 0
7255 -10519 0
7255 -10513 0
7255 -10515 0
7255 -10517 0
7255 -10518 0
10520 -10492 -10521 0
-10520 10492 0
-10520 10521 0
10522 -10493 -10521 0
-10522 10493 0
-10522 10521 0
10523 -10493 -10524 0
-10523 10493 0
-10523 10524 0
10525 -10492 -10524 -10497 0
-10525 10492 0
-10525 10524 0
-10525 10497 0
-7250 10526 10520 10522 10523 10525 0
7250 -10526 0
7250 -10520 0
7250 -10522 0
7250 -10523 0
7250 -10525 0
10527 -10492 -10528 0
-10527 10492 0
-10527 10528 0
10529 -10493 -10530 0
-10529 10493 0
-10529 10530 0
10531 -10493 -10528 0
-10531 10493 0
-10531 10528 0
10532 -10492 -10530 -10497 0
-10532 10492 0
-10532 10530 0
-10532 10497 0
-7253 10533 10527 10529 10531 10532 0
7253 -10533 0
7253 -10527 0
7253 -10529 0
7253 -10531 0
7253 -10532 0
10534 -10514 -10528 0
-10534 10514 0
-10534 10528 0
10535 -10516 -10528 0
-10535 10516 0
-10535 10528 0
10536 -10516 -10530 0
-10536 10516 0
-10536 10530 0
10537 -10514 -10530 -10497 0
-10537 10514 0
-10537 10530 0
-10537 10497 0
-7256 10538 10534 10535 10536 10537 0
7256 -10538 0
7256 -10534 0
7256 -10535 0
7256 -10536 0
7256 -10537 0
10539 -10492 -10540 0
-10539 10492 0
-10539 10540 0
10541 -10493 -10540 0
-10541 10493 0
-10541 10540 0
10542 -10493 -10543 0
-10542 10493 0
-10542 10543 0
10544 -10492 -10543 -10497 0
-10544 10492 0
-10544 10543 0
-10544 10497 0
-7259 10545 10539 10541 10542 10544 0
7259 -10545 0
7259 -10539 0
7259 -10541 0
7259 -10542 0
7259 -10544 0
10546 -10492 -10547 0
-10546 10492 0
-10546 10547 0
10548 -10493 -10549 0
-10548 10493 0
-10548 10549 0
10550 -10493 -10547 0
-10550 10493 0
-10550 10547 0
10551 -10492 -10549 -10497 0
-10551 10492 0
-10551 10549 0
-10551 10497 0
-7262 10552 10546 10548 10550 10551 0
7262 -10552 0
7262 -10546 0
7262 -10548 0
7262 -10550 0
7262 -10551 0
10553 -10514 -10547 0
-10553 10514 0
-10553 10547 0
10554 -10516 -10547 0
-10554 10516 0
-10554 10547 0
10555 -10516 -10549 0
-10555 10516 0
-10555 10549 0
10556 -10514 -10549 -10497 0
-10556 10514 0
-10556 10549 0
-10556 10497 0
-7264 10557 10553 10554 10555 10556 0
7264 -10557 0
7264 -10553 0
7264 -10554 0
7264 -10555 0
7264 -10556 0
10558 -10503 -10516 0
-10558 10503 0
-10558 10516 0
10559 -10500 -10514 0
-10559 10500 0
-10559 10514 0
10560 -10500 -10516 0
-10560 10500 0
-10560 10516 0
10561 -10503 -10514 -10497 0
-10561 10503 0
-10561 10514 0
-10561 10497 0
-7394 10562 10558 10559 10560 10561 0
7394 -10562 0
7394 -10558 0
7394 -10559 0
7394 -10560 0
7394 -10561 0
10563 -10503 -10500 0
-10563 10503 0
-10563 10500 0
10564 -10500 -10500 0
-10564 10500 0
-10564 10500 0
10565 -10500 -10503 0
-10565 10500 0
-10565 10503 0
10566 -10503 -10503 -10497 0
-10566 10503 0
-10566 10503 0
-10566 10497 0
-7381 10567 10563 10564 10565 10566 0
7381 -10567 0
7381 -10563 0
7381 -10564 0
7381 -10565 0
7381 -10566 0
10568 -10503 -10521 0
-10568 10503 0
-10568 10521 0
10569 -10500 -10521 0
-10569 10500 0
-10569 10521 0
10570 -10500 -10524 0
-10570 10500 0
-10570 10524 0
10571 -10503 -10524 -10497 0
-10571 10503 0
-10571 10524 0
-10571 10497 0
-7383 10572 10568 10569 10570 10571 0
7383 -10572 0
7383 -10568 0
7383 -10569 0
7383 -10570 0
7383 -10571 0
10573 -10503 -10528 0
-10573 10503 0
-10573 10528 0
10574 -10500 -10530 0
-10574 10500 0
-10574 10530 0
10575 -10500 -10528 0
-10575 10500 0
-10575 10528 0
10576 -10503 -10530 -10497 0
-10576 10503 0
-10576 10530 0
-10576 10497 0
-7388 10577 10573 10574 10575 10576 0
7388 -10577 0
7388 -10573 0
7388 -10574 0
7388 -10575 0
7388 -10576 0
10578 -10509 -10528 0
-10578 10509 0
-10578 10528 0
10579 -10507 -10528 0
-10579 10507 0
-10579 10528 0
10580 -10507 -10530 0
-10580 10507 0
-10580 10530 0
10581 -10509 -10530 -10497 0
-10581 10509 0
-10581 10530 0
-10581 10497 0
-7252 10582 10578 10579 10580 10581 0
7252 -10582 0
7252 -10578 0
7252 -10579 0
7252 -10580 0
7252 -10581 0
10583 -10503 -10540 0
-10583 10503 0
-10583 10540 0
10584 -10500 -10540 0
-10584 10500 0
-10584 10540 0
10585 -10500 -10543 0
-10585 10500 0
-10585 10543 0
10586 -10503 -10543 -10497 0
-10586 10503 0
-10586 10543 0
-10586 10497 0
-7398 10587 10583 10584 10585 10586 0
7398 -10587 0
7398 -10583 0
7398 -10584 0
7398 -10585 0
7398 -10586 0
10588 -10503 -10547 0
-10588 10503 0
-10588 10547 0
10589 -10500 -10549 0
-10589 10500 0
-10589 10549 0
10590 -10500 -10547 0
-10590 10500 0
-10590 10547 0
10591 -10503 -10549 -10497 0
-10591 10503 0
-10591 10549 0
-10591 10497 0
-7403 10592 10588 10589 10590 10591 0
7403 -10592 0
7403 -10588 0
7403 -10589 0
7403 -10590 0
7403 -10591 0
10593 -10509 -10547 0
-10593 10509 0
-10593 10547 0
10594 -10507 -10547 0
-10594 10507 0
-10594 10547 0
10595 -10507 -10549 0
-10595 10507 0
-10595 10549 0
10596 -10509 -10549 -10497 0
-10596 10509 0
-10596 10549 0
-10596 10497 0
-7261 10597 10593 10594 10595 10596 0
7261 -10597 0
7261 -10593 0
7261 -10594 0
7261 -10595 0
7261 -10596 0
10598 -10524 -10516 0
-10598 10524 0
-10598 10516 0
10599 -10521 -10514 0
-10599 10521 0
-10599 10514 0
10600 -10521 -10516 0
-10600 10521 0
-10600 10516 0
10601 -10524 -10514 -10497 0
-10601 10524 0
-10601 10514 0
-10601 10497 0
-7266 10602 10598 10599 10600 10601 0
7266 -10602 0
7266 -10598 0
7266 -10599 0
7266 -10600 0
7266 -10601 0
10603 -10524 -10507 0
-10603 10524 0
-10603 10507 0
10604 -10521 -10509 0
-10604 10521 0
-10604 10509 0
10605 -10521 -10507 0
-10605 10521 0
-10605 10507 0
10606 -10524 -10509 -10497 0
-10606 10524 0
-10606 10509 0
-10606 10497 0
-7249 10607 10603 10604 10605 10606 0
7249 -10607 0
7249 -10603 0
7249 -10604 0
7249 -10605 0
7249 -10606 0
10608 -10524 -10521 0
-10608 10524 0
-10608 10521 0
10609 -10521 -10521 0
-10609 10521 0
-10609 10521 0
10610 -10521 -10524 0
-10610 10521 0
-10610 10524 0
10611 -10524 -10524 -10497 0
-10611 10524 0
-10611 10524 0
-10611 10497 0
-7268 10612 10608 10609 10610 10611 0
7268 -10612 0
7268 -10608 0
7268 -10609 0
7268 -10610 0
7268 -10611 0
10613 -10524 -10540 0
-10613 10524 0
-10613 10540 0
10614 -10521 -10540 0
-10614 10521 0
-10614 10540 0
10615 -10521 -10543 0
-10615 10521 0
-10615 10543 0
10616 -10524 -10543 -10497 0
-10616 10524 0
-10616 10543 0
-10616 10497 0
-7270 10617 10613 10614 10615 10616 0
7270 -10617 0
7270 -10613 0
7270 -10614 0
7270 -10615 0
7270 -10616 0
10618 -10524 -10547 0
-10618 10524 0
-10618 10547 0
10619 -10521 -10549 0
-10619 10521 0
-10619 10549 0
10620 -10521 -10547 0
-10620 10521 0
-10620 10547 0
10621 -10524 -10549 -10497 0
-10621 10524 0
-10621 10549 0
-10621 10497 0
-7272 10622 10618 10619 10620 10621 0
7272 -10622 0
7272 -10618 0
7272 -10619 0
7272 -10620 0
7272 -10621 0
10623 -10530 -10547 0
-10623 10530 0
-10623 10547 0
10624 -10528 -10547 0
-10624 10528 0
-10624 10547 0
10625 -10528 -10549 0
-10625 10528 0
-10625 10549 0
10626 -10530 -10549 -10497 0
-10626 10530 0
-10626 10549 0
-10626 10497 0
-7274 10627 10623 10624 10625 10626 0
7274 -10627 0
7274 -10623 0
7274 -10624 0
7274 -10625 0
7274 -10626 0
10628 -10543 -10516 0
-10628 10543 0
-10628 10516 0
10629 -10540 -10514 0
-10629 10540 0
-10629 10514 0
10630 -10540 -10516 0
-10630 10540 0
-10630 10516 0
10631 -10543 -10514 -10497 0
-10631 10543 0
-10631 10514 0
-10631 10497 0
-7276 10632 10628 10629 10630 10631 0
7276 -10632 0
7276 -10628 0
7276 -10629 0
7276 -10630 0
7276 -10631 0
10633 -10543 -10507 0
-10633 10543 0
-10633 10507 0
10634 -10540 -10509 0
-10634 10540 0
-10634 10509 0
10635 -10540 -10507 0
-10635 10540 0
-10635 10507 0
10636 -10543 -10509 -10497 0
-10636 10543 0
-10636 10509 0
-10636 10497 0
-7258 10637 10633 10634 10635 10636 0
7258 -10637 0
7258 -10633 0
7258 -10634 0
7258 -10635 0
7258 -10636 0
10638 -10543 -10528 0
-10638 10543 0
-10638 10528 0
10639 -10540 -10530 0
-10639 10540 0
-10639 10530 0
10640 -10540 -10528 0
-10640 10540 0
-10640 10528 0
10641 -10543 -10530 -10497 0
-10641 10543 0
-10641 10530 0
-10641 10497 0
-7278 10642 10638 10639 10640 10641 0
7278 -10642 0
7278 -10638 0
7278 -10639 0
7278 -10640 0
7278 -10641 0
10643 -10543 -10540 0
-10643 10543 0
-10643 10540 0
10644 -10540 -10540 0
-10644 10540 0
-10644 10540 0
10645 -10540 -10543 0
-10645 10540 0
-10645 10543 0
10646 -10543 -10543 -10497 0
-10646 10543 0
-10646 10543 0
-10646 10497 0
-7280 10647 10643 10644 10645 10646 0
7280 -10647 0
7280 -10643 0
7280 -10644 0
7280 -10645 0
7280 -10646 0
10648 -10212 -10212 0
-10648 10212 0
-10648 10212 0
-8181 10177 10648 0
8181 -10177 0
8181 -10648 0
10649 -10212 -10256 0
-10649 10212 0
-10649 10256 0
-9140 10184 10649 0
9140 -10184 0
9140 -10649 0
10650 -10212 -10261 0
-10650 10212 0
-10650 10261 0
-8180 10191 10650 0
8180 -10191 0
8180 -10650 0
10651 -10217 -10261 0
-10651 10217 0
-10651 10261 0
-8189 10198 10651 0
8189 -10198 0
8189 -10651 0
10652 -10212 -10207 0
-10652 10212 0
-10652 10207 0
-8184 10172 10652 0
8184 -10172 0
8184 -10652 0
10653 -10212 -10209 0
-10653 10212 0
-10653 10209 0
-8187 10171 10653 0
8187 -10171 0
8187 -10653 0
10654 -10217 -10209 0
-10654 10217 0
-10654 10209 0
-8190 10193 10654 0
8190 -10193 0
8190 -10654 0
10655 -10212 -10321 0
-10655 10212 0
-10655 10321 0
-8193 10224 10655 0
8193 -10224 0
8193 -10655 0
10656 -10212 -10306 0
-10656 10212 0
-10656 10306 0
-8196 10231 10656 0
8196 -10231 0
8196 -10656 0
10657 -10217 -10306 0
-10657 10217 0
-10657 10306 0
-8198 10236 10657 0
8198 -10236 0
8198 -10657 0
10658 -10256 -10217 0
-10658 10256 0
-10658 10217 0
-9157 10241 10658 0
9157 -10241 0
9157 -10658 0
10659 -10256 -10256 0
-10659 10256 0
-10659 10256 0
-9144 10246 10659 0
9144 -10246 0
9144 -10659 0
10660 -10256 -10207 0
-10660 10256 0
-10660 10207 0
-9146 10179 10660 0
9146 -10179 0
9146 -10660 0
10661 -10256 -10209 0
-10661 10256 0
-10661 10209 0
-9151 10182 10661 0
9151 -10182 0
9151 -10661 0
10662 -10261 -10209 0
-10662 10261 0
-10662 10209 0
-8186 10188 10662 0
8186 -10188 0
8186 -10662 0
10663 -10256 -10321 0
-10663 10256 0
-10663 10321 0
-9161 10266 10663 0
9161 -10266 0
9161 -10663 0
10664 -10256 -10306 0
-10664 10256 0
-10664 10306 0
-9166 10271 10664 0
9166 -10271 0
9166 -10664 0
10665 -10261 -10306 0
-10665 10261 0
-10665 10306 0
-8195 10276 10665 0
8195 -10276 0
8195 -10665 0
10666 -10207 -10217 0
-10666 10207 0
-10666 10217 0
-8200 10195 10666 0
8200 -10195 0
8200 -10666 0
10667 -10207 -10261 0
-10667 10207 0
-10667 10261 0
-8183 10186 10667 0
8183 -10186 0
8183 -10667 0
10668 -10207 -10207 0
-10668 10207 0
-10668 10207 0
-8202 10176 10668 0
8202 -10176 0
8202 -10668 0
10669 -10207 -10321 0
-10669 10207 0
-10669 10321 0
-8204 10219 10669 0
8204 -10219 0
8204 -10669 0
10670 -10207 -10306 0
-10670 10207 0
-10670 10306 0
-8206 10226 10670 0
8206 -10226 0
8206 -10670 0
10671 -10209 -10306 0
-10671 10209 0
-10671 10306 0
-8208 10228 10671 0
8208 -10228 0
8208 -10671 0
10672 -10321 -10217 0
-10672 10321 0
-10672 10217 0
-8210 10311 10672 0
8210 -10311 0
8210 -10672 0
10673 -10321 -10261 0
-10673 10321 0
-10673 10261 0
-8192 10316 10673 0
8192 -10316 0
8192 -10673 0
10674 -10321 -10209 0
-10674 10321 0
-10674 10209 0
-8212 10222 10674 0
8212 -10222 0
8212 -10674 0
10675 -10321 -10321 0
-10675 10321 0
-10675 10321 0
-8214 10326 10675 0
8214 -10326 0
8214 -10675 0
10676 -10444 -10441 0
-10676 10444 0
-10676 10441 0
10677 -10441 -10441 0
-10677 10441 0
-10677 10441 0
10678 -10441 -10444 0
-10678 10441 0
-10678 10444 0
10679 -10444 -10444 -10476 0
-10679 10444 0
-10679 10444 0
-10679 10476 0
-6621 10429 10676 10677 10678 10679 0
6621 -10429 0
6621 -10676 0
6621 -10677 0
6621 -10678 0
6621 -10679 0
10680 -10444 -10460 0
-10680 10444 0
-10680 10460 0
10681 -10441 -10460 0
-10681 10441 0
-10681 10460 0
10682 -10441 -10462 0
-10682 10441 0
-10682 10462 0
10683 -10444 -10462 -10476 0
-10683 10444 0
-10683 10462 0
-10683 10476 0
-6616 10432 10680 10681 10682 10683 0
6616 -10432 0
6616 -10680 0
6616 -10681 0
6616 -10682 0
6616 -10683 0
10684 -10444 -10474 0
-10684 10444 0
-10684 10474 0
10685 -10441 -10464 0
-10685 10441 0
-10685 10464 0
10686 -10441 -10474 0
-10686 10441 0
-10686 10474 0
10687 -10444 -10464 -10476 0
-10687 10444 0
-10687 10464 0
-10687 10476 0
-6615 10435 10684 10685 10686 10687 0
6615 -10435 0
6615 -10684 0
6615 -10685 0
6615 -10686 0
6615 -10687 0
10688 -10446 -10474 0
-10688 10446 0
-10688 10474 0
10689 -10472 -10474 0
-10689 10472 0
-10689 10474 0
10690 -10472 -10464 0
-10690 10472 0
-10690 10464 0
10691 -10446 -10464 -10476 0
-10691 10446 0
-10691 10464 0
-10691 10476 0
-6637 10438 10688 10689 10690 10691 0
6637 -10438 0
6637 -10688 0
6637 -10689 0
6637 -10690 0
6637 -10691 0
10692 -10444 -10693 0
-10692 10444 0
-10692 10693 0
10694 -10441 -10693 0
-10694 10441 0
-10694 10693 0
10695 -10441 -10696 0
-10695 10441 0
-10695 10696 0
10697 -10444 -10696 -10476 0
-10697 10444 0
-10697 10696 0
-10697 10476 0
-6628 10698 10692 10694 10695 10697 0
6628 -10698 0
6628 -10692 0
6628 -10694 0
6628 -10695 0
6628 -10697 0
10699 -10444 -10440 0
-10699 10444 0
-10699 10440 0
10700 -10441 -10443 0
-10700 10441 0
-10700 10443 0
10701 -10441 -10440 0
-10701 10441 0
-10701 10440 0
10702 -10444 -10443 -10476 0
-10702 10444 0
-10702 10443 0
-10702 10476 0
-6635 10428 10699 10700 10701 10702 0
6635 -10428 0
6635 -10699 0
6635 -10700 0
6635 -10701 0
6635 -10702 0
10703 -10446 -10440 0
-10703 10446 0
-10703 10440 0
10704 -10472 -10440 0
-10704 10472 0
-10704 10440 0
10705 -10472 -10443 0
-10705 10472 0
-10705 10443 0
10706 -10446 -10443 -10476 0
-10706 10446 0
-10706 10443 0
-10706 10476 0
-6642 10437 10703 10704 10705 10706 0
6642 -10437 0
6642 -10703 0
6642 -10704 0
6642 -10705 0
6642 -10706 0
10707 -10444 -10478 0
-10707 10444 0
-10707 10478 0
10708 -10441 -10478 0
-10708 10441 0
-10708 10478 0
10709 -10441 -10488 0
-10709 10441 0
-10709 10488 0
10710 -10444 -10488 -10476 0
-10710 10444 0
-10710 10488 0
-10710 10476 0
-6649 10449 10707 10708 10709 10710 0
6649 -10449 0
6649 -10707 0
6649 -10708 0
6649 -10709 0
6649 -10710 0
10711 -10444 -10480 0
-10711 10444 0
-10711 10480 0
10712 -10441 -10482 0
-10712 10441 0
-10712 10482 0
10713 -10441 -10480 0
-10713 10441 0
-10713 10480 0
10714 -10444 -10482 -10476 0
-10714 10444 0
-10714 10482 0
-10714 10476 0
-6656 10452 10711 10712 10713 10714 0
6656 -10452 0
6656 -10711 0
6656 -10712 0
6656 -10713 0
6656 -10714 0
10715 -10446 -10480 0
-10715 10446 0
-10715 10480 0
10716 -10472 -10480 0
-10716 10472 0
-10716 10480 0
10717 -10472 -10482 0
-10717 10472 0
-10717 10482 0
10718 -10446 -10482 -10476 0
-10718 10446 0
-10718 10482 0
-10718 10476 0
-6661 10454 10715 10716 10717 10718 0
6661 -10454 0
6661 -10715 0
6661 -10716 0
6661 -10717 0
6661 -10718 0
10719 -10462 -10472 0
-10719 10462 0
-10719 10472 0
10720 -10460 -10446 0
-10720 10460 0
-10720 10446 0
10721 -10460 -10472 0
-10721 10460 0
-10721 10472 0
10722 -10462 -10446 -10476 0
-10722 10462 0
-10722 10446 0
-10722 10476 0
-6639 10456 10719 10720 10721 10722 0
6639 -10456 0
6639 -10719 0
6639 -10720 0
6639 -10721 0
6639 -10722 0
10723 -10462 -10460 0
-10723 10462 0
-10723 10460 0
10724 -10460 -10460 0
-10724 10460 0
-10724 10460 0
10725 -10460 -10462 0
-10725 10460 0
-10725 10462 0
10726 -10462 -10462 -10476 0
-10726 10462 0
-10726 10462 0
-10726 10476 0
-6620 10458 10723 10724 10725 10726 0
6620 -10458 0
6620 -10723 0
6620 -10724 0
6620 -10725 0
6620 -10726 0
10727 -10462 -10693 0
-10727 10462 0
-10727 10693 0
10728 -10460 -10693 0
-10728 10460 0
-10728 10693 0
10729 -10460 -10696 0
-10729 10460 0
-10729 10696 0
10730 -10462 -10696 -10476 0
-10730 10462 0
-10730 10696 0
-10730 10476 0
-6623 10731 10727 10728 10729 10730 0
6623 -10731 0
6623 -10727 0
6623 -10728 0
6623 -10729 0
6623 -10730 0
10732 -10462 -10440 0
-10732 10462 0
-10732 10440 0
10733 -10460 -10443 0
-10733 10460 0
-10733 10443 0
10734 -10460 -10440 0
-10734 10460 0
-10734 10440 0
10735 -10462 -10443 -10476 0
-10735 10462 0
-10735 10443 0
-10735 10476 0
-6630 10431 10732 10733 10734 10735 0
6630 -10431 0
6630 -10732 0
6630 -10733 0
6630 -10734 0
6630 -10735 0
10736 -10464 -10440 0
-10736 10464 0
-10736 10440 0
10737 -10474 -10440 0
-10737 10474 0
-10737 10440 0
10738 -10474 -10443 0
-10738 10474 0
-10738 10443 0
10739 -10464 -10443 -10476 0
-10739 10464 0
-10739 10443 0
-10739 10476 0
-6632 10434 10736 10737 10738 10739 0
6632 -10434 0
6632 -10736 0
6632 -10737 0
6632 -10738 0
6632 -10739 0
10740 -10462 -10478 0
-10740 10462 0
-10740 10478 0
10741 -10460 -10478 0
-10741 10460 0
-10741 10478 0
10742 -10460 -10488 0
-10742 10460 0
-10742 10488 0
10743 -10462 -10488 -10476 0
-10743 10462 0
-10743 10488 0
-10743 10476 0
-6644 10466 10740 10741 10742 10743 0
6644 -10466 0
6644 -10740 0
6644 -10741 0
6644 -10742 0
6644 -10743 0
10744 -10462 -10480 0
-10744 10462 0
-10744 10480 0
10745 -10460 -10482 0
-10745 10460 0
-10745 10482 0
10746 -10460 -10480 0
-10746 10460 0
-10746 10480 0
10747 -10462 -10482 -10476 0
-10747 10462 0
-10747 10482 0
-10747 10476 0
-6651 10468 10744 10745 10746 10747 0
6651 -10468 0
6651 -10744 0
6651 -10745 0
6651 -10746 0
6651 -10747 0
10748 -10464 -10480 0
-10748 10464 0
-10748 10480 0
10749 -10474 -10480 0
-10749 10474 0
-10749 10480 0
10750 -10474 -10482 0
-10750 10474 0
-10750 10482 0
10751 -10464 -10482 -10476 0
-10751 10464 0
-10751 10482 0
-10751 10476 0
-6653 10470 10748 10749 10750 10751 0
6653 -10470 0
6653 -10748 0
6653 -10749 0
6653 -10750 0
6653 -10751 0
10752 -10696 -10472 0
-10752 10696 0
-10752 10472 0
10753 -10693 -10446 0
-10753 10693 0
-10753 10446 0
10754 -10693 -10472 0
-10754 10693 0
-10754 10472 0
10755 -10696 -10446 -10476 0
-10755 10696 0
-10755 10446 0
-10755 10476 0
-6666 10756 10752 10753 10754 10755 0
6666 -10756 0
6666 -10752 0
6666 -10753 0
6666 -10754 0
6666 -10755 0
10757 -10696 -10474 0
-10757 10696 0
-10757 10474 0
10758 -10693 -10464 0
-10758 10693 0
-10758 10464 0
10759 -10693 -10474 0
-10759 10693 0
-10759 10474 0
10760 -10696 -10464 -10476 0
-10760 10696 0
-10760 10464 0
-10760 10476 0
-6626 10761 10757 10758 10759 10760 0
6626 -10761 0
6626 -10757 0
6626 -10758 0
6626 -10759 0
6626 -10760 0
10762 -10696 -10693 0
-10762 10696 0
-10762 10693 0
10763 -10693 -10693 0
-10763 10693 0
-10763 10693 0
10764 -10693 -10696 0
-10764 10693 0
-10764 10696 0
10765 -10696 -10696 -10476 0
-10765 10696 0
-10765 10696 0
-10765 10476 0
-6671 10766 10762 10763 10764 10765 0
6671 -10766 0
6671 -10762 0
6671 -10763 0
6671 -10764 0
6671 -10765 0
10767 -10696 -10478 0
-10767 10696 0
-10767 10478 0
10768 -10693 -10478 0
-10768 10693 0
-10768 10478 0
10769 -10693 -10488 0
-10769 10693 0
-10769 10488 0
10770 -10696 -10488 -10476 0
-10770 10696 0
-10770 10488 0
-10770 10476 0
-6676 10771 10767 10768 10769 10770 0
6676 -10771 0
6676 -10767 0
6676 -10768 0
6676 -10769 0
6676 -10770 0
10772 -10696 -10480 0
-10772 10696 0
-10772 10480 0
10773 -10693 -10482 0
-10773 10693 0
-10773 10482 0
10774 -10693 -10480 0
-10774 10693 0
-10774 10480 0
10775 -10696 -10482 -10476 0
-10775 10696 0
-10775 10482 0
-10775 10476 0
-6681 10776 10772 10773 10774 10775 0
6681 -10776 0
6681 -10772 0
6681 -10773 0
6681 -10774 0
6681 -10775 0
10777 -10443 -10480 0
-10777 10443 0
-10777 10480 0
10778 -10440 -10480 0
-10778 10440 0
-10778 10480 0
10779 -10440 -10482 0
-10779 10440 0
-10779 10482 0
10780 -10443 -10482 -10476 0
-10780 10443 0
-10780 10482 0
-10780 10476 0
-6686 10451 10777 10778 10779 10780 0
6686 -10451 0
6686 -10777 0
6686 -10778 0
6686 -10779 0
6686 -10780 0
10781 -10488 -10472 0
-10781 10488 0
-10781 10472 0
10782 -10478 -10446 0
-10782 10478 0
-10782 10446 0
10783 -10478 -10472 0
-10783 10478 0
-10783 10472 0
10784 -10488 -10446 -10476 0
-10784 10488 0
-10784 10446 0
-10784 10476 0
-6691 10484 10781 10782 10783 10784 0
6691 -10484 0
6691 -10781 0
6691 -10782 0
6691 -10783 0
6691 -10784 0
10785 -10488 -10474 0
-10785 10488 0
-10785 10474 0
10786 -10478 -10464 0
-10786 10478 0
-10786 10464 0
10787 -10478 -10474 0
-10787 10478 0
-10787 10474 0
10788 -10488 -10464 -10476 0
-10788 10488 0
-10788 10464 0
-10788 10476 0
-6647 10486 10785 10786 10787 10788 0
6647 -10486 0
6647 -10785 0
6647 -10786 0
6647 -10787 0
6647 -10788 0
10789 -10488 -10440 0
-10789 10488 0
-10789 10440 0
10790 -10478 -10443 0
-10790 10478 0
-10790 10443 0
10791 -10478 -10440 0
-10791 10478 0
-10791 10440 0
10792 -10488 -10443 -10476 0
-10792 10488 0
-10792 10443 0
-10792 10476 0
-6696 10448 10789 10790 10791 10792 0
6696 -10448 0
6696 -10789 0
6696 -10790 0
6696 -10791 0
6696 -10792 0
10793 -10488 -10478 0
-10793 10488 0
-10793 10478 0
10794 -10478 -10478 0
-10794 10478 0
-10794 10478 0
10795 -10478 -10488 0
-10795 10478 0
-10795 10488 0
10796 -10488 -10488 -10476 0
-10796 10488 0
-10796 10488 0
-10796 10476 0
-6701 10490 10793 10794 10795 10796 0
6701 -10490 0
6701 -10793 0
6701 -10794 0
6701 -10795 0
6701 -10796 0
10797 -10123 -10123 0
-10797 10123 0
-10797 10123 0
-9688 10108 10797 0
9688 -10108 0
9688 -10797 0
10798 -10123 -10141 0
-10798 10123 0
-10798 10141 0
-9980 10111 10798 0
9980 -10111 0
9980 -10798 0
10799 -10123 -10143 0
-10799 10123 0
-10799 10143 0
-9687 10114 10799 0
9687 -10114 0
9687 -10799 0
10800 -10125 -10143 0
-10800 10125 0
-10800 10143 0
-9696 10117 10800 0
9696 -10117 0
9696 -10800 0
10801 -10123 -10802 0
-10801 10123 0
-10801 10802 0
-9691 10803 10801 0
9691 -10803 0
9691 -10801 0
10804 -10123 -10122 0
-10804 10123 0
-10804 10122 0
-9694 10107 10804 0
9694 -10107 0
9694 -10804 0
10805 -10125 -10122 0
-10805 10125 0
-10805 10122 0
-9697 10116 10805 0
9697 -10116 0
9697 -10805 0
10806 -10123 -10167 0
-10806 10123 0
-10806 10167 0
-9700 10128 10806 0
9700 -10128 0
9700 -10806 0
10807 -10123 -10161 0
-10807 10123 0
-10807 10161 0
-9703 10131 10807 0
9703 -10131 0
9703 -10807 0
10808 -10125 -10161 0
-10808 10125 0
-10808 10161 0
-9705 10133 10808 0
9705 -10133 0
9705 -10808 0
10809 -10141 -10125 0
-10809 10141 0
-10809 10125 0
-9997 10135 10809 0
9997 -10135 0
9997 -10809 0
10810 -10141 -10141 0
-10810 10141 0
-10810 10141 0
-9984 10137 10810 0
9984 -10137 0
9984 -10810 0
10811 -10141 -10802 0
-10811 10141 0
-10811 10802 0
-9986 10812 10811 0
9986 -10812 0
9986 -10811 0
10813 -10141 -10122 0
-10813 10141 0
-10813 10122 0
-9991 10110 10813 0
9991 -10110 0
9991 -10813 0
10814 -10143 -10122 0
-10814 10143 0
-10814 10122 0
-9693 10113 10814 0
9693 -10113 0
9693 -10814 0
10815 -10141 -10167 0
-10815 10141 0
-10815 10167 0
-10001 10145 10815 0
10001 -10145 0
10001 -10815 0
10816 -10141 -10161 0
-10816 10141 0
-10816 10161 0
-10006 10147 10816 0
10006 -10147 0
10006 -10816 0
10817 -10143 -10161 0
-10817 10143 0
-10817 10161 0
-9702 10149 10817 0
9702 -10149 0
9702 -10817 0
10818 -10802 -10125 0
-10818 10802 0
-10818 10125 0
-9707 10819 10818 0
9707 -10819 0
9707 -10818 0
10820 -10802 -10143 0
-10820 10802 0
-10820 10143 0
-9690 10821 10820 0
9690 -10821 0
9690 -10820 0
10822 -10802 -10802 0
-10822 10802 0
-10822 10802 0
-9709 10823 10822 0
9709 -10823 0
9709 -10822 0
10824 -10802 -10167 0
-10824 10802 0
-10824 10167 0
-9711 10825 10824 0
9711 -10825 0
9711 -10824 0
10826 -10802 -10161 0
-10826 10802 0
-10826 10161 0
-9713 10827 10826 0
9713 -10827 0
9713 -10826 0
10828 -10122 -10161 0
-10828 10122 0
-10828 10161 0
-9715 10130 10828 0
9715 -10130 0
9715 -10828 0
10829 -10167 -10125 0
-10829 10167 0
-10829 10125 0
-9717 10163 10829 0
9717 -10163 0
9717 -10829 0
10830 -10167 -10143 0
-10830 10167 0
-10830 10143 0
-9699 10165 10830 0
9699 -10165 0
9699 -10830 0
10831 -10167 -10122 0
-10831 10167 0
-10831 10122 0
-9719 10127 10831 0
9719 -10127 0
9719 -10831 0
10832 -10167 -10167 0
-10832 10167 0
-10832 10167 0
-9721 10169 10832 0
9721 -10169 0
9721 -10832 0
10833 -10212 -10205 0
-10833 10212 0
-10833 10205 0
10834 -10205 -10205 0
-10834 10205 0
-10834 10205 0
10835 -10205 -10212 0
-10835 10205 0
-10835 10212 0
10836 -10212 -10212 -10291 0
-10836 10212 0
-10836 10212 0
-10836 10291 0
-7722 10177 10833 10834 10835 10836 0
7722 -10177 0
7722 -10833 0
7722 -10834 0
7722 -10835 0
7722 -10836 0
10837 -10212 -10251 0
-10837 10212 0
-10837 10251 0
10838 -10205 -10251 0
-10838 10205 0
-10838 10251 0
10839 -10205 -10256 0
-10839 10205 0
-10839 10256 0
10840 -10212 -10256 -10291 0
-10840 10212 0
-10840 10256 0
-10840 10291 0
-7717 10184 10837 10838 10839 10840 0
7717 -10184 0
7717 -10837 0
7717 -10838 0
7717 -10839 0
7717 -10840 0
10841 -10212 -10286 0
-10841 10212 0
-10841 10286 0
10842 -10205 -10261 0
-10842 10205 0
-10842 10261 0
10843 -10205 -10286 0
-10843 10205 0
-10843 10286 0
10844 -10212 -10261 -10291 0
-10844 10212 0
-10844 10261 0
-10844 10291 0
-7716 10191 10841 10842 10843 10844 0
7716 -10191 0
7716 -10841 0
7716 -10842 0
7716 -10843 0
7716 -10844 0
10845 -10217 -10286 0
-10845 10217 0
-10845 10286 0
10846 -10281 -10286 0
-10846 10281 0
-10846 10286 0
10847 -10281 -10261 0
-10847 10281 0
-10847 10261 0
10848 -10217 -10261 -10291 0
-10848 10217 0
-10848 10261 0
-10848 10291 0
-7738 10198 10845 10846 10847 10848 0
7738 -10198 0
7738 -10845 0
7738 -10846 0
7738 -10847 0
7738 -10848 0
10849 -10212 -10200 0
-10849 10212 0
-10849 10200 0
10850 -10205 -10200 0
-10850 10205 0
-10850 10200 0
10851 -10205 -10207 0
-10851 10205 0
-10851 10207 0
10852 -10212 -10207 -10291 0
-10852 10212 0
-10852 10207 0
-10852 10291 0
-7729 10172 10849 10850 10851 10852 0
7729 -10172 0
7729 -10849 0
7729 -10850 0
7729 -10851 0
7729 -10852 0
10853 -10212 -10203 0
-10853 10212 0
-10853 10203 0
10854 -10205 -10209 0
-10854 10205 0
-10854 10209 0
10855 -10205 -10203 0
-10855 10205 0
-10855 10203 0
10856 -10212 -10209 -10291 0
-10856 10212 0
-10856 10209 0
-10856 10291 0
-7736 10171 10853 10854 10855 10856 0
7736 -10171 0
7736 -10853 0
7736 -10854 0
7736 -10855 0
7736 -10856 0
10857 -10217 -10203 0
-10857 10217 0
-10857 10203 0
10858 -10281 -10203 0
-10858 10281 0
-10858 10203 0
10859 -10281 -10209 0
-10859 10281 0
-10859 10209 0
10860 -10217 -10209 -10291 0
-10860 10217 0
-10860 10209 0
-10860 10291 0
-7743 10193 10857 10858 10859 10860 0
7743 -10193 0
7743 -10857 0
7743 -10858 0
7743 -10859 0
7743 -10860 0
10861 -10212 -10296 0
-10861 10212 0
-10861 10296 0
10862 -10205 -10296 0
-10862 10205 0
-10862 10296 0
10863 -10205 -10321 0
-10863 10205 0
-10863 10321 0
10864 -10212 -10321 -10291 0
-10864 10212 0
-10864 10321 0
-10864 10291 0
-7750 10224 10861 10862 10863 10864 0
7750 -10224 0
7750 -10861 0
7750 -10862 0
7750 -10863 0
7750 -10864 0
10865 -10212 -10301 0
-10865 10212 0
-10865 10301 0
10866 -10205 -10306 0
-10866 10205 0
-10866 10306 0
10867 -10205 -10301 0
-10867 10205 0
-10867 10301 0
10868 -10212 -10306 -10291 0
-10868 10212 0
-10868 10306 0
-10868 10291 0
-7757 10231 10865 10866 10867 10868 0
7757 -10231 0
7757 -10865 0
7757 -10866 0
7757 -10867 0
7757 -10868 0
10869 -10217 -10301 0
-10869 10217 0
-10869 10301 0
10870 -10281 -10301 0
-10870 10281 0
-10870 10301 0
10871 -10281 -10306 0
-10871 10281 0
-10871 10306 0
10872 -10217 -10306 -10291 0
-10872 10217 0
-10872 10306 0
-10872 10291 0
-7762 10236 10869 10870 10871 10872 0
7762 -10236 0
7762 -10869 0
7762 -10870 0
7762 -10871 0
7762 -10872 0
10873 -10256 -10281 0
-10873 10256 0
-10873 10281 0
10874 -10251 -10217 0
-10874 10251 0
-10874 10217 0
10875 -10251 -10281 0
-10875 10251 0
-10875 10281 0
10876 -10256 -10217 -10291 0
-10876 10256 0
-10876 10217 0
-10876 10291 0
-7740 10241 10873 10874 10875 10876 0
7740 -10241 0
7740 -10873 0
7740 -10874 0
7740 -10875 0
7740 -10876 0
10877 -10256 -10251 0
-10877 10256 0
-10877 10251 0
10878 -10251 -10251 0
-10878 10251 0
-10878 10251 0
10879 -10251 -10256 0
-10879 10251 0
-10879 10256 0
10880 -10256 -10256 -10291 0
-10880 10256 0
-10880 10256 0
-10880 10291 0
-7721 10246 10877 10878 10879 10880 0
7721 -10246 0
7721 -10877 0
7721 -10878 0
7721 -10879 0
7721 -10880 0
10881 -10256 -10200 0
-10881 10256 0
-10881 10200 0
10882 -10251 -10200 0
-10882 10251 0
-10882 10200 0
10883 -10251 -10207 0
-10883 10251 0
-10883 10207 0
10884 -10256 -10207 -10291 0
-10884 10256 0
-10884 10207 0
-10884 10291 0
-7724 10179 10881 10882 10883 10884 0
7724 -10179 0
7724 -10881 0
7724 -10882 0
7724 -10883 0
7724 -10884 0
10885 -10256 -10203 0
-10885 10256 0
-10885 10203 0
10886 -10251 -10209 0
-10886 10251 0
-10886 10209 0
10887 -10251 -10203 0
-10887 10251 0
-10887 10203 0
10888 -10256 -10209 -10291 0
-10888 10256 0
-10888 10209 0
-10888 10291 0
-7731 10182 10885 10886 10887 10888 0
7731 -10182 0
7731 -10885 0
7731 -10886 0
7731 -10887 0
7731 -10888 0
10889 -10261 -10203 0
-10889 10261 0
-10889 10203 0
10890 -10286 -10203 0
-10890 10286 0
-10890 10203 0
10891 -10286 -10209 0
-10891 10286 0
-10891 10209 0
10892 -10261 -10209 -10291 0
-10892 10261 0
-10892 10209 0
-10892 10291 0
-7733 10188 10889 10890 10891 10892 0
7733 -10188 0
7733 -10889 0
7733 -10890 0
7733 -10891 0
7733 -10892 0
10893 -10256 -10296 0
-10893 10256 0
-10893 10296 0
10894 -10251 -10296 0
-10894 10251 0
-10894 10296 0
10895 -10251 -10321 0
-10895 10251 0
-10895 10321 0
10896 -10256 -10321 -10291 0
-10896 10256 0
-10896 10321 0
-10896 10291 0
-7745 10266 10893 10894 10895 10896 0
7745 -10266 0
7745 -10893 0
7745 -10894 0
7745 -10895 0
7745 -10896 0
10897 -10256 -10301 0
-10897 10256 0
-10897 10301 0
10898 -10251 -10306 0
-10898 10251 0
-10898 10306 0
10899 -10251 -10301 0
-10899 10251 0
-10899 10301 0
10900 -10256 -10306 -10291 0
-10900 10256 0
-10900 10306 0
-10900 10291 0
-7752 10271 10897 10898 10899 10900 0
7752 -10271 0
7752 -10897 0
7752 -10898 0
7752 -10899 0
7752 -10900 0
10901 -10261 -10301 0
-10901 10261 0
-10901 10301 0
10902 -10286 -10301 0
-10902 10286 0
-10902 10301 0
10903 -10286 -10306 0
-10903 10286 0
-10903 10306 0
10904 -10261 -10306 -10291 0
-10904 10261 0
-10904 10306 0
-10904 10291 0
-7754 10276 10901 10902 10903 10904 0
7754 -10276 0
7754 -10901 0
7754 -10902 0
7754 -10903 0
7754 -10904 0
10905 -10207 -10281 0
-10905 10207 0
-10905 10281 0
10906 -10200 -10217 0
-10906 10200 0
-10906 10217 0
10907 -10200 -10281 0
-10907 10200 0
-10907 10281 0
10908 -10207 -10217 -10291 0
-10908 10207 0
-10908 10217 0
-10908 10291 0
-7767 10195 10905 10906 10907 10908 0
7767 -10195 0
7767 -10905 0
7767 -10906 0
7767 -10907 0
7767 -10908 0
10909 -10207 -10286 0
-10909 10207 0
-10909 10286 0
10910 -10200 -10261 0
-10910 10200 0
-10910 10261 0
10911 -10200 -10286 0
-10911 10200 0
-10911 10286 0
10912 -10207 -10261 -10291 0
-10912 10207 0
-10912 10261 0
-10912 10291 0
-7727 10186 10909 10910 10911 10912 0
7727 -10186 0
7727 -10909 0
7727 -10910 0
7727 -10911 0
7727 -10912 0
10913 -10207 -10200 0
-10913 10207 0
-10913 10200 0
10288 -10200 -10200 0
-10288 10200 0
-10288 10200 0
10914 -10200 -10207 0
-10914 10200 0
-10914 10207 0
10915 -10207 -10207 -10291 0
-10915 10207 0
-10915 10207 0
-10915 10291 0
-7772 10176 10913 10288 10914 10915 0
7772 -10176 0
7772 -10913 0
7772 -10288 0
7772 -10914 0
7772 -10915 0
10916 -10207 -10296 0
-10916 10207 0
-10916 10296 0
10917 -10200 -10296 0
-10917 10200 0
-10917 10296 0
10918 -10200 -10321 0
-10918 10200 0
-10918 10321 0
10919 -10207 -10321 -10291 0
-10919 10207 0
-10919 10321 0
-10919 10291 0
-7777 10219 10916 10917 10918 10919 0
7777 -10219 0
7777 -10916 0
7777 -10917 0
7777 -10918 0
7777 -10919 0
10920 -10207 -10301 0
-10920 10207 0
-10920 10301 0
10921 -10200 -10306 0
-10921 10200 0
-10921 10306 0
10922 -10200 -10301 0
-10922 10200 0
-10922 10301 0
10923 -10207 -10306 -10291 0
-10923 10207 0
-10923 10306 0
-10923 10291 0
-7782 10226 10920 10921 10922 10923 0
7782 -10226 0
7782 -10920 0
7782 -10921 0
7782 -10922 0
7782 -10923 0
10924 -10209 -10301 0
-10924 10209 0
-10924 10301 0
10925 -10203 -10301 0
-10925 10203 0
-10925 10301 0
10926 -10203 -10306 0
-10926 10203 0
-10926 10306 0
10927 -10209 -10306 -10291 0
-10927 10209 0
-10927 10306 0
-10927 10291 0
-7787 10228 10924 10925 10926 10927 0
7787 -10228 0
7787 -10924 0
7787 -10925 0
7787 -10926 0
7787 -10927 0
10928 -10321 -10281 0
-10928 10321 0
-10928 10281 0
10929 -10296 -10217 0
-10929 10296 0
-10929 10217 0
10930 -10296 -10281 0
-10930 10296 0
-10930 10281 0
10931 -10321 -10217 -10291 0
-10931 10321 0
-10931 10217 0
-10931 10291 0
-7792 10311 10928 10929 10930 10931 0
7792 -10311 0
7792 -10928 0
7792 -10929 0
7792 -10930 0
7792 -10931 0
10932 -10321 -10286 0
-10932 10321 0
-10932 10286 0
10933 -10296 -10261 0
-10933 10296 0
-10933 10261 0
10934 -10296 -10286 0
-10934 10296 0
-10934 10286 0
10935 -10321 -10261 -10291 0
-10935 10321 0
-10935 10261 0
-10935 10291 0
-7748 10316 10932 10933 10934 10935 0
7748 -10316 0
7748 -10932 0
7748 -10933 0
7748 -10934 0
7748 -10935 0
10936 -10321 -10203 0
-10936 10321 0
-10936 10203 0
10937 -10296 -10209 0
-10937 10296 0
-10937 10209 0
10938 -10296 -10203 0
-10938 10296 0
-10938 10203 0
10939 -10321 -10209 -10291 0
-10939 10321 0
-10939 10209 0
-10939 10291 0
-7797 10222 10936 10937 10938 10939 0
7797 -10222 0
7797 -10936 0
7797 -10937 0
7797 -10938 0
7797 -10939 0
10940 -10321 -10296 0
-10940 10321 0
-10940 10296 0
10941 -10296 -10296 0
-10941 10296 0
-10941 10296 0
10942 -10296 -10321 0
-10942 10296 0
-10942 10321 0
10943 -10321 -10321 -10291 0
-10943 10321 0
-10943 10321 0
-10943 10291 0
-7802 10326 10940 10941 10942 10943 0
7802 -10326 0
7802 -10940 0
7802 -10941 0
7802 -10942 0
7802 -10943 0
10944 -10352 -10352 0
-10944 10352 0
-10944 10352 0
-7342 10329 10944 0
7342 -10329 0
7342 -10944 0
10945 -10352 -10368 0
-10945 10352 0
-10945 10368 0
-7345 10332 10945 0
7345 -10332 0
7345 -10945 0
10946 -10352 -10370 0
-10946 10352 0
-10946 10370 0
-7348 10335 10946 0
7348 -10335 0
7348 -10946 0
10947 -10354 -10370 0
-10947 10354 0
-10947 10370 0
-7351 10338 10947 0
7351 -10338 0
7351 -10947 0
10948 -10352 -10380 0
-10948 10352 0
-10948 10380 0
-8225 10341 10948 0
8225 -10341 0
8225 -10948 0
10949 -10352 -10382 0
-10949 10352 0
-10949 10382 0
-7341 10344 10949 0
7341 -10344 0
7341 -10949 0
10950 -10354 -10382 0
-10950 10354 0
-10950 10382 0
-7350 10346 10950 0
7350 -10346 0
7350 -10950 0
10951 -10352 -10424 0
-10951 10352 0
-10951 10424 0
-7354 10400 10951 0
7354 -10400 0
7354 -10951 0
10952 -10352 -10351 0
-10952 10352 0
-10952 10351 0
-7357 10328 10952 0
7357 -10328 0
7357 -10952 0
10953 -10354 -10351 0
-10953 10354 0
-10953 10351 0
-7359 10337 10953 0
7359 -10337 0
7359 -10953 0
10954 -10368 -10354 0
-10954 10368 0
-10954 10354 0
-7361 10356 10954 0
7361 -10356 0
7361 -10954 0
10955 -10368 -10368 0
-10955 10368 0
-10955 10368 0
-7363 10358 10955 0
7363 -10358 0
7363 -10955 0
10956 -10368 -10380 0
-10956 10368 0
-10956 10380 0
-8220 10360 10956 0
8220 -10360 0
8220 -10956 0
10957 -10368 -10382 0
-10957 10368 0
-10957 10382 0
-7344 10362 10957 0
7344 -10362 0
7344 -10957 0
10958 -10370 -10382 0
-10958 10370 0
-10958 10382 0
-7347 10364 10958 0
7347 -10364 0
7347 -10958 0
10959 -10368 -10424 0
-10959 10368 0
-10959 10424 0
-7365 10409 10959 0
7365 -10409 0
7365 -10959 0
10960 -10368 -10351 0
-10960 10368 0
-10960 10351 0
-7367 10331 10960 0
7367 -10331 0
7367 -10960 0
10961 -10370 -10351 0
-10961 10370 0
-10961 10351 0
-7369 10334 10961 0
7369 -10334 0
7369 -10961 0
10962 -10380 -10354 0
-10962 10380 0
-10962 10354 0
-8250 10372 10962 0
8250 -10372 0
8250 -10962 0
10963 -10380 -10370 0
-10963 10380 0
-10963 10370 0
-8223 10374 10963 0
8223 -10374 0
8223 -10963 0
10964 -10380 -10380 0
-10964 10380 0
-10964 10380 0
-8255 10376 10964 0
8255 -10376 0
8255 -10964 0
10965 -10380 -10424 0
-10965 10380 0
-10965 10424 0
-8260 10966 10965 0
8260 -10966 0
8260 -10965 0
10967 -10380 -10351 0
-10967 10380 0
-10967 10351 0
-8265 10340 10967 0
8265 -10340 0
8265 -10967 0
10968 -10382 -10351 0
-10968 10382 0
-10968 10351 0
-7356 10343 10968 0
7356 -10343 0
7356 -10968 0
10969 -10424 -10354 0
-10969 10424 0
-10969 10354 0
-7371 10420 10969 0
7371 -10420 0
7371 -10969 0
10970 -10424 -10370 0
-10970 10424 0
-10970 10370 0
-7373 10422 10970 0
7373 -10422 0
7373 -10970 0
10971 -10424 -10382 0
-10971 10424 0
-10971 10382 0
-7353 10399 10971 0
7353 -10399 0
7353 -10971 0
10972 -10424 -10424 0
-10972 10424 0
-10972 10424 0
-7375 10426 10972 0
7375 -10426 0
7375 -10972 0
10973 -10492 -10492 0
-10973 10492 0
-10973 10492 0
-8377 10498 10973 0
8377 -10498 0
8377 -10973 0
10974 -10492 -10503 0
-10974 10492 0
-10974 10503 0
-8372 10505 10974 0
8372 -10505 0
8372 -10974 0
10975 -10492 -10509 0
-10975 10492 0
-10975 10509 0
-8371 10512 10975 0
8371 -10512 0
8371 -10975 0
10976 -10514 -10509 0
-10976 10514 0
-10976 10509 0
-8393 10519 10976 0
8393 -10519 0
8393 -10976 0
10977 -10492 -10524 0
-10977 10492 0
-10977 10524 0
-8384 10526 10977 0
8384 -10526 0
8384 -10977 0
10978 -10492 -10530 0
-10978 10492 0
-10978 10530 0
-8391 10533 10978 0
8391 -10533 0
8391 -10978 0
10979 -10514 -10530 0
-10979 10514 0
-10979 10530 0
-8398 10538 10979 0
8398 -10538 0
8398 -10979 0
10980 -10492 -10543 0
-10980 10492 0
-10980 10543 0
-8405 10545 10980 0
8405 -10545 0
8405 -10980 0
10981 -10492 -10549 0
-10981 10492 0
-10981 10549 0
-8412 10552 10981 0
8412 -10552 0
8412 -10981 0
10982 -10514 -10549 0
-10982 10514 0
-10982 10549 0
-8417 10557 10982 0
8417 -10557 0
8417 -10982 0
10983 -10503 -10514 0
-10983 10503 0
-10983 10514 0
-8395 10562 10983 0
8395 -10562 0
8395 -10983 0
10984 -10503 -10503 0
-10984 10503 0
-10984 10503 0
-8376 10567 10984 0
8376 -10567 0
8376 -10984 0
10985 -10503 -10524 0
-10985 10503 0
-10985 10524 0
-8379 10572 10985 0
8379 -10572 0
8379 -10985 0
10986 -10503 -10530 0
-10986 10503 0
-10986 10530 0
-8386 10577 10986 0
8386 -10577 0
8386 -10986 0
10987 -10509 -10530 0
-10987 10509 0
-10987 10530 0
-8388 10582 10987 0
8388 -10582 0
8388 -10987 0
10988 -10503 -10543 0
-10988 10503 0
-10988 10543 0
-8400 10587 10988 0
8400 -10587 0
8400 -10988 0
10989 -10503 -10549 0
-10989 10503 0
-10989 10549 0
-8407 10592 10989 0
8407 -10592 0
8407 -10989 0
10990 -10509 -10549 0
-10990 10509 0
-10990 10549 0
-8409 10597 10990 0
8409 -10597 0
8409 -10990 0
10991 -10524 -10514 0
-10991 10524 0
-10991 10514 0
-8422 10602 10991 0
8422 -10602 0
8422 -10991 0
10992 -10524 -10509 0
-10992 10524 0
-10992 10509 0
-8382 10607 10992 0
8382 -10607 0
8382 -10992 0
10993 -10524 -10524 0
-10993 10524 0
-10993 10524 0
-8427 10612 10993 0
8427 -10612 0
8427 -10993 0
10994 -10524 -10543 0
-10994 10524 0
-10994 10543 0
-8432 10617 10994 0
8432 -10617 0
8432 -10994 0
10995 -10524 -10549 0
-10995 10524 0
-10995 10549 0
-8437 10622 10995 0
8437 -10622 0
8437 -10995 0
10996 -10530 -10549 0
-10996 10530 0
-10996 10549 0
-8442 10627 10996 0
8442 -10627 0
8442 -10996 0
10997 -10543 -10514 0
-10997 10543 0
-10997 10514 0
-8447 10632 10997 0
8447 -10632 0
8447 -10997 0
10998 -10543 -10509 0
-10998 10543 0
-10998 10509 0
-8403 10637 10998 0
8403 -10637 0
8403 -10998 0
10999 -10543 -10530 0
-10999 10543 0
-10999 10530 0
-8452 10642 10999 0
8452 -10642 0
8452 -10999 0
11000 -10543 -10543 0
-11000 10543 0
-11000 10543 0
-8457 10647 11000 0
8457 -10647 0
8457 -11000 0
11001 -10328 -10400 0
-11001 10328 0
-11001 10400 0
11002 -10400 -10400 0
-11002 10400 0
-11002 10400 0
11003 -10400 -10328 0
-11003 10400 0
-11003 10328 0
11004 -10328 -10328 -10426 0
-11004 10328 0
-11004 10328 0
-11004 10426 0
-6900 10329 11001 11002 11003 11004 0
6900 -10329 0
6900 -11001 0
6900 -11002 0
6900 -11003 0
6900 -11004 0
11005 -10328 -10409 0
-11005 10328 0
-11005 10409 0
11006 -10400 -10409 0
-11006 10400 0
-11006 10409 0
11007 -10400 -10331 0
-11007 10400 0
-11007 10331 0
11008 -10328 -10331 -10426 0
-11008 10328 0
-11008 10331 0
-11008 10426 0
-6895 10332 11005 11006 11007 11008 0
6895 -10332 0
6895 -11005 0
6895 -11006 0
6895 -11007 0
6895 -11008 0
11009 -10328 -10422 0
-11009 10328 0
-11009 10422 0
11010 -10400 -10334 0
-11010 10400 0
-11010 10334 0
11011 -10400 -10422 0
-11011 10400 0
-11011 10422 0
11012 -10328 -10334 -10426 0
-11012 10328 0
-11012 10334 0
-11012 10426 0
-6894 10335 11009 11010 11011 11012 0
6894 -10335 0
6894 -11009 0
6894 -11010 0
6894 -11011 0
6894 -11012 0
11013 -10337 -10422 0
-11013 10337 0
-11013 10422 0
11014 -10420 -10422 0
-11014 10420 0
-11014 10422 0
11015 -10420 -10334 0
-11015 10420 0
-11015 10334 0
11016 -10337 -10334 -10426 0
-11016 10337 0
-11016 10334 0
-11016 10426 0
-6916 10338 11013 11014 11015 11016 0
6916 -10338 0
6916 -11013 0
6916 -11014 0
6916 -11015 0
6916 -11016 0
11017 -10328 -10966 0
-11017 10328 0
-11017 10966 0
11018 -10400 -10966 0
-11018 10400 0
-11018 10966 0
11019 -10400 -10340 0
-11019 10400 0
-11019 10340 0
11020 -10328 -10340 -10426 0
-11020 10328 0
-11020 10340 0
-11020 10426 0
-6907 10341 11017 11018 11019 11020 0
6907 -10341 0
6907 -11017 0
6907 -11018 0
6907 -11019 0
6907 -11020 0
11021 -10328 -10399 0
-11021 10328 0
-11021 10399 0
11022 -10400 -10343 0
-11022 10400 0
-11022 10343 0
11023 -10400 -10399 0
-11023 10400 0
-11023 10399 0
11024 -10328 -10343 -10426 0
-11024 10328 0
-11024 10343 0
-11024 10426 0
-6914 10344 11021 11022 11023 11024 0
6914 -10344 0
6914 -11021 0
6914 -11022 0
6914 -11023 0
6914 -11024 0
11025 -10337 -10399 0
-11025 10337 0
-11025 10399 0
11026 -10420 -10399 0
-11026 10420 0
-11026 10399 0
11027 -10420 -10343 0
-11027 10420 0
-11027 10343 0
11028 -10337 -10343 -10426 0
-11028 10337 0
-11028 10343 0
-11028 10426 0
-6921 10346 11025 11026 11027 11028 0
6921 -10346 0
6921 -11025 0
6921 -11026 0
6921 -11027 0
6921 -11028 0
11029 -10328 -10416 0
-11029 10328 0
-11029 10416 0
11030 -10400 -10416 0
-11030 10400 0
-11030 10416 0
11031 -10400 -10348 0
-11031 10400 0
-11031 10348 0
11032 -10328 -10348 -10426 0
-11032 10328 0
-11032 10348 0
-11032 10426 0
-6928 10349 11029 11030 11031 11032 0
6928 -10349 0
6928 -11029 0
6928 -11030 0
6928 -11031 0
6928 -11032 0
11033 -10328 -10424 0
-11033 10328 0
-11033 10424 0
11034 -10400 -10351 0
-11034 10400 0
-11034 10351 0
11035 -10400 -10424 0
-11035 10400 0
-11035 10424 0
11036 -10328 -10351 -10426 0
-11036 10328 0
-11036 10351 0
-11036 10426 0
-6935 10352 11033 11034 11035 11036 0
6935 -10352 0
6935 -11033 0
6935 -11034 0
6935 -11035 0
6935 -11036 0
11037 -10337 -10424 0
-11037 10337 0
-11037 10424 0
11038 -10420 -10424 0
-11038 10420 0
-11038 10424 0
11039 -10420 -10351 0
-11039 10420 0
-11039 10351 0
11040 -10337 -10351 -10426 0
-11040 10337 0
-11040 10351 0
-11040 10426 0
-6940 10354 11037 11038 11039 11040 0
6940 -10354 0
6940 -11037 0
6940 -11038 0
6940 -11039 0
6940 -11040 0
11041 -10331 -10420 0
-11041 10331 0
-11041 10420 0
11042 -10409 -10337 0
-11042 10409 0
-11042 10337 0
11043 -10409 -10420 0
-11043 10409 0
-11043 10420 0
11044 -10331 -10337 -10426 0
-11044 10331 0
-11044 10337 0
-11044 10426 0
-6918 10356 11041 11042 11043 11044 0
6918 -10356 0
6918 -11041 0
6918 -11042 0
6918 -11043 0
6918 -11044 0
11045 -10331 -10409 0
-11045 10331 0
-11045 10409 0
11046 -10409 -10409 0
-11046 10409 0
-11046 10409 0
11047 -10409 -10331 0
-11047 10409 0
-11047 10331 0
11048 -10331 -10331 -10426 0
-11048 10331 0
-11048 10331 0
-11048 10426 0
-6899 10358 11045 11046 11047 11048 0
6899 -10358 0
6899 -11045 0
6899 -11046 0
6899 -11047 0
6899 -11048 0
11049 -10331 -10966 0
-11049 10331 0
-11049 10966 0
11050 -10409 -10966 0
-11050 10409 0
-11050 10966 0
11051 -10409 -10340 0
-11051 10409 0
-11051 10340 0
11052 -10331 -10340 -10426 0
-11052 10331 0
-11052 10340 0
-11052 10426 0
-6902 10360 11049 11050 11051 11052 0
6902 -10360 0
6902 -11049 0
6902 -11050 0
6902 -11051 0
6902 -11052 0
11053 -10331 -10399 0
-11053 10331 0
-11053 10399 0
11054 -10409 -10343 0
-11054 10409 0
-11054 10343 0
11055 -10409 -10399 0
-11055 10409 0
-11055 10399 0
11056 -10331 -10343 -10426 0
-11056 10331 0
-11056 10343 0
-11056 10426 0
-6909 10362 11053 11054 11055 11056 0
6909 -10362 0
6909 -11053 0
6909 -11054 0
6909 -11055 0
6909 -11056 0
11057 -10334 -10399 0
-11057 10334 0
-11057 10399 0
11058 -10422 -10399 0
-11058 10422 0
-11058 10399 0
11059 -10422 -10343 0
-11059 10422 0
-11059 10343 0
11060 -10334 -10343 -10426 0
-11060 10334 0
-11060 10343 0
-11060 10426 0
-6911 10364 11057 11058 11059 11060 0
6911 -10364 0
6911 -11057 0
6911 -11058 0
6911 -11059 0
6911 -11060 0
11061 -10331 -10416 0
-11061 10331 0
-11061 10416 0
11062 -10409 -10416 0
-11062 10409 0
-11062 10416 0
11063 -10409 -10348 0
-11063 10409 0
-11063 10348 0
11064 -10331 -10348 -10426 0
-11064 10331 0
-11064 10348 0
-11064 10426 0
-6923 10366 11061 11062 11063 11064 0
6923 -10366 0
6923 -11061 0
6923 -11062 0
6923 -11063 0
6923 -11064 0
11065 -10331 -10424 0
-11065 10331 0
-11065 10424 0
11066 -10409 -10351 0
-11066 10409 0
-11066 10351 0
11067 -10409 -10424 0
-11067 10409 0
-11067 10424 0
11068 -10331 -10351 -10426 0
-11068 10331 0
-11068 10351 0
-11068 10426 0
-6930 10368 11065 11066 11067 11068 0
6930 -10368 0
6930 -11065 0
6930 -11066 0
6930 -11067 0
6930 -11068 0
11069 -10334 -10424 0
-11069 10334 0
-11069 10424 0
11070 -10422 -10424 0
-11070 10422 0
-11070 10424 0
11071 -10422 -10351 0
-11071 10422 0
-11071 10351 0
11072 -10334 -10351 -10426 0
-11072 10334 0
-11072 10351 0
-11072 10426 0
-6932 10370 11069 11070 11071 11072 0
6932 -10370 0
6932 -11069 0
6932 -11070 0
6932 -11071 0
6932 -11072 0
11073 -10340 -10420 0
-11073 10340 0
-11073 10420 0
11074 -10966 -10337 0
-11074 10966 0
-11074 10337 0
11075 -10966 -10420 0
-11075 10966 0
-11075 10420 0
11076 -10340 -10337 -10426 0
-11076 10340 0
-11076 10337 0
-11076 10426 0
-6945 10372 11073 11074 11075 11076 0
6945 -10372 0
6945 -11073 0
6945 -11074 0
6945 -11075 0
6945 -11076 0
11077 -10340 -10422 0
-11077 10340 0
-11077 10422 0
11078 -10966 -10334 0
-11078 10966 0
-11078 10334 0
11079 -10966 -10422 0
-11079 10966 0
-11079 10422 0
11080 -10340 -10334 -10426 0
-11080 10340 0
-11080 10334 0
-11080 10426 0
-6905 10374 11077 11078 11079 11080 0
6905 -10374 0
6905 -11077 0
6905 -11078 0
6905 -11079 0
6905 -11080 0
11081 -10340 -10966 0
-11081 10340 0
-11081 10966 0
11082 -10966 -10966 0
-11082 10966 0
-11082 10966 0
11083 -10966 -10340 0
-11083 10966 0
-11083 10340 0
11084 -10340 -10340 -10426 0
-11084 10340 0
-11084 10340 0
-11084 10426 0
-6950 10376 11081 11082 11083 11084 0
6950 -10376 0
6950 -11081 0
6950 -11082 0
6950 -11083 0
6950 -11084 0
11085 -10340 -10416 0
-11085 10340 0
-11085 10416 0
11086 -10966 -10416 0
-11086 10966 0
-11086 10416 0
11087 -10966 -10348 0
-11087 10966 0
-11087 10348 0
11088 -10340 -10348 -10426 0
-11088 10340 0
-11088 10348 0
-11088 10426 0
-6955 10378 11085 11086 11087 11088 0
6955 -10378 0
6955 -11085 0
6955 -11086 0
6955 -11087 0
6955 -11088 0
11089 -10340 -10424 0
-11089 10340 0
-11089 10424 0
11090 -10966 -10351 0
-11090 10966 0
-11090 10351 0
11091 -10966 -10424 0
-11091 10966 0
-11091 10424 0
11092 -10340 -10351 -10426 0
-11092 10340 0
-11092 10351 0
-11092 10426 0
-6960 10380 11089 11090 11091 11092 0
6960 -10380 0
6960 -11089 0
6960 -11090 0
6960 -11091 0
6960 -11092 0
11093 -10343 -10424 0
-11093 10343 0
-11093 10424 0
11094 -10399 -10424 0
-11094 10399 0
-11094 10424 0
11095 -10399 -10351 0
-11095 10399 0
-11095 10351 0
11096 -10343 -10351 -10426 0
-11096 10343 0
-11096 10351 0
-11096 10426 0
-6965 10382 11093 11094 11095 11096 0
6965 -10382 0
6965 -11093 0
6965 -11094 0
6965 -11095 0
6965 -11096 0
11097 -10348 -10420 0
-11097 10348 0
-11097 10420 0
11098 -10416 -10337 0
-11098 10416 0
-11098 10337 0
11099 -10416 -10420 0
-11099 10416 0
-11099 10420 0
11100 -10348 -10337 -10426 0
-11100 10348 0
-11100 10337 0
-11100 10426 0
-6970 10384 11097 11098 11099 11100 0
6970 -10384 0
6970 -11097 0
6970 -11098 0
6970 -11099 0
6970 -11100 0
11101 -10348 -10422 0
-11101 10348 0
-11101 10422 0
11102 -10416 -10334 0
-11102 10416 0
-11102 10334 0
11103 -10416 -10422 0
-11103 10416 0
-11103 10422 0
11104 -10348 -10334 -10426 0
-11104 10348 0
-11104 10334 0
-11104 10426 0
-6926 10386 11101 11102 11103 11104 0
6926 -10386 0
6926 -11101 0
6926 -11102 0
6926 -11103 0
6926 -11104 0
11105 -10348 -10399 0
-11105 10348 0
-11105 10399 0
11106 -10416 -10343 0
-11106 10416 0
-11106 10343 0
11107 -10416 -10399 0
-11107 10416 0
-11107 10399 0
11108 -10348 -10343 -10426 0
-11108 10348 0
-11108 10343 0
-11108 10426 0
-6975 10388 11105 11106 11107 11108 0
6975 -10388 0
6975 -11105 0
6975 -11106 0
6975 -11107 0
6975 -11108 0
11109 -10348 -10416 0
-11109 10348 0
-11109 10416 0
11110 -10416 -10416 0
-11110 10416 0
-11110 10416 0
11111 -10416 -10348 0
-11111 10416 0
-11111 10348 0
11112 -10348 -10348 -10426 0
-11112 10348 0
-11112 10348 0
-11112 10426 0
-6980 10390 11109 11110 11111 11112 0
6980 -10390 0
6980 -11109 0
6980 -11110 0
6980 -11111 0
6980 -11112 0
11113 -10231 -10231 0
-11113 10231 0
-11113 10231 0
-7164 10177 11113 0
7164 -10177 0
7164 -11113 0
11114 -10231 -10271 0
-11114 10231 0
-11114 10271 0
-7159 10184 11114 0
7159 -10184 0
7159 -11114 0
11115 -10231 -10276 0
-11115 10231 0
-11115 10276 0
-7158 10191 11115 0
7158 -10191 0
7158 -11115 0
11116 -10236 -10276 0
-11116 10236 0
-11116 10276 0
-7180 10198 11116 0
7180 -10198 0
7180 -11116 0
11117 -10231 -10301 0
-11117 10231 0
-11117 10301 0
-7171 10205 11117 0
7171 -10205 0
7171 -11117 0
11118 -10231 -10306 0
-11118 10231 0
-11118 10306 0
-7178 10212 11118 0
7178 -10212 0
7178 -11118 0
11119 -10236 -10306 0
-11119 10236 0
-11119 10306 0
-7185 10217 11119 0
7185 -10217 0
7185 -11119 0
11120 -10231 -10226 0
-11120 10231 0
-11120 10226 0
-7192 10172 11120 0
7192 -10172 0
7192 -11120 0
11121 -10231 -10228 0
-11121 10231 0
-11121 10228 0
-7199 10171 11121 0
7199 -10171 0
7199 -11121 0
11122 -10236 -10228 0
-11122 10236 0
-11122 10228 0
-7204 10193 11122 0
7204 -10193 0
7204 -11122 0
11123 -10271 -10236 0
-11123 10271 0
-11123 10236 0
-7182 10241 11123 0
7182 -10241 0
7182 -11123 0
11124 -10271 -10271 0
-11124 10271 0
-11124 10271 0
-7163 10246 11124 0
7163 -10246 0
7163 -11124 0
11125 -10271 -10301 0
-11125 10271 0
-11125 10301 0
-7166 10251 11125 0
7166 -10251 0
7166 -11125 0
11126 -10271 -10306 0
-11126 10271 0
-11126 10306 0
-7173 10256 11126 0
7173 -10256 0
7173 -11126 0
11127 -10276 -10306 0
-11127 10276 0
-11127 10306 0
-7175 10261 11127 0
7175 -10261 0
7175 -11127 0
11128 -10271 -10226 0
-11128 10271 0
-11128 10226 0
-7187 10179 11128 0
7187 -10179 0
7187 -11128 0
11129 -10271 -10228 0
-11129 10271 0
-11129 10228 0
-7194 10182 11129 0
7194 -10182 0
7194 -11129 0
11130 -10276 -10228 0
-11130 10276 0
-11130 10228 0
-7196 10188 11130 0
7196 -10188 0
7196 -11130 0
11131 -10301 -10236 0
-11131 10301 0
-11131 10236 0
-7209 10281 11131 0
7209 -10281 0
7209 -11131 0
11132 -10301 -10276 0
-11132 10301 0
-11132 10276 0
-7169 10286 11132 0
7169 -10286 0
7169 -11132 0
11133 -10301 -10301 0
-11133 10301 0
-11133 10301 0
-7214 10291 11133 0
7214 -10291 0
7214 -11133 0
11134 -10301 -10226 0
-11134 10301 0
-11134 10226 0
-7219 10200 11134 0
7219 -10200 0
7219 -11134 0
11135 -10301 -10228 0
-11135 10301 0
-11135 10228 0
-7224 10203 11135 0
7224 -10203 0
7224 -11135 0
11136 -10306 -10228 0
-11136 10306 0
-11136 10228 0
-7229 10209 11136 0
7229 -10209 0
7229 -11136 0
11137 -10226 -10236 0
-11137 10226 0
-11137 10236 0
-7234 10195 11137 0
7234 -10195 0
7234 -11137 0
11138 -10226 -10276 0
-11138 10226 0
-11138 10276 0
-7190 10186 11138 0
7190 -10186 0
7190 -11138 0
11139 -10226 -10306 0
-11139 10226 0
-11139 10306 0
-7239 10207 11139 0
7239 -10207 0
7239 -11139 0
11140 -10226 -10226 0
-11140 10226 0
-11140 10226 0
-7244 10176 11140 0
7244 -10176 0
7244 -11140 0
11141 -10231 -10224 0
-11141 10231 0
-11141 10224 0
11142 -10224 -10224 0
-11142 10224 0
-11142 10224 0
11143 -10224 -10231 0
-11143 10224 0
-11143 10231 0
11144 -10231 -10231 -10326 0
-11144 10231 0
-11144 10231 0
-11144 10326 0
-6456 10177 11141 11142 11143 11144 0
6456 -10177 0
6456 -11141 0
6456 -11142 0
6456 -11143 0
6456 -11144 0
11145 -10231 -10266 0
-11145 10231 0
-11145 10266 0
11146 -10224 -10266 0
-11146 10224 0
-11146 10266 0
11147 -10224 -10271 0
-11147 10224 0
-11147 10271 0
11148 -10231 -10271 -10326 0
-11148 10231 0
-11148 10271 0
-11148 10326 0
-6459 10184 11145 11146 11147 11148 0
6459 -10184 0
6459 -11145 0
6459 -11146 0
6459 -11147 0
6459 -11148 0
11149 -10231 -10316 0
-11149 10231 0
-11149 10316 0
11150 -10224 -10276 0
-11150 10224 0
-11150 10276 0
11151 -10224 -10316 0
-11151 10224 0
-11151 10316 0
11152 -10231 -10276 -10326 0
-11152 10231 0
-11152 10276 0
-11152 10326 0
-6462 10191 11149 11150 11151 11152 0
6462 -10191 0
6462 -11149 0
6462 -11150 0
6462 -11151 0
6462 -11152 0
11153 -10236 -10316 0
-11153 10236 0
-11153 10316 0
11154 -10311 -10316 0
-11154 10311 0
-11154 10316 0
11155 -10311 -10276 0
-11155 10311 0
-11155 10276 0
11156 -10236 -10276 -10326 0
-11156 10236 0
-11156 10276 0
-11156 10326 0
-6465 10198 11153 11154 11155 11156 0
6465 -10198 0
6465 -11153 0
6465 -11154 0
6465 -11155 0
6465 -11156 0
11157 -10231 -10296 0
-11157 10231 0
-11157 10296 0
11158 -10224 -10296 0
-11158 10224 0
-11158 10296 0
11159 -10224 -10301 0
-11159 10224 0
-11159 10301 0
11160 -10231 -10301 -10326 0
-11160 10231 0
-11160 10301 0
-11160 10326 0
-6703 10205 11157 11158 11159 11160 0
6703 -10205 0
6703 -11157 0
6703 -11158 0
6703 -11159 0
6703 -11160 0
11161 -10231 -10321 0
-11161 10231 0
-11161 10321 0
11162 -10224 -10306 0
-11162 10224 0
-11162 10306 0
11163 -10224 -10321 0
-11163 10224 0
-11163 10321 0
11164 -10231 -10306 -10326 0
-11164 10231 0
-11164 10306 0
-11164 10326 0
-6455 10212 11161 11162 11163 11164 0
6455 -10212 0
6455 -11161 0
6455 -11162 0
6455 -11163 0
6455 -11164 0
11165 -10236 -10321 0
-11165 10236 0
-11165 10321 0
11166 -10311 -10321 0
-11166 10311 0
-11166 10321 0
11167 -10311 -10306 0
-11167 10311 0
-11167 10306 0
11168 -10236 -10306 -10326 0
-11168 10236 0
-11168 10306 0
-11168 10326 0
-6464 10217 11165 11166 11167 11168 0
6464 -10217 0
6464 -11165 0
6464 -11166 0
6464 -11167 0
6464 -11168 0
11169 -10231 -10219 0
-11169 10231 0
-11169 10219 0
11170 -10224 -10219 0
-11170 10224 0
-11170 10219 0
11171 -10224 -10226 0
-11171 10224 0
-11171 10226 0
11172 -10231 -10226 -10326 0
-11172 10231 0
-11172 10226 0
-11172 10326 0
-6468 10172 11169 11170 11171 11172 0
6468 -10172 0
6468 -11169 0
6468 -11170 0
6468 -11171 0
6468 -11172 0
11173 -10231 -10222 0
-11173 10231 0
-11173 10222 0
11174 -10224 -10228 0
-11174 10224 0
-11174 10228 0
11175 -10224 -10222 0
-11175 10224 0
-11175 10222 0
11176 -10231 -10228 -10326 0
-11176 10231 0
-11176 10228 0
-11176 10326 0
-6471 10171 11173 11174 11175 11176 0
6471 -10171 0
6471 -11173 0
6471 -11174 0
6471 -11175 0
6471 -11176 0
11177 -10236 -10222 0
-11177 10236 0
-11177 10222 0
11178 -10311 -10222 0
-11178 10311 0
-11178 10222 0
11179 -10311 -10228 0
-11179 10311 0
-11179 10228 0
11180 -10236 -10228 -10326 0
-11180 10236 0
-11180 10228 0
-11180 10326 0
-6473 10193 11177 11178 11179 11180 0
6473 -10193 0
6473 -11177 0
6473 -11178 0
6473 -11179 0
6473 -11180 0
11181 -10271 -10311 0
-11181 10271 0
-11181 10311 0
11182 -10266 -10236 0
-11182 10266 0
-11182 10236 0
11183 -10266 -10311 0
-11183 10266 0
-11183 10311 0
11184 -10271 -10236 -10326 0
-11184 10271 0
-11184 10236 0
-11184 10326 0
-6475 10241 11181 11182 11183 11184 0
6475 -10241 0
6475 -11181 0
6475 -11182 0
6475 -11183 0
6475 -11184 0
11185 -10271 -10266 0
-11185 10271 0
-11185 10266 0
11186 -10266 -10266 0
-11186 10266 0
-11186 10266 0
11187 -10266 -10271 0
-11187 10266 0
-11187 10271 0
11188 -10271 -10271 -10326 0
-11188 10271 0
-11188 10271 0
-11188 10326 0
-6477 10246 11185 11186 11187 11188 0
6477 -10246 0
6477 -11185 0
6477 -11186 0
6477 -11187 0
6477 -11188 0
11189 -10271 -10296 0
-11189 10271 0
-11189 10296 0
11190 -10266 -10296 0
-11190 10266 0
-11190 10296 0
11191 -10266 -10301 0
-11191 10266 0
-11191 10301 0
11192 -10271 -10301 -10326 0
-11192 10271 0
-11192 10301 0
-11192 10326 0
-6709 10251 11189 11190 11191 11192 0
6709 -10251 0
6709 -11189 0
6709 -11190 0
6709 -11191 0
6709 -11192 0
11193 -10271 -10321 0
-11193 10271 0
-11193 10321 0
11194 -10266 -10306 0
-11194 10266 0
-11194 10306 0
11195 -10266 -10321 0
-11195 10266 0
-11195 10321 0
11196 -10271 -10306 -10326 0
-11196 10271 0
-11196 10306 0
-11196 10326 0
-6458 10256 11193 11194 11195 11196 0
6458 -10256 0
6458 -11193 0
6458 -11194 0
6458 -11195 0
6458 -11196 0
11197 -10276 -10321 0
-11197 10276 0
-11197 10321 0
11198 -10316 -10321 0
-11198 10316 0
-11198 10321 0
11199 -10316 -10306 0
-11199 10316 0
-11199 10306 0
11200 -10276 -10306 -10326 0
-11200 10276 0
-11200 10306 0
-11200 10326 0
-6461 10261 11197 11198 11199 11200 0
6461 -10261 0
6461 -11197 0
6461 -11198 0
6461 -11199 0
6461 -11200 0
11201 -10271 -10219 0
-11201 10271 0
-11201 10219 0
11202 -10266 -10219 0
-11202 10266 0
-11202 10219 0
11203 -10266 -10226 0
-11203 10266 0
-11203 10226 0
11204 -10271 -10226 -10326 0
-11204 10271 0
-11204 10226 0
-11204 10326 0
-6479 10179 11201 11202 11203 11204 0
6479 -10179 0
6479 -11201 0
6479 -11202 0
6479 -11203 0
6479 -11204 0
11205 -10271 -10222 0
-11205 10271 0
-11205 10222 0
11206 -10266 -10228 0
-11206 10266 0
-11206 10228 0
11207 -10266 -10222 0
-11207 10266 0
-11207 10222 0
11208 -10271 -10228 -10326 0
-11208 10271 0
-11208 10228 0
-11208 10326 0
-6481 10182 11205 11206 11207 11208 0
6481 -10182 0
6481 -11205 0
6481 -11206 0
6481 -11207 0
6481 -11208 0
11209 -10276 -10222 0
-11209 10276 0
-11209 10222 0
11210 -10316 -10222 0
-11210 10316 0
-11210 10222 0
11211 -10316 -10228 0
-11211 10316 0
-11211 10228 0
11212 -10276 -10228 -10326 0
-11212 10276 0
-11212 10228 0
-11212 10326 0
-6483 10188 11209 11210 11211 11212 0
6483 -10188 0
6483 -11209 0
6483 -11210 0
6483 -11211 0
6483 -11212 0
11213 -10301 -10311 0
-11213 10301 0
-11213 10311 0
11214 -10296 -10236 0
-11214 10296 0
-11214 10236 0
11215 -10296 -10311 0
-11215 10296 0
-11215 10311 0
11216 -10301 -10236 -10326 0
-11216 10301 0
-11216 10236 0
-11216 10326 0
-6720 10281 11213 11214 11215 11216 0
6720 -10281 0
6720 -11213 0
6720 -11214 0
6720 -11215 0
6720 -11216 0
11217 -10301 -10316 0
-11217 10301 0
-11217 10316 0
11218 -10296 -10276 0
-11218 10296 0
-11218 10276 0
11219 -10296 -10316 0
-11219 10296 0
-11219 10316 0
11220 -10301 -10276 -10326 0
-11220 10301 0
-11220 10276 0
-11220 10326 0
-6714 10286 11217 11218 11219 11220 0
6714 -10286 0
6714 -11217 0
6714 -11218 0
6714 -11219 0
6714 -11220 0
11221 -10301 -10296 0
-11221 10301 0
-11221 10296 0
10941 -10296 -10296 0
-10941 10296 0
-10941 10296 0
11222 -10296 -10301 0
-11222 10296 0
-11222 10301 0
11223 -10301 -10301 -10326 0
-11223 10301 0
-11223 10301 0
-11223 10326 0
-6707 10291 11221 10941 11222 11223 0
6707 -10291 0
6707 -11221 0
6707 -10941 0
6707 -11222 0
6707 -11223 0
11224 -10301 -10219 0
-11224 10301 0
-11224 10219 0
11225 -10296 -10219 0
-11225 10296 0
-11225 10219 0
11226 -10296 -10226 0
-11226 10296 0
-11226 10226 0
11227 -10301 -10226 -10326 0
-11227 10301 0
-11227 10226 0
-11227 10326 0
-6724 10200 11224 11225 11226 11227 0
6724 -10200 0
6724 -11224 0
6724 -11225 0
6724 -11226 0
6724 -11227 0
11228 -10301 -10222 0
-11228 10301 0
-11228 10222 0
11229 -10296 -10228 0
-11229 10296 0
-11229 10228 0
11230 -10296 -10222 0
-11230 10296 0
-11230 10222 0
11231 -10301 -10228 -10326 0
-11231 10301 0
-11231 10228 0
-11231 10326 0
-6729 10203 11228 11229 11230 11231 0
6729 -10203 0
6729 -11228 0
6729 -11229 0
6729 -11230 0
6729 -11231 0
11232 -10306 -10222 0
-11232 10306 0
-11232 10222 0
11233 -10321 -10222 0
-11233 10321 0
-11233 10222 0
11234 -10321 -10228 0
-11234 10321 0
-11234 10228 0
11235 -10306 -10228 -10326 0
-11235 10306 0
-11235 10228 0
-11235 10326 0
-6470 10209 11232 11233 11234 11235 0
6470 -10209 0
6470 -11232 0
6470 -11233 0
6470 -11234 0
6470 -11235 0
11236 -10226 -10311 0
-11236 10226 0
-11236 10311 0
11237 -10219 -10236 0
-11237 10219 0
-11237 10236 0
11238 -10219 -10311 0
-11238 10219 0
-11238 10311 0
11239 -10226 -10236 -10326 0
-11239 10226 0
-11239 10236 0
-11239 10326 0
-6485 10195 11236 11237 11238 11239 0
6485 -10195 0
6485 -11236 0
6485 -11237 0
6485 -11238 0
6485 -11239 0
11240 -10226 -10316 0
-11240 10226 0
-11240 10316 0
11241 -10219 -10276 0
-11241 10219 0
-11241 10276 0
11242 -10219 -10316 0
-11242 10219 0
-11242 10316 0
11243 -10226 -10276 -10326 0
-11243 10226 0
-11243 10276 0
-11243 10326 0
-6487 10186 11240 11241 11242 11243 0
6487 -10186 0
6487 -11240 0
6487 -11241 0
6487 -11242 0
6487 -11243 0
11244 -10226 -10321 0
-11244 10226 0
-11244 10321 0
11245 -10219 -10306 0
-11245 10219 0
-11245 10306 0
11246 -10219 -10321 0
-11246 10219 0
-11246 10321 0
11247 -10226 -10306 -10326 0
-11247 10226 0
-11247 10306 0
-11247 10326 0
-6467 10207 11244 11245 11246 11247 0
6467 -10207 0
6467 -11244 0
6467 -11245 0
6467 -11246 0
6467 -11247 0
11248 -10226 -10219 0
-11248 10226 0
-11248 10219 0
10323 -10219 -10219 0
-10323 10219 0
-10323 10219 0
11249 -10219 -10226 0
-11249 10219 0
-11249 10226 0
11250 -10226 -10226 -10326 0
-11250 10226 0
-11250 10226 0
-11250 10326 0
-6489 10176 11248 10323 11249 11250 0
6489 -10176 0
6489 -11248 0
6489 -10323 0
6489 -11249 0
6489 -11250 0
11251 -11252 -11252 0
-11251 11252 0
-11251 11252 0
-7892 11253 11251 0
7892 -11253 0
7892 -11251 0
11254 -11252 -11255 0
-11254 11252 0
-11254 11255 0
-7887 11256 11254 0
7887 -11256 0
7887 -11254 0
11257 -11252 -11258 0
-11257 11252 0
-11257 11258 0
-7886 11259 11257 0
7886 -11259 0
7886 -11257 0
11260 -11261 -11258 0
-11260 11261 0
-11260 11258 0
-7908 11262 11260 0
7908 -11262 0
7908 -11260 0
11263 -11252 -11264 0
-11263 11252 0
-11263 11264 0
-7899 11265 11263 0
7899 -11265 0
7899 -11263 0
11266 -11252 -11267 0
-11266 11252 0
-11266 11267 0
-7906 11268 11266 0
7906 -11268 0
7906 -11266 0
11269 -11261 -11267 0
-11269 11261 0
-11269 11267 0
-7913 11270 11269 0
7913 -11270 0
7913 -11269 0
11271 -11252 -11272 0
-11271 11252 0
-11271 11272 0
-7920 11273 11271 0
7920 -11273 0
7920 -11271 0
11274 -11252 -11275 0
-11274 11252 0
-11274 11275 0
-7927 11276 11274 0
7927 -11276 0
7927 -11274 0
11277 -11261 -11275 0
-11277 11261 0
-11277 11275 0
-7932 11278 11277 0
7932 -11278 0
7932 -11277 0
11279 -11255 -11261 0
-11279 11255 0
-11279 11261 0
-7910 11280 11279 0
7910 -11280 0
7910 -11279 0
11281 -11255 -11255 0
-11281 11255 0
-11281 11255 0
-7891 11282 11281 0
7891 -11282 0
7891 -11281 0
11283 -11255 -11264 0
-11283 11255 0
-11283 11264 0
-7894 11284 11283 0
7894 -11284 0
7894 -11283 0
11285 -11255 -11267 0
-11285 11255 0
-11285 11267 0
-7901 11286 11285 0
7901 -11286 0
7901 -11285 0
11287 -11258 -11267 0
-11287 11258 0
-11287 11267 0
-7903 11288 11287 0
7903 -11288 0
7903 -11287 0
11289 -11255 -11272 0
-11289 11255 0
-11289 11272 0
-7915 11290 11289 0
7915 -11290 0
7915 -11289 0
11291 -11255 -11275 0
-11291 11255 0
-11291 11275 0
-7922 11292 11291 0
7922 -11292 0
7922 -11291 0
11293 -11258 -11275 0
-11293 11258 0
-11293 11275 0
-7924 11294 11293 0
7924 -11294 0
7924 -11293 0
11295 -11264 -11261 0
-11295 11264 0
-11295 11261 0
-7937 11296 11295 0
7937 -11296 0
7937 -11295 0
11297 -11264 -11258 0
-11297 11264 0
-11297 11258 0
-7897 11298 11297 0
7897 -11298 0
7897 -11297 0
11299 -11264 -11264 0
-11299 11264 0
-11299 11264 0
-7942 11300 11299 0
7942 -11300 0
7942 -11299 0
11301 -11264 -11272 0
-11301 11264 0
-11301 11272 0
-7947 11302 11301 0
7947 -11302 0
7947 -11301 0
11303 -11264 -11275 0
-11303 11264 0
-11303 11275 0
-7952 11304 11303 0
7952 -11304 0
7952 -11303 0
11305 -11267 -11275 0
-11305 11267 0
-11305 11275 0
-7957 11306 11305 0
7957 -11306 0
7957 -11305 0
11307 -11272 -11261 0
-11307 11272 0
-11307 11261 0
-7962 11308 11307 0
7962 -11308 0
7962 -11307 0
11309 -11272 -11258 0
-11309 11272 0
-11309 11258 0
-7918 11310 11309 0
7918 -11310 0
7918 -11309 0
11311 -11272 -11267 0
-11311 11272 0
-11311 11267 0
-7967 11312 11311 0
7967 -11312 0
7967 -11311 0
11313 -11272 -11272 0
-11313 11272 0
-11313 11272 0
-7972 11314 11313 0
7972 -11314 0
7972 -11313 0
11315 -10428 -10698 0
-11315 10428 0
-11315 10698 0
11316 -10698 -10698 0
-11316 10698 0
-11316 10698 0
11317 -10698 -10428 0
-11317 10698 0
-11317 10428 0
11318 -10428 -10428 -10766 0
-11318 10428 0
-11318 10428 0
-11318 10766 0
-7518 10429 11315 11316 11317 11318 0
7518 -10429 0
7518 -11315 0
7518 -11316 0
7518 -11317 0
7518 -11318 0
11319 -10428 -10731 0
-11319 10428 0
-11319 10731 0
11320 -10698 -10731 0
-11320 10698 0
-11320 10731 0
11321 -10698 -10431 0
-11321 10698 0
-11321 10431 0
11322 -10428 -10431 -10766 0
-11322 10428 0
-11322 10431 0
-11322 10766 0
-7989 10432 11319 11320 11321 11322 0
7989 -10432 0
7989 -11319 0
7989 -11320 0
7989 -11321 0
7989 -11322 0
11323 -10428 -10761 0
-11323 10428 0
-11323 10761 0
11324 -10698 -10434 0
-11324 10698 0
-11324 10434 0
11325 -10698 -10761 0
-11325 10698 0
-11325 10761 0
11326 -10428 -10434 -10766 0
-11326 10428 0
-11326 10434 0
-11326 10766 0
-7517 10435 11323 11324 11325 11326 0
7517 -10435 0
7517 -11323 0
7517 -11324 0
7517 -11325 0
7517 -11326 0
11327 -10437 -10761 0
-11327 10437 0
-11327 10761 0
11328 -10756 -10761 0
-11328 10756 0
-11328 10761 0
11329 -10756 -10434 0
-11329 10756 0
-11329 10434 0
11330 -10437 -10434 -10766 0
-11330 10437 0
-11330 10434 0
-11330 10766 0
-7526 10438 11327 11328 11329 11330 0
7526 -10438 0
7526 -11327 0
7526 -11328 0
7526 -11329 0
7526 -11330 0
11331 -10428 -10693 0
-11331 10428 0
-11331 10693 0
11332 -10698 -10693 0
-11332 10698 0
-11332 10693 0
11333 -10698 -10440 0
-11333 10698 0
-11333 10440 0
11334 -10428 -10440 -10766 0
-11334 10428 0
-11334 10440 0
-11334 10766 0
-7521 10441 11331 11332 11333 11334 0
7521 -10441 0
7521 -11331 0
7521 -11332 0
7521 -11333 0
7521 -11334 0
11335 -10428 -10696 0
-11335 10428 0
-11335 10696 0
11336 -10698 -10443 0
-11336 10698 0
-11336 10443 0
11337 -10698 -10696 0
-11337 10698 0
-11337 10696 0
11338 -10428 -10443 -10766 0
-11338 10428 0
-11338 10443 0
-11338 10766 0
-7524 10444 11335 11336 11337 11338 0
7524 -10444 0
7524 -11335 0
7524 -11336 0
7524 -11337 0
7524 -11338 0
11339 -10437 -10696 0
-11339 10437 0
-11339 10696 0
11340 -10756 -10696 0
-11340 10756 0
-11340 10696 0
11341 -10756 -10443 0
-11341 10756 0
-11341 10443 0
11342 -10437 -10443 -10766 0
-11342 10437 0
-11342 10443 0
-11342 10766 0
-7527 10446 11339 11340 11341 11342 0
7527 -10446 0
7527 -11339 0
7527 -11340 0
7527 -11341 0
7527 -11342 0
11343 -10428 -10771 0
-11343 10428 0
-11343 10771 0
11344 -10698 -10771 0
-11344 10698 0
-11344 10771 0
11345 -10698 -10448 0
-11345 10698 0
-11345 10448 0
11346 -10428 -10448 -10766 0
-11346 10428 0
-11346 10448 0
-11346 10766 0
-7530 10449 11343 11344 11345 11346 0
7530 -10449 0
7530 -11343 0
7530 -11344 0
7530 -11345 0
7530 -11346 0
11347 -10428 -10776 0
-11347 10428 0
-11347 10776 0
11348 -10698 -10451 0
-11348 10698 0
-11348 10451 0
11349 -10698 -10776 0
-11349 10698 0
-11349 10776 0
11350 -10428 -10451 -10766 0
-11350 10428 0
-11350 10451 0
-11350 10766 0
-7533 10452 11347 11348 11349 11350 0
7533 -10452 0
7533 -11347 0
7533 -11348 0
7533 -11349 0
7533 -11350 0
11351 -10437 -10776 0
-11351 10437 0
-11351 10776 0
11352 -10756 -10776 0
-11352 10756 0
-11352 10776 0
11353 -10756 -10451 0
-11353 10756 0
-11353 10451 0
11354 -10437 -10451 -10766 0
-11354 10437 0
-11354 10451 0
-11354 10766 0
-7535 10454 11351 11352 11353 11354 0
7535 -10454 0
7535 -11351 0
7535 -11352 0
7535 -11353 0
7535 -11354 0
11355 -10431 -10756 0
-11355 10431 0
-11355 10756 0
11356 -10731 -10437 0
-11356 10731 0
-11356 10437 0
11357 -10731 -10756 0
-11357 10731 0
-11357 10756 0
11358 -10431 -10437 -10766 0
-11358 10431 0
-11358 10437 0
-11358 10766 0
-8006 10456 11355 11356 11357 11358 0
8006 -10456 0
8006 -11355 0
8006 -11356 0
8006 -11357 0
8006 -11358 0
11359 -10431 -10731 0
-11359 10431 0
-11359 10731 0
11360 -10731 -10731 0
-11360 10731 0
-11360 10731 0
11361 -10731 -10431 0
-11361 10731 0
-11361 10431 0
11362 -10431 -10431 -10766 0
-11362 10431 0
-11362 10431 0
-11362 10766 0
-7993 10458 11359 11360 11361 11362 0
7993 -10458 0
7993 -11359 0
7993 -11360 0
7993 -11361 0
7993 -11362 0
11363 -10431 -10693 0
-11363 10431 0
-11363 10693 0
11364 -10731 -10693 0
-11364 10731 0
-11364 10693 0
11365 -10731 -10440 0
-11365 10731 0
-11365 10440 0
11366 -10431 -10440 -10766 0
-11366 10431 0
-11366 10440 0
-11366 10766 0
-7995 10460 11363 11364 11365 11366 0
7995 -10460 0
7995 -11363 0
7995 -11364 0
7995 -11365 0
7995 -11366 0
11367 -10431 -10696 0
-11367 10431 0
-11367 10696 0
11368 -10731 -10443 0
-11368 10731 0
-11368 10443 0
11369 -10731 -10696 0
-11369 10731 0
-11369 10696 0
11370 -10431 -10443 -10766 0
-11370 10431 0
-11370 10443 0
-11370 10766 0
-8000 10462 11367 11368 11369 11370 0
8000 -10462 0
8000 -11367 0
8000 -11368 0
8000 -11369 0
8000 -11370 0
11371 -10434 -10696 0
-11371 10434 0
-11371 10696 0
11372 -10761 -10696 0
-11372 10761 0
-11372 10696 0
11373 -10761 -10443 0
-11373 10761 0
-11373 10443 0
11374 -10434 -10443 -10766 0
-11374 10434 0
-11374 10443 0
-11374 10766 0
-7523 10464 11371 11372 11373 11374 0
7523 -10464 0
7523 -11371 0
7523 -11372 0
7523 -11373 0
7523 -11374 0
11375 -10431 -10771 0
-11375 10431 0
-11375 10771 0
11376 -10731 -10771 0
-11376 10731 0
-11376 10771 0
11377 -10731 -10448 0
-11377 10731 0
-11377 10448 0
11378 -10431 -10448 -10766 0
-11378 10431 0
-11378 10448 0
-11378 10766 0
-8010 10466 11375 11376 11377 11378 0
8010 -10466 0
8010 -11375 0
8010 -11376 0
8010 -11377 0
8010 -11378 0
11379 -10431 -10776 0
-11379 10431 0
-11379 10776 0
11380 -10731 -10451 0
-11380 10731 0
-11380 10451 0
11381 -10731 -10776 0
-11381 10731 0
-11381 10776 0
11382 -10431 -10451 -10766 0
-11382 10431 0
-11382 10451 0
-11382 10766 0
-8015 10468 11379 11380 11381 11382 0
8015 -10468 0
8015 -11379 0
8015 -11380 0
8015 -11381 0
8015 -11382 0
11383 -10434 -10776 0
-11383 10434 0
-11383 10776 0
11384 -10761 -10776 0
-11384 10761 0
-11384 10776 0
11385 -10761 -10451 0
-11385 10761 0
-11385 10451 0
11386 -10434 -10451 -10766 0
-11386 10434 0
-11386 10451 0
-11386 10766 0
-7532 10470 11383 11384 11385 11386 0
7532 -10470 0
7532 -11383 0
7532 -11384 0
7532 -11385 0
7532 -11386 0
11387 -10440 -10756 0
-11387 10440 0
-11387 10756 0
11388 -10693 -10437 0
-11388 10693 0
-11388 10437 0
11389 -10693 -10756 0
-11389 10693 0
-11389 10756 0
11390 -10440 -10437 -10766 0
-11390 10440 0
-11390 10437 0
-11390 10766 0
-7537 10472 11387 11388 11389 11390 0
7537 -10472 0
7537 -11387 0
7537 -11388 0
7537 -11389 0
7537 -11390 0
11391 -10440 -10761 0
-11391 10440 0
-11391 10761 0
11392 -10693 -10434 0
-11392 10693 0
-11392 10434 0
11393 -10693 -10761 0
-11393 10693 0
-11393 10761 0
11394 -10440 -10434 -10766 0
-11394 10440 0
-11394 10434 0
-11394 10766 0
-7520 10474 11391 11392 11393 11394 0
7520 -10474 0
7520 -11391 0
7520 -11392 0
7520 -11393 0
7520 -11394 0
11395 -10440 -10693 0
-11395 10440 0
-11395 10693 0
10763 -10693 -10693 0
-10763 10693 0
-10763 10693 0
11396 -10693 -10440 0
-11396 10693 0
-11396 10440 0
11397 -10440 -10440 -10766 0
-11397 10440 0
-11397 10440 0
-11397 10766 0
-7539 10476 11395 10763 11396 11397 0
7539 -10476 0
7539 -11395 0
7539 -10763 0
7539 -11396 0
7539 -11397 0
11398 -10440 -10771 0
-11398 10440 0
-11398 10771 0
11399 -10693 -10771 0
-11399 10693 0
-11399 10771 0
11400 -10693 -10448 0
-11400 10693 0
-11400 10448 0
11401 -10440 -10448 -10766 0
-11401 10440 0
-11401 10448 0
-11401 10766 0
-7541 10478 11398 11399 11400 11401 0
7541 -10478 0
7541 -11398 0
7541 -11399 0
7541 -11400 0
7541 -11401 0
11402 -10440 -10776 0
-11402 10440 0
-11402 10776 0
11403 -10693 -10451 0
-11403 10693 0
-11403 10451 0
11404 -10693 -10776 0
-11404 10693 0
-11404 10776 0
11405 -10440 -10451 -10766 0
-11405 10440 0
-11405 10451 0
-11405 10766 0
-7543 10480 11402 11403 11404 11405 0
7543 -10480 0
7543 -11402 0
7543 -11403 0
7543 -11404 0
7543 -11405 0
11406 -10443 -10776 0
-11406 10443 0
-11406 10776 0
11407 -10696 -10776 0
-11407 10696 0
-11407 10776 0
11408 -10696 -10451 0
-11408 10696 0
-11408 10451 0
11409 -10443 -10451 -10766 0
-11409 10443 0
-11409 10451 0
-11409 10766 0
-7545 10482 11406 11407 11408 11409 0
7545 -10482 0
7545 -11406 0
7545 -11407 0
7545 -11408 0
7545 -11409 0
11410 -10448 -10756 0
-11410 10448 0
-11410 10756 0
11411 -10771 -10437 0
-11411 10771 0
-11411 10437 0
11412 -10771 -10756 0
-11412 10771 0
-11412 10756 0
11413 -10448 -10437 -10766 0
-11413 10448 0
-11413 10437 0
-11413 10766 0
-7547 10484 11410 11411 11412 11413 0
7547 -10484 0
7547 -11410 0
7547 -11411 0
7547 -11412 0
7547 -11413 0
11414 -10448 -10761 0
-11414 10448 0
-11414 10761 0
11415 -10771 -10434 0
-11415 10771 0
-11415 10434 0
11416 -10771 -10761 0
-11416 10771 0
-11416 10761 0
11417 -10448 -10434 -10766 0
-11417 10448 0
-11417 10434 0
-11417 10766 0
-7529 10486 11414 11415 11416 11417 0
7529 -10486 0
7529 -11414 0
7529 -11415 0
7529 -11416 0
7529 -11417 0
11418 -10448 -10696 0
-11418 10448 0
-11418 10696 0
11419 -10771 -10443 0
-11419 10771 0
-11419 10443 0
11420 -10771 -10696 0
-11420 10771 0
-11420 10696 0
11421 -10448 -10443 -10766 0
-11421 10448 0
-11421 10443 0
-11421 10766 0
-7549 10488 11418 11419 11420 11421 0
7549 -10488 0
7549 -11418 0
7549 -11419 0
7549 -11420 0
7549 -11421 0
11422 -10448 -10771 0
-11422 10448 0
-11422 10771 0
11423 -10771 -10771 0
-11423 10771 0
-11423 10771 0
11424 -10771 -10448 0
-11424 10771 0
-11424 10448 0
11425 -10448 -10448 -10766 0
-11425 10448 0
-11425 10448 0
-11425 10766 0
-7551 10490 11422 11423 11424 11425 0
7551 -10490 0
7551 -11422 0
7551 -11423 0
7551 -11424 0
7551 -11425 0
11426 -10444 -10444 0
-11426 10444 0
-11426 10444 0
-6776 10429 11426 0
6776 -10429 0
6776 -11426 0
11427 -10444 -10462 0
-11427 10444 0
-11427 10462 0
-6771 10432 11427 0
6771 -10432 0
6771 -11427 0
11428 -10444 -10464 0
-11428 10444 0
-11428 10464 0
-6770 10435 11428 0
6770 -10435 0
6770 -11428 0
11429 -10446 -10464 0
-11429 10446 0
-11429 10464 0
-6792 10438 11429 0
6792 -10438 0
6792 -11429 0
11430 -10444 -10696 0
-11430 10444 0
-11430 10696 0
-6783 10698 11430 0
6783 -10698 0
6783 -11430 0
11431 -10444 -10443 0
-11431 10444 0
-11431 10443 0
-6790 10428 11431 0
6790 -10428 0
6790 -11431 0
11432 -10446 -10443 0
-11432 10446 0
-11432 10443 0
-6797 10437 11432 0
6797 -10437 0
6797 -11432 0
11433 -10444 -10488 0
-11433 10444 0
-11433 10488 0
-6804 10449 11433 0
6804 -10449 0
6804 -11433 0
11434 -10444 -10482 0
-11434 10444 0
-11434 10482 0
-6811 10452 11434 0
6811 -10452 0
6811 -11434 0
11435 -10446 -10482 0
-11435 10446 0
-11435 10482 0
-6816 10454 11435 0
6816 -10454 0
6816 -11435 0
11436 -10462 -10446 0
-11436 10462 0
-11436 10446 0
-6794 10456 11436 0
6794 -10456 0
6794 -11436 0
11437 -10462 -10462 0
-11437 10462 0
-11437 10462 0
-6775 10458 11437 0
6775 -10458 0
6775 -11437 0
11438 -10462 -10696 0
-11438 10462 0
-11438 10696 0
-6778 10731 11438 0
6778 -10731 0
6778 -11438 0
11439 -10462 -10443 0
-11439 10462 0
-11439 10443 0
-6785 10431 11439 0
6785 -10431 0
6785 -11439 0
11440 -10464 -10443 0
-11440 10464 0
-11440 10443 0
-6787 10434 11440 0
6787 -10434 0
6787 -11440 0
11441 -10462 -10488 0
-11441 10462 0
-11441 10488 0
-6799 10466 11441 0
6799 -10466 0
6799 -11441 0
11442 -10462 -10482 0
-11442 10462 0
-11442 10482 0
-6806 10468 11442 0
6806 -10468 0
6806 -11442 0
11443 -10464 -10482 0
-11443 10464 0
-11443 10482 0
-6808 10470 11443 0
6808 -10470 0
6808 -11443 0
11444 -10696 -10446 0
-11444 10696 0
-11444 10446 0
-6821 10756 11444 0
6821 -10756 0
6821 -11444 0
11445 -10696 -10464 0
-11445 10696 0
-11445 10464 0
-6781 10761 11445 0
6781 -10761 0
6781 -11445 0
11446 -10696 -10696 0
-11446 10696 0
-11446 10696 0
-6826 10766 11446 0
6826 -10766 0
6826 -11446 0
11447 -10696 -10488 0
-11447 10696 0
-11447 10488 0
-6831 10771 11447 0
6831 -10771 0
6831 -11447 0
11448 -10696 -10482 0
-11448 10696 0
-11448 10482 0
-6836 10776 11448 0
6836 -10776 0
6836 -11448 0
11449 -10443 -10482 0
-11449 10443 0
-11449 10482 0
-6841 10451 11449 0
6841 -10451 0
6841 -11449 0
11450 -10488 -10446 0
-11450 10488 0
-11450 10446 0
-6846 10484 11450 0
6846 -10484 0
6846 -11450 0
11451 -10488 -10464 0
-11451 10488 0
-11451 10464 0
-6802 10486 11451 0
6802 -10486 0
6802 -11451 0
11452 -10488 -10443 0
-11452 10488 0
-11452 10443 0
-6851 10448 11452 0
6851 -10448 0
6851 -11452 0
11453 -10488 -10488 0
-11453 10488 0
-11453 10488 0
-6856 10490 11453 0
6856 -10490 0
6856 -11453 0
11454 -10352 -10349 0
-11454 10352 0
-11454 10349 0
11455 -10349 -10349 0
-11455 10349 0
-11455 10349 0
11456 -10349 -10352 0
-11456 10349 0
-11456 10352 0
11457 -10352 -10352 -10390 0
-11457 10352 0
-11457 10352 0
-11457 10390 0
-6988 10329 11454 11455 11456 11457 0
6988 -10329 0
6988 -11454 0
6988 -11455 0
6988 -11456 0
6988 -11457 0
11458 -10352 -10366 0
-11458 10352 0
-11458 10366 0
11459 -10349 -10366 0
-11459 10349 0
-11459 10366 0
11460 -10349 -10368 0
-11460 10349 0
-11460 10368 0
11461 -10352 -10368 -10390 0
-11461 10352 0
-11461 10368 0
-11461 10390 0
-6995 10332 11458 11459 11460 11461 0
6995 -10332 0
6995 -11458 0
6995 -11459 0
6995 -11460 0
6995 -11461 0
11462 -10352 -10386 0
-11462 10352 0
-11462 10386 0
11463 -10349 -10370 0
-11463 10349 0
-11463 10370 0
11464 -10349 -10386 0
-11464 10349 0
-11464 10386 0
11465 -10352 -10370 -10390 0
-11465 10352 0
-11465 10370 0
-11465 10390 0
-7002 10335 11462 11463 11464 11465 0
7002 -10335 0
7002 -11462 0
7002 -11463 0
7002 -11464 0
7002 -11465 0
11466 -10354 -10386 0
-11466 10354 0
-11466 10386 0
11467 -10384 -10386 0
-11467 10384 0
-11467 10386 0
11468 -10384 -10370 0
-11468 10384 0
-11468 10370 0
11469 -10354 -10370 -10390 0
-11469 10354 0
-11469 10370 0
-11469 10390 0
-7009 10338 11466 11467 11468 11469 0
7009 -10338 0
7009 -11466 0
7009 -11467 0
7009 -11468 0
7009 -11469 0
11470 -10352 -10378 0
-11470 10352 0
-11470 10378 0
11471 -10349 -10378 0
-11471 10349 0
-11471 10378 0
11472 -10349 -10380 0
-11472 10349 0
-11472 10380 0
11473 -10352 -10380 -10390 0
-11473 10352 0
-11473 10380 0
-11473 10390 0
-6983 10341 11470 11471 11472 11473 0
6983 -10341 0
6983 -11470 0
6983 -11471 0
6983 -11472 0
6983 -11473 0
11474 -10352 -10388 0
-11474 10352 0
-11474 10388 0
11475 -10349 -10382 0
-11475 10349 0
-11475 10382 0
11476 -10349 -10388 0
-11476 10349 0
-11476 10388 0
11477 -10352 -10382 -10390 0
-11477 10352 0
-11477 10382 0
-11477 10390 0
-6982 10344 11474 11475 11476 11477 0
6982 -10344 0
6982 -11474 0
6982 -11475 0
6982 -11476 0
6982 -11477 0
11478 -10354 -10388 0
-11478 10354 0
-11478 10388 0
11479 -10384 -10388 0
-11479 10384 0
-11479 10388 0
11480 -10384 -10382 0
-11480 10384 0
-11480 10382 0
11481 -10354 -10382 -10390 0
-11481 10354 0
-11481 10382 0
-11481 10390 0
-7004 10346 11478 11479 11480 11481 0
7004 -10346 0
7004 -11478 0
7004 -11479 0
7004 -11480 0
7004 -11481 0
11482 -10352 -10416 0
-11482 10352 0
-11482 10416 0
11483 -10349 -10416 0
-11483 10349 0
-11483 10416 0
11484 -10349 -10424 0
-11484 10349 0
-11484 10424 0
11485 -10352 -10424 -10390 0
-11485 10352 0
-11485 10424 0
-11485 10390 0
-7016 10400 11482 11483 11484 11485 0
7016 -10400 0
7016 -11482 0
7016 -11483 0
7016 -11484 0
7016 -11485 0
11486 -10352 -10348 0
-11486 10352 0
-11486 10348 0
11487 -10349 -10351 0
-11487 10349 0
-11487 10351 0
11488 -10349 -10348 0
-11488 10349 0
-11488 10348 0
11489 -10352 -10351 -10390 0
-11489 10352 0
-11489 10351 0
-11489 10390 0
-7023 10328 11486 11487 11488 11489 0
7023 -10328 0
7023 -11486 0
7023 -11487 0
7023 -11488 0
7023 -11489 0
11490 -10354 -10348 0
-11490 10354 0
-11490 10348 0
11491 -10384 -10348 0
-11491 10384 0
-11491 10348 0
11492 -10384 -10351 0
-11492 10384 0
-11492 10351 0
11493 -10354 -10351 -10390 0
-11493 10354 0
-11493 10351 0
-11493 10390 0
-7028 10337 11490 11491 11492 11493 0
7028 -10337 0
7028 -11490 0
7028 -11491 0
7028 -11492 0
7028 -11493 0
11494 -10368 -10384 0
-11494 10368 0
-11494 10384 0
11495 -10366 -10354 0
-11495 10366 0
-11495 10354 0
11496 -10366 -10384 0
-11496 10366 0
-11496 10384 0
11497 -10368 -10354 -10390 0
-11497 10368 0
-11497 10354 0
-11497 10390 0
-7033 10356 11494 11495 11496 11497 0
7033 -10356 0
7033 -11494 0
7033 -11495 0
7033 -11496 0
7033 -11497 0
11498 -10368 -10366 0
-11498 10368 0
-11498 10366 0
11499 -10366 -10366 0
-11499 10366 0
-11499 10366 0
11500 -10366 -10368 0
-11500 10366 0
-11500 10368 0
11501 -10368 -10368 -10390 0
-11501 10368 0
-11501 10368 0
-11501 10390 0
-7038 10358 11498 11499 11500 11501 0
7038 -10358 0
7038 -11498 0
7038 -11499 0
7038 -11500 0
7038 -11501 0
11502 -10368 -10378 0
-11502 10368 0
-11502 10378 0
11503 -10366 -10378 0
-11503 10366 0
-11503 10378 0
11504 -10366 -10380 0
-11504 10366 0
-11504 10380 0
11505 -10368 -10380 -10390 0
-11505 10368 0
-11505 10380 0
-11505 10390 0
-6990 10360 11502 11503 11504 11505 0
6990 -10360 0
6990 -11502 0
6990 -11503 0
6990 -11504 0
6990 -11505 0
11506 -10368 -10388 0
-11506 10368 0
-11506 10388 0
11507 -10366 -10382 0
-11507 10366 0
-11507 10382 0
11508 -10366 -10388 0
-11508 10366 0
-11508 10388 0
11509 -10368 -10382 -10390 0
-11509 10368 0
-11509 10382 0
-11509 10390 0
-6993 10362 11506 11507 11508 11509 0
6993 -10362 0
6993 -11506 0
6993 -11507 0
6993 -11508 0
6993 -11509 0
11510 -10370 -10388 0
-11510 10370 0
-11510 10388 0
11511 -10386 -10388 0
-11511 10386 0
-11511 10388 0
11512 -10386 -10382 0
-11512 10386 0
-11512 10382 0
11513 -10370 -10382 -10390 0
-11513 10370 0
-11513 10382 0
-11513 10390 0
-6999 10364 11510 11511 11512 11513 0
6999 -10364 0
6999 -11510 0
6999 -11511 0
6999 -11512 0
6999 -11513 0
11514 -10368 -10416 0
-11514 10368 0
-11514 10416 0
11515 -10366 -10416 0
-11515 10366 0
-11515 10416 0
11516 -10366 -10424 0
-11516 10366 0
-11516 10424 0
11517 -10368 -10424 -10390 0
-11517 10368 0
-11517 10424 0
-11517 10390 0
-7043 10409 11514 11515 11516 11517 0
7043 -10409 0
7043 -11514 0
7043 -11515 0
7043 -11516 0
7043 -11517 0
11518 -10368 -10348 0
-11518 10368 0
-11518 10348 0
11519 -10366 -10351 0
-11519 10366 0
-11519 10351 0
11520 -10366 -10348 0
-11520 10366 0
-11520 10348 0
11521 -10368 -10351 -10390 0
-11521 10368 0
-11521 10351 0
-11521 10390 0
-7048 10331 11518 11519 11520 11521 0
7048 -10331 0
7048 -11518 0
7048 -11519 0
7048 -11520 0
7048 -11521 0
11522 -10370 -10348 0
-11522 10370 0
-11522 10348 0
11523 -10386 -10348 0
-11523 10386 0
-11523 10348 0
11524 -10386 -10351 0
-11524 10386 0
-11524 10351 0
11525 -10370 -10351 -10390 0
-11525 10370 0
-11525 10351 0
-11525 10390 0
-7053 10334 11522 11523 11524 11525 0
7053 -10334 0
7053 -11522 0
7053 -11523 0
7053 -11524 0
7053 -11525 0
11526 -10380 -10384 0
-11526 10380 0
-11526 10384 0
11527 -10378 -10354 0
-11527 10378 0
-11527 10354 0
11528 -10378 -10384 0
-11528 10378 0
-11528 10384 0
11529 -10380 -10354 -10390 0
-11529 10380 0
-11529 10354 0
-11529 10390 0
-7006 10372 11526 11527 11528 11529 0
7006 -10372 0
7006 -11526 0
7006 -11527 0
7006 -11528 0
7006 -11529 0
11530 -10380 -10386 0
-11530 10380 0
-11530 10386 0
11531 -10378 -10370 0
-11531 10378 0
-11531 10370 0
11532 -10378 -10386 0
-11532 10378 0
-11532 10386 0
11533 -10380 -10370 -10390 0
-11533 10380 0
-11533 10370 0
-11533 10390 0
-6997 10374 11530 11531 11532 11533 0
6997 -10374 0
6997 -11530 0
6997 -11531 0
6997 -11532 0
6997 -11533 0
11534 -10380 -10378 0
-11534 10380 0
-11534 10378 0
11535 -10378 -10378 0
-11535 10378 0
-11535 10378 0
11536 -10378 -10380 0
-11536 10378 0
-11536 10380 0
11537 -10380 -10380 -10390 0
-11537 10380 0
-11537 10380 0
-11537 10390 0
-6987 10376 11534 11535 11536 11537 0
6987 -10376 0
6987 -11534 0
6987 -11535 0
6987 -11536 0
6987 -11537 0
11538 -10380 -10416 0
-11538 10380 0
-11538 10416 0
11539 -10378 -10416 0
-11539 10378 0
-11539 10416 0
11540 -10378 -10424 0
-11540 10378 0
-11540 10424 0
11541 -10380 -10424 -10390 0
-11541 10380 0
-11541 10424 0
-11541 10390 0
-7011 10966 11538 11539 11540 11541 0
7011 -10966 0
7011 -11538 0
7011 -11539 0
7011 -11540 0
7011 -11541 0
11542 -10380 -10348 0
-11542 10380 0
-11542 10348 0
11543 -10378 -10351 0
-11543 10378 0
-11543 10351 0
11544 -10378 -10348 0
-11544 10378 0
-11544 10348 0
11545 -10380 -10351 -10390 0
-11545 10380 0
-11545 10351 0
-11545 10390 0
-7018 10340 11542 11543 11544 11545 0
7018 -10340 0
7018 -11542 0
7018 -11543 0
7018 -11544 0
7018 -11545 0
11546 -10382 -10348 0
-11546 10382 0
-11546 10348 0
11547 -10388 -10348 0
-11547 10388 0
-11547 10348 0
11548 -10388 -10351 0
-11548 10388 0
-11548 10351 0
11549 -10382 -10351 -10390 0
-11549 10382 0
-11549 10351 0
-11549 10390 0
-7020 10343 11546 11547 11548 11549 0
7020 -10343 0
7020 -11546 0
7020 -11547 0
7020 -11548 0
7020 -11549 0
11550 -10424 -10384 0
-11550 10424 0
-11550 10384 0
11551 -10416 -10354 0
-11551 10416 0
-11551 10354 0
11552 -10416 -10384 0
-11552 10416 0
-11552 10384 0
11553 -10424 -10354 -10390 0
-11553 10424 0
-11553 10354 0
-11553 10390 0
-7058 10420 11550 11551 11552 11553 0
7058 -10420 0
7058 -11550 0
7058 -11551 0
7058 -11552 0
7058 -11553 0
11554 -10424 -10386 0
-11554 10424 0
-11554 10386 0
11555 -10416 -10370 0
-11555 10416 0
-11555 10370 0
11556 -10416 -10386 0
-11556 10416 0
-11556 10386 0
11557 -10424 -10370 -10390 0
-11557 10424 0
-11557 10370 0
-11557 10390 0
-7063 10422 11554 11555 11556 11557 0
7063 -10422 0
7063 -11554 0
7063 -11555 0
7063 -11556 0
7063 -11557 0
11558 -10424 -10388 0
-11558 10424 0
-11558 10388 0
11559 -10416 -10382 0
-11559 10416 0
-11559 10382 0
11560 -10416 -10388 0
-11560 10416 0
-11560 10388 0
11561 -10424 -10382 -10390 0
-11561 10424 0
-11561 10382 0
-11561 10390 0
-7014 10399 11558 11559 11560 11561 0
7014 -10399 0
7014 -11558 0
7014 -11559 0
7014 -11560 0
7014 -11561 0
11562 -10424 -10416 0
-11562 10424 0
-11562 10416 0
11110 -10416 -10416 0
-11110 10416 0
-11110 10416 0
11563 -10416 -10424 0
-11563 10416 0
-11563 10424 0
11564 -10424 -10424 -10390 0
-11564 10424 0
-11564 10424 0
-11564 10390 0
-7068 10426 11562 11110 11563 11564 0
7068 -10426 0
7068 -11562 0
7068 -11110 0
7068 -11563 0
7068 -11564 0
11565 -10123 -10120 0
-11565 10123 0
-11565 10120 0
11566 -10120 -10120 0
-11566 10120 0
-11566 10120 0
11567 -10120 -10123 0
-11567 10120 0
-11567 10123 0
11568 -10123 -10123 -10155 0
-11568 10123 0
-11568 10123 0
-11568 10155 0
-9564 10108 11565 11566 11567 11568 0
9564 -10108 0
9564 -11565 0
9564 -11566 0
9564 -11567 0
9564 -11568 0
11569 -10123 -10139 0
-11569 10123 0
-11569 10139 0
11570 -10120 -10139 0
-11570 10120 0
-11570 10139 0
11571 -10120 -10141 0
-11571 10120 0
-11571 10141 0
11572 -10123 -10141 -10155 0
-11572 10123 0
-11572 10141 0
-11572 10155 0
-9913 10111 11569 11570 11571 11572 0
9913 -10111 0
9913 -11569 0
9913 -11570 0
9913 -11571 0
9913 -11572 0
11573 -10123 -10153 0
-11573 10123 0
-11573 10153 0
11574 -10120 -10143 0
-11574 10120 0
-11574 10143 0
11575 -10120 -10153 0
-11575 10120 0
-11575 10153 0
11576 -10123 -10143 -10155 0
-11576 10123 0
-11576 10143 0
-11576 10155 0
-9563 10114 11573 11574 11575 11576 0
9563 -10114 0
9563 -11573 0
9563 -11574 0
9563 -11575 0
9563 -11576 0
11577 -10125 -10153 0
-11577 10125 0
-11577 10153 0
11578 -10151 -10153 0
-11578 10151 0
-11578 10153 0
11579 -10151 -10143 0
-11579 10151 0
-11579 10143 0
11580 -10125 -10143 -10155 0
-11580 10125 0
-11580 10143 0
-11580 10155 0
-9572 10117 11577 11578 11579 11580 0
9572 -10117 0
9572 -11577 0
9572 -11578 0
9572 -11579 0
9572 -11580 0
11581 -10123 -11582 0
-11581 10123 0
-11581 11582 0
11583 -10120 -11582 0
-11583 10120 0
-11583 11582 0
11584 -10120 -10802 0
-11584 10120 0
-11584 10802 0
11585 -10123 -10802 -10155 0
-11585 10123 0
-11585 10802 0
-11585 10155 0
-9567 10803 11581 11583 11584 11585 0
9567 -10803 0
9567 -11581 0
9567 -11583 0
9567 -11584 0
9567 -11585 0
11586 -10123 -10119 0
-11586 10123 0
-11586 10119 0
11587 -10120 -10122 0
-11587 10120 0
-11587 10122 0
11588 -10120 -10119 0
-11588 10120 0
-11588 10119 0
11589 -10123 -10122 -10155 0
-11589 10123 0
-11589 10122 0
-11589 10155 0
-9570 10107 11586 11587 11588 11589 0
9570 -10107 0
9570 -11586 0
9570 -11587 0
9570 -11588 0
9570 -11589 0
11590 -10125 -10119 0
-11590 10125 0
-11590 10119 0
11591 -10151 -10119 0
-11591 10151 0
-11591 10119 0
11592 -10151 -10122 0
-11592 10151 0
-11592 10122 0
11593 -10125 -10122 -10155 0
-11593 10125 0
-11593 10122 0
-11593 10155 0
-9573 10116 11590 11591 11592 11593 0
9573 -10116 0
9573 -11590 0
9573 -11591 0
9573 -11592 0
9573 -11593 0
11594 -10123 -10157 0
-11594 10123 0
-11594 10157 0
11595 -10120 -10157 0
-11595 10120 0
-11595 10157 0
11596 -10120 -10167 0
-11596 10120 0
-11596 10167 0
11597 -10123 -10167 -10155 0
-11597 10123 0
-11597 10167 0
-11597 10155 0
-9576 10128 11594 11595 11596 11597 0
9576 -10128 0
9576 -11594 0
9576 -11595 0
9576 -11596 0
9576 -11597 0
11598 -10123 -10159 0
-11598 10123 0
-11598 10159 0
11599 -10120 -10161 0
-11599 10120 0
-11599 10161 0
11600 -10120 -10159 0
-11600 10120 0
-11600 10159 0
11601 -10123 -10161 -10155 0
-11601 10123 0
-11601 10161 0
-11601 10155 0
-9579 10131 11598 11599 11600 11601 0
9579 -10131 0
9579 -11598 0
9579 -11599 0
9579 -11600 0
9579 -11601 0
11602 -10125 -10159 0
-11602 10125 0
-11602 10159 0
11603 -10151 -10159 0
-11603 10151 0
-11603 10159 0
11604 -10151 -10161 0
-11604 10151 0
-11604 10161 0
11605 -10125 -10161 -10155 0
-11605 10125 0
-11605 10161 0
-11605 10155 0
-9581 10133 11602 11603 11604 11605 0
9581 -10133 0
9581 -11602 0
9581 -11603 0
9581 -11604 0
9581 -11605 0
11606 -10141 -10151 0
-11606 10141 0
-11606 10151 0
11607 -10139 -10125 0
-11607 10139 0
-11607 10125 0
11608 -10139 -10151 0
-11608 10139 0
-11608 10151 0
11609 -10141 -10125 -10155 0
-11609 10141 0
-11609 10125 0
-11609 10155 0
-9930 10135 11606 11607 11608 11609 0
9930 -10135 0
9930 -11606 0
9930 -11607 0
9930 -11608 0
9930 -11609 0
11610 -10141 -10139 0
-11610 10141 0
-11610 10139 0
11611 -10139 -10139 0
-11611 10139 0
-11611 10139 0
11612 -10139 -10141 0
-11612 10139 0
-11612 10141 0
11613 -10141 -10141 -10155 0
-11613 10141 0
-11613 10141 0
-11613 10155 0
-9917 10137 11610 11611 11612 11613 0
9917 -10137 0
9917 -11610 0
9917 -11611 0
9917 -11612 0
9917 -11613 0
11614 -10141 -11582 0
-11614 10141 0
-11614 11582 0
11615 -10139 -11582 0
-11615 10139 0
-11615 11582 0
11616 -10139 -10802 0
-11616 10139 0
-11616 10802 0
11617 -10141 -10802 -10155 0
-11617 10141 0
-11617 10802 0
-11617 10155 0
-9919 10812 11614 11615 11616 11617 0
9919 -10812 0
9919 -11614 0
9919 -11615 0
9919 -11616 0
9919 -11617 0
11618 -10141 -10119 0
-11618 10141 0
-11618 10119 0
11619 -10139 -10122 0
-11619 10139 0
-11619 10122 0
11620 -10139 -10119 0
-11620 10139 0
-11620 10119 0
11621 -10141 -10122 -10155 0
-11621 10141 0
-11621 10122 0
-11621 10155 0
-9924 10110 11618 11619 11620 11621 0
9924 -10110 0
9924 -11618 0
9924 -11619 0
9924 -11620 0
9924 -11621 0
11622 -10143 -10119 0
-11622 10143 0
-11622 10119 0
11623 -10153 -10119 0
-11623 10153 0
-11623 10119 0
11624 -10153 -10122 0
-11624 10153 0
-11624 10122 0
11625 -10143 -10122 -10155 0
-11625 10143 0
-11625 10122 0
-11625 10155 0
-9569 10113 11622 11623 11624 11625 0
9569 -10113 0
9569 -11622 0
9569 -11623 0
9569 -11624 0
9569 -11625 0
11626 -10141 -10157 0
-11626 10141 0
-11626 10157 0
11627 -10139 -10157 0
-11627 10139 0
-11627 10157 0
11628 -10139 -10167 0
-11628 10139 0
-11628 10167 0
11629 -10141 -10167 -10155 0
-11629 10141 0
-11629 10167 0
-11629 10155 0
-9934 10145 11626 11627 11628 11629 0
9934 -10145 0
9934 -11626 0
9934 -11627 0
9934 -11628 0
9934 -11629 0
11630 -10141 -10159 0
-11630 10141 0
-11630 10159 0
11631 -10139 -10161 0
-11631 10139 0
-11631 10161 0
11632 -10139 -10159 0
-11632 10139 0
-11632 10159 0
11633 -10141 -10161 -10155 0
-11633 10141 0
-11633 10161 0
-11633 10155 0
-9939 10147 11630 11631 11632 11633 0
9939 -10147 0
9939 -11630 0
9939 -11631 0
9939 -11632 0
9939 -11633 0
11634 -10143 -10159 0
-11634 10143 0
-11634 10159 0
11635 -10153 -10159 0
-11635 10153 0
-11635 10159 0
11636 -10153 -10161 0
-11636 10153 0
-11636 10161 0
11637 -10143 -10161 -10155 0
-11637 10143 0
-11637 10161 0
-11637 10155 0
-9578 10149 11634 11635 11636 11637 0
9578 -10149 0
9578 -11634 0
9578 -11635 0
9578 -11636 0
9578 -11637 0
11638 -10802 -10151 0
-11638 10802 0
-11638 10151 0
11639 -11582 -10125 0
-11639 11582 0
-11639 10125 0
11640 -11582 -10151 0
-11640 11582 0
-11640 10151 0
11641 -10802 -10125 -10155 0
-11641 10802 0
-11641 10125 0
-11641 10155 0
-9583 10819 11638 11639 11640 11641 0
9583 -10819 0
9583 -11638 0
9583 -11639 0
9583 -11640 0
9583 -11641 0
11642 -10802 -10153 0
-11642 10802 0
-11642 10153 0
11643 -11582 -10143 0
-11643 11582 0
-11643 10143 0
11644 -11582 -10153 0
-11644 11582 0
-11644 10153 0
11645 -10802 -10143 -10155 0
-11645 10802 0
-11645 10143 0
-11645 10155 0
-9566 10821 11642 11643 11644 11645 0
9566 -10821 0
9566 -11642 0
9566 -11643 0
9566 -11644 0
9566 -11645 0
11646 -10802 -11582 0
-11646 10802 0
-11646 11582 0
11647 -11582 -11582 0
-11647 11582 0
-11647 11582 0
11648 -11582 -10802 0
-11648 11582 0
-11648 10802 0
11649 -10802 -10802 -10155 0
-11649 10802 0
-11649 10802 0
-11649 10155 0
-9585 10823 11646 11647 11648 11649 0
9585 -10823 0
9585 -11646 0
9585 -11647 0
9585 -11648 0
9585 -11649 0
11650 -10802 -10157 0
-11650 10802 0
-11650 10157 0
11651 -11582 -10157 0
-11651 11582 0
-11651 10157 0
11652 -11582 -10167 0
-11652 11582 0
-11652 10167 0
11653 -10802 -10167 -10155 0
-11653 10802 0
-11653 10167 0
-11653 10155 0
-9587 10825 11650 11651 11652 11653 0
9587 -10825 0
9587 -11650 0
9587 -11651 0
9587 -11652 0
9587 -11653 0
11654 -10802 -10159 0
-11654 10802 0
-11654 10159 0
11655 -11582 -10161 0
-11655 11582 0
-11655 10161 0
11656 -11582 -10159 0
-11656 11582 0
-11656 10159 0
11657 -10802 -10161 -10155 0
-11657 10802 0
-11657 10161 0
-11657 10155 0
-9589 10827 11654 11655 11656 11657 0
9589 -10827 0
9589 -11654 0
9589 -11655 0
9589 -11656 0
9589 -11657 0
11658 -10122 -10159 0
-11658 10122 0
-11658 10159 0
11659 -10119 -10159 0
-11659 10119 0
-11659 10159 0
11660 -10119 -10161 0
-11660 10119 0
-11660 10161 0
11661 -10122 -10161 -10155 0
-11661 10122 0
-11661 10161 0
-11661 10155 0
-9591 10130 11658 11659 11660 11661 0
9591 -10130 0
9591 -11658 0
9591 -11659 0
9591 -11660 0
9591 -11661 0
11662 -10167 -10151 0
-11662 10167 0
-11662 10151 0
11663 -10157 -10125 0
-11663 10157 0
-11663 10125 0
11664 -10157 -10151 0
-11664 10157 0
-11664 10151 0
11665 -10167 -10125 -10155 0
-11665 10167 0
-11665 10125 0
-11665 10155 0
-9593 10163 11662 11663 11664 11665 0
9593 -10163 0
9593 -11662 0
9593 -11663 0
9593 -11664 0
9593 -11665 0
11666 -10167 -10153 0
-11666 10167 0
-11666 10153 0
11667 -10157 -10143 0
-11667 10157 0
-11667 10143 0
11668 -10157 -10153 0
-11668 10157 0
-11668 10153 0
11669 -10167 -10143 -10155 0
-11669 10167 0
-11669 10143 0
-11669 10155 0
-9575 10165 11666 11667 11668 11669 0
9575 -10165 0
9575 -11666 0
9575 -11667 0
9575 -11668 0
9575 -11669 0
11670 -10167 -10119 0
-11670 10167 0
-11670 10119 0
11671 -10157 -10122 0
-11671 10157 0
-11671 10122 0
11672 -10157 -10119 0
-11672 10157 0
-11672 10119 0
11673 -10167 -10122 -10155 0
-11673 10167 0
-11673 10122 0
-11673 10155 0
-9595 10127 11670 11671 11672 11673 0
9595 -10127 0
9595 -11670 0
9595 -11671 0
9595 -11672 0
9595 -11673 0
11674 -10167 -10157 0
-11674 10167 0
-11674 10157 0
11675 -10157 -10157 0
-11675 10157 0
-11675 10157 0
11676 -10157 -10167 0
-11676 10157 0
-11676 10167 0
11677 -10167 -10167 -10155 0
-11677 10167 0
-11677 10167 0
-11677 10155 0
-9597 10169 11674 11675 11676 11677 0
9597 -10169 0
9597 -11674 0
9597 -11675 0
9597 -11676 0
9597 -11677 0
11678 -10344 -10341 0
-11678 10344 0
-11678 10341 0
11679 -10341 -10341 0
-11679 10341 0
-11679 10341 0
11680 -10341 -10344 0
-11680 10341 0
-11680 10344 0
11681 -10344 -10344 -10376 0
-11681 10344 0
-11681 10344 0
-11681 10376 0
-6497 10329 11678 11679 11680 11681 0
6497 -10329 0
6497 -11678 0
6497 -11679 0
6497 -11680 0
6497 -11681 0
11682 -10344 -10360 0
-11682 10344 0
-11682 10360 0
11683 -10341 -10360 0
-11683 10341 0
-11683 10360 0
11684 -10341 -10362 0
-11684 10341 0
-11684 10362 0
11685 -10344 -10362 -10376 0
-11685 10344 0
-11685 10362 0
-11685 10376 0
-6492 10332 11682 11683 11684 11685 0
6492 -10332 0
6492 -11682 0
6492 -11683 0
6492 -11684 0
6492 -11685 0
11686 -10344 -10374 0
-11686 10344 0
-11686 10374 0
11687 -10341 -10364 0
-11687 10341 0
-11687 10364 0
11688 -10341 -10374 0
-11688 10341 0
-11688 10374 0
11689 -10344 -10364 -10376 0
-11689 10344 0
-11689 10364 0
-11689 10376 0
-6491 10335 11686 11687 11688 11689 0
6491 -10335 0
6491 -11686 0
6491 -11687 0
6491 -11688 0
6491 -11689 0
11690 -10346 -10374 0
-11690 10346 0
-11690 10374 0
11691 -10372 -10374 0
-11691 10372 0
-11691 10374 0
11692 -10372 -10364 0
-11692 10372 0
-11692 10364 0
11693 -10346 -10364 -10376 0
-11693 10346 0
-11693 10364 0
-11693 10376 0
-6513 10338 11690 11691 11692 11693 0
6513 -10338 0
6513 -11690 0
6513 -11691 0
6513 -11692 0
6513 -11693 0
11694 -10344 -10378 0
-11694 10344 0
-11694 10378 0
11695 -10341 -10378 0
-11695 10341 0
-11695 10378 0
11696 -10341 -10388 0
-11696 10341 0
-11696 10388 0
11697 -10344 -10388 -10376 0
-11697 10344 0
-11697 10388 0
-11697 10376 0
-6504 10349 11694 11695 11696 11697 0
6504 -10349 0
6504 -11694 0
6504 -11695 0
6504 -11696 0
6504 -11697 0
11698 -10344 -10380 0
-11698 10344 0
-11698 10380 0
11699 -10341 -10382 0
-11699 10341 0
-11699 10382 0
11700 -10341 -10380 0
-11700 10341 0
-11700 10380 0
11701 -10344 -10382 -10376 0
-11701 10344 0
-11701 10382 0
-11701 10376 0
-6511 10352 11698 11699 11700 11701 0
6511 -10352 0
6511 -11698 0
6511 -11699 0
6511 -11700 0
6511 -11701 0
11702 -10346 -10380 0
-11702 10346 0
-11702 10380 0
11703 -10372 -10380 0
-11703 10372 0
-11703 10380 0
11704 -10372 -10382 0
-11704 10372 0
-11704 10382 0
11705 -10346 -10382 -10376 0
-11705 10346 0
-11705 10382 0
-11705 10376 0
-6518 10354 11702 11703 11704 11705 0
6518 -10354 0
6518 -11702 0
6518 -11703 0
6518 -11704 0
6518 -11705 0
11706 -10344 -10966 0
-11706 10344 0
-11706 10966 0
11707 -10341 -10966 0
-11707 10341 0
-11707 10966 0
11708 -10341 -10399 0
-11708 10341 0
-11708 10399 0
11709 -10344 -10399 -10376 0
-11709 10344 0
-11709 10399 0
-11709 10376 0
-6525 10400 11706 11707 11708 11709 0
6525 -10400 0
6525 -11706 0
6525 -11707 0
6525 -11708 0
6525 -11709 0
11710 -10344 -10340 0
-11710 10344 0
-11710 10340 0
11711 -10341 -10343 0
-11711 10341 0
-11711 10343 0
11712 -10341 -10340 0
-11712 10341 0
-11712 10340 0
11713 -10344 -10343 -10376 0
-11713 10344 0
-11713 10343 0
-11713 10376 0
-6532 10328 11710 11711 11712 11713 0
6532 -10328 0
6532 -11710 0
6532 -11711 0
6532 -11712 0
6532 -11713 0
11714 -10346 -10340 0
-11714 10346 0
-11714 10340 0
11715 -10372 -10340 0
-11715 10372 0
-11715 10340 0
11716 -10372 -10343 0
-11716 10372 0
-11716 10343 0
11717 -10346 -10343 -10376 0
-11717 10346 0
-11717 10343 0
-11717 10376 0
-6537 10337 11714 11715 11716 11717 0
6537 -10337 0
6537 -11714 0
6537 -11715 0
6537 -11716 0
6537 -11717 0
11718 -10362 -10372 0
-11718 10362 0
-11718 10372 0
11719 -10360 -10346 0
-11719 10360 0
-11719 10346 0
11720 -10360 -10372 0
-11720 10360 0
-11720 10372 0
11721 -10362 -10346 -10376 0
-11721 10362 0
-11721 10346 0
-11721 10376 0
-6515 10356 11718 11719 11720 11721 0
6515 -10356 0
6515 -11718 0
6515 -11719 0
6515 -11720 0
6515 -11721 0
11722 -10362 -10360 0
-11722 10362 0
-11722 10360 0
11723 -10360 -10360 0
-11723 10360 0
-11723 10360 0
11724 -10360 -10362 0
-11724 10360 0
-11724 10362 0
11725 -10362 -10362 -10376 0
-11725 10362 0
-11725 10362 0
-11725 10376 0
-6496 10358 11722 11723 11724 11725 0
6496 -10358 0
6496 -11722 0
6496 -11723 0
6496 -11724 0
6496 -11725 0
11726 -10362 -10378 0
-11726 10362 0
-11726 10378 0
11727 -10360 -10378 0
-11727 10360 0
-11727 10378 0
11728 -10360 -10388 0
-11728 10360 0
-11728 10388 0
11729 -10362 -10388 -10376 0
-11729 10362 0
-11729 10388 0
-11729 10376 0
-6499 10366 11726 11727 11728 11729 0
6499 -10366 0
6499 -11726 0
6499 -11727 0
6499 -11728 0
6499 -11729 0
11730 -10362 -10380 0
-11730 10362 0
-11730 10380 0
11731 -10360 -10382 0
-11731 10360 0
-11731 10382 0
11732 -10360 -10380 0
-11732 10360 0
-11732 10380 0
11733 -10362 -10382 -10376 0
-11733 10362 0
-11733 10382 0
-11733 10376 0
-6506 10368 11730 11731 11732 11733 0
6506 -10368 0
6506 -11730 0
6506 -11731 0
6506 -11732 0
6506 -11733 0
11734 -10364 -10380 0
-11734 10364 0
-11734 10380 0
11735 -10374 -10380 0
-11735 10374 0
-11735 10380 0
11736 -10374 -10382 0
-11736 10374 0
-11736 10382 0
11737 -10364 -10382 -10376 0
-11737 10364 0
-11737 10382 0
-11737 10376 0
-6508 10370 11734 11735 11736 11737 0
6508 -10370 0
6508 -11734 0
6508 -11735 0
6508 -11736 0
6508 -11737 0
11738 -10362 -10966 0
-11738 10362 0
-11738 10966 0
11739 -10360 -10966 0
-11739 10360 0
-11739 10966 0
11740 -10360 -10399 0
-11740 10360 0
-11740 10399 0
11741 -10362 -10399 -10376 0
-11741 10362 0
-11741 10399 0
-11741 10376 0
-6520 10409 11738 11739 11740 11741 0
6520 -10409 0
6520 -11738 0
6520 -11739 0
6520 -11740 0
6520 -11741 0
11742 -10362 -10340 0
-11742 10362 0
-11742 10340 0
11743 -10360 -10343 0
-11743 10360 0
-11743 10343 0
11744 -10360 -10340 0
-11744 10360 0
-11744 10340 0
11745 -10362 -10343 -10376 0
-11745 10362 0
-11745 10343 0
-11745 10376 0
-6527 10331 11742 11743 11744 11745 0
6527 -10331 0
6527 -11742 0
6527 -11743 0
6527 -11744 0
6527 -11745 0
11746 -10364 -10340 0
-11746 10364 0
-11746 10340 0
11747 -10374 -10340 0
-11747 10374 0
-11747 10340 0
11748 -10374 -10343 0
-11748 10374 0
-11748 10343 0
11749 -10364 -10343 -10376 0
-11749 10364 0
-11749 10343 0
-11749 10376 0
-6529 10334 11746 11747 11748 11749 0
6529 -10334 0
6529 -11746 0
6529 -11747 0
6529 -11748 0
6529 -11749 0
11750 -10388 -10372 0
-11750 10388 0
-11750 10372 0
11751 -10378 -10346 0
-11751 10378 0
-11751 10346 0
11752 -10378 -10372 0
-11752 10378 0
-11752 10372 0
11753 -10388 -10346 -10376 0
-11753 10388 0
-11753 10346 0
-11753 10376 0
-6542 10384 11750 11751 11752 11753 0
6542 -10384 0
6542 -11750 0
6542 -11751 0
6542 -11752 0
6542 -11753 0
11754 -10388 -10374 0
-11754 10388 0
-11754 10374 0
11755 -10378 -10364 0
-11755 10378 0
-11755 10364 0
11756 -10378 -10374 0
-11756 10378 0
-11756 10374 0
11757 -10388 -10364 -10376 0
-11757 10388 0
-11757 10364 0
-11757 10376 0
-6502 10386 11754 11755 11756 11757 0
6502 -10386 0
6502 -11754 0
6502 -11755 0
6502 -11756 0
6502 -11757 0
11758 -10388 -10378 0
-11758 10388 0
-11758 10378 0
11535 -10378 -10378 0
-11535 10378 0
-11535 10378 0
11759 -10378 -10388 0
-11759 10378 0
-11759 10388 0
11760 -10388 -10388 -10376 0
-11760 10388 0
-11760 10388 0
-11760 10376 0
-6547 10390 11758 11535 11759 11760 0
6547 -10390 0
6547 -11758 0
6547 -11535 0
6547 -11759 0
6547 -11760 0
11761 -10388 -10966 0
-11761 10388 0
-11761 10966 0
11762 -10378 -10966 0
-11762 10378 0
-11762 10966 0
11763 -10378 -10399 0
-11763 10378 0
-11763 10399 0
11764 -10388 -10399 -10376 0
-11764 10388 0
-11764 10399 0
-11764 10376 0
-6552 10416 11761 11762 11763 11764 0
6552 -10416 0
6552 -11761 0
6552 -11762 0
6552 -11763 0
6552 -11764 0
11765 -10388 -10340 0
-11765 10388 0
-11765 10340 0
11766 -10378 -10343 0
-11766 10378 0
-11766 10343 0
11767 -10378 -10340 0
-11767 10378 0
-11767 10340 0
11768 -10388 -10343 -10376 0
-11768 10388 0
-11768 10343 0
-11768 10376 0
-6557 10348 11765 11766 11767 11768 0
6557 -10348 0
6557 -11765 0
6557 -11766 0
6557 -11767 0
6557 -11768 0
11769 -10382 -10340 0
-11769 10382 0
-11769 10340 0
11770 -10380 -10340 0
-11770 10380 0
-11770 10340 0
11771 -10380 -10343 0
-11771 10380 0
-11771 10343 0
11772 -10382 -10343 -10376 0
-11772 10382 0
-11772 10343 0
-11772 10376 0
-6562 10351 11769 11770 11771 11772 0
6562 -10351 0
6562 -11769 0
6562 -11770 0
6562 -11771 0
6562 -11772 0
11773 -10399 -10372 0
-11773 10399 0
-11773 10372 0
11774 -10966 -10346 0
-11774 10966 0
-11774 10346 0
11775 -10966 -10372 0
-11775 10966 0
-11775 10372 0
11776 -10399 -10346 -10376 0
-11776 10399 0
-11776 10346 0
-11776 10376 0
-6567 10420 11773 11774 11775 11776 0
6567 -10420 0
6567 -11773 0
6567 -11774 0
6567 -11775 0
6567 -11776 0
11777 -10399 -10374 0
-11777 10399 0
-11777 10374 0
11778 -10966 -10364 0
-11778 10966 0
-11778 10364 0
11779 -10966 -10374 0
-11779 10966 0
-11779 10374 0
11780 -10399 -10364 -10376 0
-11780 10399 0
-11780 10364 0
-11780 10376 0
-6523 10422 11777 11778 11779 11780 0
6523 -10422 0
6523 -11777 0
6523 -11778 0
6523 -11779 0
6523 -11780 0
11781 -10399 -10380 0
-11781 10399 0
-11781 10380 0
11782 -10966 -10382 0
-11782 10966 0
-11782 10382 0
11783 -10966 -10380 0
-11783 10966 0
-11783 10380 0
11784 -10399 -10382 -10376 0
-11784 10399 0
-11784 10382 0
-11784 10376 0
-6572 10424 11781 11782 11783 11784 0
6572 -10424 0
6572 -11781 0
6572 -11782 0
6572 -11783 0
6572 -11784 0
11785 -10399 -10966 0
-11785 10399 0
-11785 10966 0
11082 -10966 -10966 0
-11082 10966 0
-11082 10966 0
11786 -10966 -10399 0
-11786 10966 0
-11786 10399 0
11787 -10399 -10399 -10376 0
-11787 10399 0
-11787 10399 0
-11787 10376 0
-6577 10426 11785 11082 11786 11787 0
6577 -10426 0
6577 -11785 0
6577 -11082 0
6577 -11786 0
6577 -11787 0
11788 -10171 -10171 0
-11788 10171 0
-11788 10171 0
-6580 10177 11788 0
6580 -10177 0
6580 -11788 0
11789 -10171 -10182 0
-11789 10171 0
-11789 10182 0
-6583 10184 11789 0
6583 -10184 0
6583 -11789 0
11790 -10171 -10188 0
-11790 10171 0
-11790 10188 0
-6586 10191 11790 0
6586 -10191 0
6586 -11790 0
11791 -10193 -10188 0
-11791 10193 0
-11791 10188 0
-6589 10198 11791 0
6589 -10198 0
6589 -11791 0
11792 -10171 -10203 0
-11792 10171 0
-11792 10203 0
-7813 10205 11792 0
7813 -10205 0
7813 -11792 0
11793 -10171 -10209 0
-11793 10171 0
-11793 10209 0
-6579 10212 11793 0
6579 -10212 0
6579 -11793 0
11794 -10193 -10209 0
-11794 10193 0
-11794 10209 0
-6588 10217 11794 0
6588 -10217 0
6588 -11794 0
11795 -10171 -10222 0
-11795 10171 0
-11795 10222 0
-6592 10224 11795 0
6592 -10224 0
6592 -11795 0
11796 -10171 -10228 0
-11796 10171 0
-11796 10228 0
-6595 10231 11796 0
6595 -10231 0
6595 -11796 0
11797 -10193 -10228 0
-11797 10193 0
-11797 10228 0
-6597 10236 11797 0
6597 -10236 0
6597 -11797 0
11798 -10182 -10193 0
-11798 10182 0
-11798 10193 0
-6599 10241 11798 0
6599 -10241 0
6599 -11798 0
11799 -10182 -10182 0
-11799 10182 0
-11799 10182 0
-6601 10246 11799 0
6601 -10246 0
6601 -11799 0
11800 -10182 -10203 0
-11800 10182 0
-11800 10203 0
-7808 10251 11800 0
7808 -10251 0
7808 -11800 0
11801 -10182 -10209 0
-11801 10182 0
-11801 10209 0
-6582 10256 11801 0
6582 -10256 0
6582 -11801 0
11802 -10188 -10209 0
-11802 10188 0
-11802 10209 0
-6585 10261 11802 0
6585 -10261 0
6585 -11802 0
11803 -10182 -10222 0
-11803 10182 0
-11803 10222 0
-6603 10266 11803 0
6603 -10266 0
6603 -11803 0
11804 -10182 -10228 0
-11804 10182 0
-11804 10228 0
-6605 10271 11804 0
6605 -10271 0
6605 -11804 0
11805 -10188 -10228 0
-11805 10188 0
-11805 10228 0
-6607 10276 11805 0
6607 -10276 0
6607 -11805 0
11806 -10203 -10193 0
-11806 10203 0
-11806 10193 0
-7838 10281 11806 0
7838 -10281 0
7838 -11806 0
11807 -10203 -10188 0
-11807 10203 0
-11807 10188 0
-7811 10286 11807 0
7811 -10286 0
7811 -11807 0
11808 -10203 -10203 0
-11808 10203 0
-11808 10203 0
-7843 10291 11808 0
7843 -10291 0
7843 -11808 0
11809 -10203 -10222 0
-11809 10203 0
-11809 10222 0
-7848 10296 11809 0
7848 -10296 0
7848 -11809 0
11810 -10203 -10228 0
-11810 10203 0
-11810 10228 0
-7853 10301 11810 0
7853 -10301 0
7853 -11810 0
11811 -10209 -10228 0
-11811 10209 0
-11811 10228 0
-6594 10306 11811 0
6594 -10306 0
6594 -11811 0
11812 -10222 -10193 0
-11812 10222 0
-11812 10193 0
-6609 10311 11812 0
6609 -10311 0
6609 -11812 0
11813 -10222 -10188 0
-11813 10222 0
-11813 10188 0
-6611 10316 11813 0
6611 -10316 0
6611 -11813 0
11814 -10222 -10209 0
-11814 10222 0
-11814 10209 0
-6591 10321 11814 0
6591 -10321 0
6591 -11814 0
11815 -10222 -10222 0
-11815 10222 0
-11815 10222 0
-6613 10326 11815 0
6613 -10326 0
6613 -11815 0
11816 -11252 -11817 0
-11816 11252 0
-11816 11817 0
11818 -11817 -11817 0
-11818 11817 0
-11818 11817 0
11819 -11817 -11252 0
-11819 11817 0
-11819 11252 0
11820 -11252 -11252 -11821 0
-11820 11252 0
-11820 11252 0
-11820 11821 0
-8057 11253 11816 11818 11819 11820 0
8057 -11253 0
8057 -11816 0
8057 -11818 0
8057 -11819 0
8057 -11820 0
11822 -11252 -11823 0
-11822 11252 0
-11822 11823 0
11824 -11817 -11823 0
-11824 11817 0
-11824 11823 0
11825 -11817 -11255 0
-11825 11817 0
-11825 11255 0
11826 -11252 -11255 -11821 0
-11826 11252 0
-11826 11255 0
-11826 11821 0
-8733 11256 11822 11824 11825 11826 0
8733 -11256 0
8733 -11822 0
8733 -11824 0
8733 -11825 0
8733 -11826 0
11827 -11252 -11828 0
-11827 11252 0
-11827 11828 0
11829 -11817 -11258 0
-11829 11817 0
-11829 11258 0
11830 -11817 -11828 0
-11830 11817 0
-11830 11828 0
11831 -11252 -11258 -11821 0
-11831 11252 0
-11831 11258 0
-11831 11821 0
-8056 11259 11827 11829 11830 11831 0
8056 -11259 0
8056 -11827 0
8056 -11829 0
8056 -11830 0
8056 -11831 0
11832 -11261 -11828 0
-11832 11261 0
-11832 11828 0
11833 -11834 -11828 0
-11833 11834 0
-11833 11828 0
11835 -11834 -11258 0
-11835 11834 0
-11835 11258 0
11836 -11261 -11258 -11821 0
-11836 11261 0
-11836 11258 0
-11836 11821 0
-8065 11262 11832 11833 11835 11836 0
8065 -11262 0
8065 -11832 0
8065 -11833 0
8065 -11835 0
8065 -11836 0
11837 -11252 -11838 0
-11837 11252 0
-11837 11838 0
11839 -11817 -11838 0
-11839 11817 0
-11839 11838 0
11840 -11817 -11264 0
-11840 11817 0
-11840 11264 0
11841 -11252 -11264 -11821 0
-11841 11252 0
-11841 11264 0
-11841 11821 0
-8060 11265 11837 11839 11840 11841 0
8060 -11265 0
8060 -11837 0
8060 -11839 0
8060 -11840 0
8060 -11841 0
11842 -11252 -11843 0
-11842 11252 0
-11842 11843 0
11844 -11817 -11267 0
-11844 11817 0
-11844 11267 0
11845 -11817 -11843 0
-11845 11817 0
-11845 11843 0
11846 -11252 -11267 -11821 0
-11846 11252 0
-11846 11267 0
-11846 11821 0
-8063 11268 11842 11844 11845 11846 0
8063 -11268 0
8063 -11842 0
8063 -11844 0
8063 -11845 0
8063 -11846 0
11847 -11261 -11843 0
-11847 11261 0
-11847 11843 0
11848 -11834 -11843 0
-11848 11834 0
-11848 11843 0
11849 -11834 -11267 0
-11849 11834 0
-11849 11267 0
11850 -11261 -11267 -11821 0
-11850 11261 0
-11850 11267 0
-11850 11821 0
-8066 11270 11847 11848 11849 11850 0
8066 -11270 0
8066 -11847 0
8066 -11848 0
8066 -11849 0
8066 -11850 0
11851 -11252 -11852 0
-11851 11252 0
-11851 11852 0
11853 -11817 -11852 0
-11853 11817 0
-11853 11852 0
11854 -11817 -11272 0
-11854 11817 0
-11854 11272 0
11855 -11252 -11272 -11821 0
-11855 11252 0
-11855 11272 0
-11855 11821 0
-8069 11273 11851 11853 11854 11855 0
8069 -11273 0
8069 -11851 0
8069 -11853 0
8069 -11854 0
8069 -11855 0
11856 -11252 -11857 0
-11856 11252 0
-11856 11857 0
11858 -11817 -11275 0
-11858 11817 0
-11858 11275 0
11859 -11817 -11857 0
-11859 11817 0
-11859 11857 0
11860 -11252 -11275 -11821 0
-11860 11252 0
-11860 11275 0
-11860 11821 0
-8072 11276 11856 11858 11859 11860 0
8072 -11276 0
8072 -11856 0
8072 -11858 0
8072 -11859 0
8072 -11860 0
11861 -11261 -11857 0
-11861 11261 0
-11861 11857 0
11862 -11834 -11857 0
-11862 11834 0
-11862 11857 0
11863 -11834 -11275 0
-11863 11834 0
-11863 11275 0
11864 -11261 -11275 -11821 0
-11864 11261 0
-11864 11275 0
-11864 11821 0
-8074 11278 11861 11862 11863 11864 0
8074 -11278 0
8074 -11861 0
8074 -11862 0
8074 -11863 0
8074 -11864 0
11865 -11255 -11834 0
-11865 11255 0
-11865 11834 0
11866 -11823 -11261 0
-11866 11823 0
-11866 11261 0
11867 -11823 -11834 0
-11867 11823 0
-11867 11834 0
11868 -11255 -11261 -11821 0
-11868 11255 0
-11868 11261 0
-11868 11821 0
-8750 11280 11865 11866 11867 11868 0
8750 -11280 0
8750 -11865 0
8750 -11866 0
8750 -11867 0
8750 -11868 0
11869 -11255 -11823 0
-11869 11255 0
-11869 11823 0
11870 -11823 -11823 0
-11870 11823 0
-11870 11823 0
11871 -11823 -11255 0
-11871 11823 0
-11871 11255 0
11872 -11255 -11255 -11821 0
-11872 11255 0
-11872 11255 0
-11872 11821 0
-8737 11282 11869 11870 11871 11872 0
8737 -11282 0
8737 -11869 0
8737 -11870 0
8737 -11871 0
8737 -11872 0
11873 -11255 -11838 0
-11873 11255 0
-11873 11838 0
11874 -11823 -11838 0
-11874 11823 0
-11874 11838 0
11875 -11823 -11264 0
-11875 11823 0
-11875 11264 0
11876 -11255 -11264 -11821 0
-11876 11255 0
-11876 11264 0
-11876 11821 0
-8739 11284 11873 11874 11875 11876 0
8739 -11284 0
8739 -11873 0
8739 -11874 0
8739 -11875 0
8739 -11876 0
11877 -11255 -11843 0
-11877 11255 0
-11877 11843 0
11878 -11823 -11267 0
-11878 11823 0
-11878 11267 0
11879 -11823 -11843 0
-11879 11823 0
-11879 11843 0
11880 -11255 -11267 -11821 0
-11880 11255 0
-11880 11267 0
-11880 11821 0
-8744 11286 11877 11878 11879 11880 0
8744 -11286 0
8744 -11877 0
8744 -11878 0
8744 -11879 0
8744 -11880 0
11881 -11258 -11843 0
-11881 11258 0
-11881 11843 0
11882 -11828 -11843 0
-11882 11828 0
-11882 11843 0
11883 -11828 -11267 0
-11883 11828 0
-11883 11267 0
11884 -11258 -11267 -11821 0
-11884 11258 0
-11884 11267 0
-11884 11821 0
-8062 11288 11881 11882 11883 11884 0
8062 -11288 0
8062 -11881 0
8062 -11882 0
8062 -11883 0
8062 -11884 0
11885 -11255 -11852 0
-11885 11255 0
-11885 11852 0
11886 -11823 -11852 0
-11886 11823 0
-11886 11852 0
11887 -11823 -11272 0
-11887 11823 0
-11887 11272 0
11888 -11255 -11272 -11821 0
-11888 11255 0
-11888 11272 0
-11888 11821 0
-8754 11290 11885 11886 11887 11888 0
8754 -11290 0
8754 -11885 0
8754 -11886 0
8754 -11887 0
8754 -11888 0
11889 -11255 -11857 0
-11889 11255 0
-11889 11857 0
11890 -11823 -11275 0
-11890 11823 0
-11890 11275 0
11891 -11823 -11857 0
-11891 11823 0
-11891 11857 0
11892 -11255 -11275 -11821 0
-11892 11255 0
-11892 11275 0
-11892 11821 0
-8759 11292 11889 11890 11891 11892 0
8759 -11292 0
8759 -11889 0
8759 -11890 0
8759 -11891 0
8759 -11892 0
11893 -11258 -11857 0
-11893 11258 0
-11893 11857 0
11894 -11828 -11857 0
-11894 11828 0
-11894 11857 0
11895 -11828 -11275 0
-11895 11828 0
-11895 11275 0
11896 -11258 -11275 -11821 0
-11896 11258 0
-11896 11275 0
-11896 11821 0
-8071 11294 11893 11894 11895 11896 0
8071 -11294 0
8071 -11893 0
8071 -11894 0
8071 -11895 0
8071 -11896 0
11897 -11264 -11834 0
-11897 11264 0
-11897 11834 0
11898 -11838 -11261 0
-11898 11838 0
-11898 11261 0
11899 -11838 -11834 0
-11899 11838 0
-11899 11834 0
11900 -11264 -11261 -11821 0
-11900 11264 0
-11900 11261 0
-11900 11821 0
-8076 11296 11897 11898 11899 11900 0
8076 -11296 0
8076 -11897 0
8076 -11898 0
8076 -11899 0
8076 -11900 0
11901 -11264 -11828 0
-11901 11264 0
-11901 11828 0
11902 -11838 -11258 0
-11902 11838 0
-11902 11258 0
11903 -11838 -11828 0
-11903 11838 0
-11903 11828 0
11904 -11264 -11258 -11821 0
-11904 11264 0
-11904 11258 0
-11904 11821 0
-8059 11298 11901 11902 11903 11904 0
8059 -11298 0
8059 -11901 0
8059 -11902 0
8059 -11903 0
8059 -11904 0
11905 -11264 -11838 0
-11905 11264 0
-11905 11838 0
11906 -11838 -11838 0
-11906 11838 0
-11906 11838 0
11907 -11838 -11264 0
-11907 11838 0
-11907 11264 0
11908 -11264 -11264 -11821 0
-11908 11264 0
-11908 11264 0
-11908 11821 0
-8078 11300 11905 11906 11907 11908 0
8078 -11300 0
8078 -11905 0
8078 -11906 0
8078 -11907 0
8078 -11908 0
11909 -11264 -11852 0
-11909 11264 0
-11909 11852 0
11910 -11838 -11852 0
-11910 11838 0
-11910 11852 0
11911 -11838 -11272 0
-11911 11838 0
-11911 11272 0
11912 -11264 -11272 -11821 0
-11912 11264 0
-11912 11272 0
-11912 11821 0
-8080 11302 11909 11910 11911 11912 0
8080 -11302 0
8080 -11909 0
8080 -11910 0
8080 -11911 0
8080 -11912 0
11913 -11264 -11857 0
-11913 11264 0
-11913 11857 0
11914 -11838 -11275 0
-11914 11838 0
-11914 11275 0
11915 -11838 -11857 0
-11915 11838 0
-11915 11857 0
11916 -11264 -11275 -11821 0
-11916 11264 0
-11916 11275 0
-11916 11821 0
-8082 11304 11913 11914 11915 11916 0
8082 -11304 0
8082 -11913 0
8082 -11914 0
8082 -11915 0
8082 -11916 0
11917 -11267 -11857 0
-11917 11267 0
-11917 11857 0
11918 -11843 -11857 0
-11918 11843 0
-11918 11857 0
11919 -11843 -11275 0
-11919 11843 0
-11919 11275 0
11920 -11267 -11275 -11821 0
-11920 11267 0
-11920 11275 0
-11920 11821 0
-8084 11306 11917 11918 11919 11920 0
8084 -11306 0
8084 -11917 0
8084 -11918 0
8084 -11919 0
8084 -11920 0
11921 -11272 -11834 0
-11921 11272 0
-11921 11834 0
11922 -11852 -11261 0
-11922 11852 0
-11922 11261 0
11923 -11852 -11834 0
-11923 11852 0
-11923 11834 0
11924 -11272 -11261 -11821 0
-11924 11272 0
-11924 11261 0
-11924 11821 0
-8086 11308 11921 11922 11923 11924 0
8086 -11308 0
8086 -11921 0
8086 -11922 0
8086 -11923 0
8086 -11924 0
11925 -11272 -11828 0
-11925 11272 0
-11925 11828 0
11926 -11852 -11258 0
-11926 11852 0
-11926 11258 0
11927 -11852 -11828 0
-11927 11852 0
-11927 11828 0
11928 -11272 -11258 -11821 0
-11928 11272 0
-11928 11258 0
-11928 11821 0
-8068 11310 11925 11926 11927 11928 0
8068 -11310 0
8068 -11925 0
8068 -11926 0
8068 -11927 0
8068 -11928 0
11929 -11272 -11843 0
-11929 11272 0
-11929 11843 0
11930 -11852 -11267 0
-11930 11852 0
-11930 11267 0
11931 -11852 -11843 0
-11931 11852 0
-11931 11843 0
11932 -11272 -11267 -11821 0
-11932 11272 0
-11932 11267 0
-11932 11821 0
-8088 11312 11929 11930 11931 11932 0
8088 -11312 0
8088 -11929 0
8088 -11930 0
8088 -11931 0
8088 -11932 0
11933 -11272 -11852 0
-11933 11272 0
-11933 11852 0
11934 -11852 -11852 0
-11934 11852 0
-11934 11852 0
11935 -11852 -11272 0
-11935 11852 0
-11935 11272 0
11936 -11272 -11272 -11821 0
-11936 11272 0
-11936 11272 0
-11936 11821 0
-8090 11314 11933 11934 11935 11936 0
8090 -11314 0
8090 -11933 0
8090 -11934 0
8090 -11935 0
8090 -11936 0
11937 -10107 -10803 0
-11937 10107 0
-11937 10803 0
11938 -10803 -10803 0
-11938 10803 0
-11938 10803 0
11939 -10803 -10107 0
-11939 10803 0
-11939 10107 0
11940 -10107 -10107 -10823 0
-11940 10107 0
-11940 10107 0
-11940 10823 0
-7076 10108 11937 11938 11939 11940 0
7076 -10108 0
7076 -11937 0
7076 -11938 0
7076 -11939 0
7076 -11940 0
11941 -10107 -10812 0
-11941 10107 0
-11941 10812 0
11942 -10803 -10812 0
-11942 10803 0
-11942 10812 0
11943 -10803 -10110 0
-11943 10803 0
-11943 10110 0
11944 -10107 -10110 -10823 0
-11944 10107 0
-11944 10110 0
-11944 10823 0
-7083 10111 11941 11942 11943 11944 0
7083 -10111 0
7083 -11941 0
7083 -11942 0
7083 -11943 0
7083 -11944 0
11945 -10107 -10821 0
-11945 10107 0
-11945 10821 0
11946 -10803 -10113 0
-11946 10803 0
-11946 10113 0
11947 -10803 -10821 0
-11947 10803 0
-11947 10821 0
11948 -10107 -10113 -10823 0
-11948 10107 0
-11948 10113 0
-11948 10823 0
-7090 10114 11945 11946 11947 11948 0
7090 -10114 0
7090 -11945 0
7090 -11946 0
7090 -11947 0
7090 -11948 0
11949 -10116 -10821 0
-11949 10116 0
-11949 10821 0
11950 -10819 -10821 0
-11950 10819 0
-11950 10821 0
11951 -10819 -10113 0
-11951 10819 0
-11951 10113 0
11952 -10116 -10113 -10823 0
-11952 10116 0
-11952 10113 0
-11952 10823 0
-7097 10117 11949 11950 11951 11952 0
7097 -10117 0
7097 -11949 0
7097 -11950 0
7097 -11951 0
7097 -11952 0
11953 -10107 -11582 0
-11953 10107 0
-11953 11582 0
11954 -10803 -11582 0
-11954 10803 0
-11954 11582 0
11955 -10803 -10119 0
-11955 10803 0
-11955 10119 0
11956 -10107 -10119 -10823 0
-11956 10107 0
-11956 10119 0
-11956 10823 0
-7071 10120 11953 11954 11955 11956 0
7071 -10120 0
7071 -11953 0
7071 -11954 0
7071 -11955 0
7071 -11956 0
11957 -10107 -10802 0
-11957 10107 0
-11957 10802 0
11958 -10803 -10122 0
-11958 10803 0
-11958 10122 0
11959 -10803 -10802 0
-11959 10803 0
-11959 10802 0
11960 -10107 -10122 -10823 0
-11960 10107 0
-11960 10122 0
-11960 10823 0
-7070 10123 11957 11958 11959 11960 0
7070 -10123 0
7070 -11957 0
7070 -11958 0
7070 -11959 0
7070 -11960 0
11961 -10116 -10802 0
-11961 10116 0
-11961 10802 0
11962 -10819 -10802 0
-11962 10819 0
-11962 10802 0
11963 -10819 -10122 0
-11963 10819 0
-11963 10122 0
11964 -10116 -10122 -10823 0
-11964 10116 0
-11964 10122 0
-11964 10823 0
-7092 10125 11961 11962 11963 11964 0
7092 -10125 0
7092 -11961 0
7092 -11962 0
7092 -11963 0
7092 -11964 0
11965 -10107 -10825 0
-11965 10107 0
-11965 10825 0
11966 -10803 -10825 0
-11966 10803 0
-11966 10825 0
11967 -10803 -10127 0
-11967 10803 0
-11967 10127 0
11968 -10107 -10127 -10823 0
-11968 10107 0
-11968 10127 0
-11968 10823 0
-7104 10128 11965 11966 11967 11968 0
7104 -10128 0
7104 -11965 0
7104 -11966 0
7104 -11967 0
7104 -11968 0
11969 -10107 -10827 0
-11969 10107 0
-11969 10827 0
11970 -10803 -10130 0
-11970 10803 0
-11970 10130 0
11971 -10803 -10827 0
-11971 10803 0
-11971 10827 0
11972 -10107 -10130 -10823 0
-11972 10107 0
-11972 10130 0
-11972 10823 0
-7111 10131 11969 11970 11971 11972 0
7111 -10131 0
7111 -11969 0
7111 -11970 0
7111 -11971 0
7111 -11972 0
11973 -10116 -10827 0
-11973 10116 0
-11973 10827 0
11974 -10819 -10827 0
-11974 10819 0
-11974 10827 0
11975 -10819 -10130 0
-11975 10819 0
-11975 10130 0
11976 -10116 -10130 -10823 0
-11976 10116 0
-11976 10130 0
-11976 10823 0
-7116 10133 11973 11974 11975 11976 0
7116 -10133 0
7116 -11973 0
7116 -11974 0
7116 -11975 0
7116 -11976 0
11977 -10110 -10819 0
-11977 10110 0
-11977 10819 0
11978 -10812 -10116 0
-11978 10812 0
-11978 10116 0
11979 -10812 -10819 0
-11979 10812 0
-11979 10819 0
11980 -10110 -10116 -10823 0
-11980 10110 0
-11980 10116 0
-11980 10823 0
-7121 10135 11977 11978 11979 11980 0
7121 -10135 0
7121 -11977 0
7121 -11978 0
7121 -11979 0
7121 -11980 0
11981 -10110 -10812 0
-11981 10110 0
-11981 10812 0
11982 -10812 -10812 0
-11982 10812 0
-11982 10812 0
11983 -10812 -10110 0
-11983 10812 0
-11983 10110 0
11984 -10110 -10110 -10823 0
-11984 10110 0
-11984 10110 0
-11984 10823 0
-7126 10137 11981 11982 11983 11984 0
7126 -10137 0
7126 -11981 0
7126 -11982 0
7126 -11983 0
7126 -11984 0
11985 -10110 -11582 0
-11985 10110 0
-11985 11582 0
11986 -10812 -11582 0
-11986 10812 0
-11986 11582 0
11987 -10812 -10119 0
-11987 10812 0
-11987 10119 0
11988 -10110 -10119 -10823 0
-11988 10110 0
-11988 10119 0
-11988 10823 0
-7078 10139 11985 11986 11987 11988 0
7078 -10139 0
7078 -11985 0
7078 -11986 0
7078 -11987 0
7078 -11988 0
11989 -10110 -10802 0
-11989 10110 0
-11989 10802 0
11990 -10812 -10122 0
-11990 10812 0
-11990 10122 0
11991 -10812 -10802 0
-11991 10812 0
-11991 10802 0
11992 -10110 -10122 -10823 0
-11992 10110 0
-11992 10122 0
-11992 10823 0
-7081 10141 11989 11990 11991 11992 0
7081 -10141 0
7081 -11989 0
7081 -11990 0
7081 -11991 0
7081 -11992 0
11993 -10113 -10802 0
-11993 10113 0
-11993 10802 0
11994 -10821 -10802 0
-11994 10821 0
-11994 10802 0
11995 -10821 -10122 0
-11995 10821 0
-11995 10122 0
11996 -10113 -10122 -10823 0
-11996 10113 0
-11996 10122 0
-11996 10823 0
-7087 10143 11993 11994 11995 11996 0
7087 -10143 0
7087 -11993 0
7087 -11994 0
7087 -11995 0
7087 -11996 0
11997 -10110 -10825 0
-11997 10110 0
-11997 10825 0
11998 -10812 -10825 0
-11998 10812 0
-11998 10825 0
11999 -10812 -10127 0
-11999 10812 0
-11999 10127 0
12000 -10110 -10127 -10823 0
-12000 10110 0
-12000 10127 0
-12000 10823 0
-7131 10145 11997 11998 11999 12000 0
7131 -10145 0
7131 -11997 0
7131 -11998 0
7131 -11999 0
7131 -12000 0
12001 -10110 -10827 0
-12001 10110 0
-12001 10827 0
12002 -10812 -10130 0
-12002 10812 0
-12002 10130 0
12003 -10812 -10827 0
-12003 10812 0
-12003 10827 0
12004 -10110 -10130 -10823 0
-12004 10110 0
-12004 10130 0
-12004 10823 0
-7136 10147 12001 12002 12003 12004 0
7136 -10147 0
7136 -12001 0
7136 -12002 0
7136 -12003 0
7136 -12004 0
12005 -10113 -10827 0
-12005 10113 0
-12005 10827 0
12006 -10821 -10827 0
-12006 10821 0
-12006 10827 0
12007 -10821 -10130 0
-12007 10821 0
-12007 10130 0
12008 -10113 -10130 -10823 0
-12008 10113 0
-12008 10130 0
-12008 10823 0
-7141 10149 12005 12006 12007 12008 0
7141 -10149 0
7141 -12005 0
7141 -12006 0
7141 -12007 0
7141 -12008 0
12009 -10119 -10819 0
-12009 10119 0
-12009 10819 0
12010 -11582 -10116 0
-12010 11582 0
-12010 10116 0
12011 -11582 -10819 0
-12011 11582 0
-12011 10819 0
12012 -10119 -10116 -10823 0
-12012 10119 0
-12012 10116 0
-12012 10823 0
-7094 10151 12009 12010 12011 12012 0
7094 -10151 0
7094 -12009 0
7094 -12010 0
7094 -12011 0
7094 -12012 0
12013 -10119 -10821 0
-12013 10119 0
-12013 10821 0
12014 -11582 -10113 0
-12014 11582 0
-12014 10113 0
12015 -11582 -10821 0
-12015 11582 0
-12015 10821 0
12016 -10119 -10113 -10823 0
-12016 10119 0
-12016 10113 0
-12016 10823 0
-7085 10153 12013 12014 12015 12016 0
7085 -10153 0
7085 -12013 0
7085 -12014 0
7085 -12015 0
7085 -12016 0
12017 -10119 -11582 0
-12017 10119 0
-12017 11582 0
11647 -11582 -11582 0
-11647 11582 0
-11647 11582 0
12018 -11582 -10119 0
-12018 11582 0
-12018 10119 0
12019 -10119 -10119 -10823 0
-12019 10119 0
-12019 10119 0
-12019 10823 0
-7075 10155 12017 11647 12018 12019 0
7075 -10155 0
7075 -12017 0
7075 -11647 0
7075 -12018 0
7075 -12019 0
12020 -10119 -10825 0
-12020 10119 0
-12020 10825 0
12021 -11582 -10825 0
-12021 11582 0
-12021 10825 0
12022 -11582 -10127 0
-12022 11582 0
-12022 10127 0
12023 -10119 -10127 -10823 0
-12023 10119 0
-12023 10127 0
-12023 10823 0
-7099 10157 12020 12021 12022 12023 0
7099 -10157 0
7099 -12020 0
7099 -12021 0
7099 -12022 0
7099 -12023 0
12024 -10119 -10827 0
-12024 10119 0
-12024 10827 0
12025 -11582 -10130 0
-12025 11582 0
-12025 10130 0
12026 -11582 -10827 0
-12026 11582 0
-12026 10827 0
12027 -10119 -10130 -10823 0
-12027 10119 0
-12027 10130 0
-12027 10823 0
-7106 10159 12024 12025 12026 12027 0
7106 -10159 0
7106 -12024 0
7106 -12025 0
7106 -12026 0
7106 -12027 0
12028 -10122 -10827 0
-12028 10122 0
-12028 10827 0
12029 -10802 -10827 0
-12029 10802 0
-12029 10827 0
12030 -10802 -10130 0
-12030 10802 0
-12030 10130 0
12031 -10122 -10130 -10823 0
-12031 10122 0
-12031 10130 0
-12031 10823 0
-7108 10161 12028 12029 12030 12031 0
7108 -10161 0
7108 -12028 0
7108 -12029 0
7108 -12030 0
7108 -12031 0
12032 -10127 -10819 0
-12032 10127 0
-12032 10819 0
12033 -10825 -10116 0
-12033 10825 0
-12033 10116 0
12034 -10825 -10819 0
-12034 10825 0
-12034 10819 0
12035 -10127 -10116 -10823 0
-12035 10127 0
-12035 10116 0
-12035 10823 0
-7146 10163 12032 12033 12034 12035 0
7146 -10163 0
7146 -12032 0
7146 -12033 0
7146 -12034 0
7146 -12035 0
12036 -10127 -10821 0
-12036 10127 0
-12036 10821 0
12037 -10825 -10113 0
-12037 10825 0
-12037 10113 0
12038 -10825 -10821 0
-12038 10825 0
-12038 10821 0
12039 -10127 -10113 -10823 0
-12039 10127 0
-12039 10113 0
-12039 10823 0
-7151 10165 12036 12037 12038 12039 0
7151 -10165 0
7151 -12036 0
7151 -12037 0
7151 -12038 0
7151 -12039 0
12040 -10127 -10802 0
-12040 10127 0
-12040 10802 0
12041 -10825 -10122 0
-12041 10825 0
-12041 10122 0
12042 -10825 -10802 0
-12042 10825 0
-12042 10802 0
12043 -10127 -10122 -10823 0
-12043 10127 0
-12043 10122 0
-12043 10823 0
-7102 10167 12040 12041 12042 12043 0
7102 -10167 0
7102 -12040 0
7102 -12041 0
7102 -12042 0
7102 -12043 0
12044 -10127 -10825 0
-12044 10127 0
-12044 10825 0
12045 -10825 -10825 0
-12045 10825 0
-12045 10825 0
12046 -10825 -10127 0
-12046 10825 0
-12046 10127 0
12047 -10127 -10127 -10823 0
-12047 10127 0
-12047 10127 0
-12047 10823 0
-7156 10169 12044 12045 12046 12047 0
7156 -10169 0
7156 -12044 0
7156 -12045 0
7156 -12046 0
7156 -12047 0
12048 -12049 -12049 0
-12048 12049 0
-12048 12049 0
-10429 1201 12048 0
10429 -1201 0
10429 -12048 0
12050 -12049 -12051 0
-12050 12049 0
-12050 12051 0
-10432 1202 12050 0
10432 -1202 0
10432 -12050 0
12052 -12049 -12053 0
-12052 12049 0
-12052 12053 0
-10435 12054 12052 0
10435 -12054 0
10435 -12052 0
12055 -12056 -12053 0
-12055 12056 0
-12055 12053 0
-10438 12057 12055 0
10438 -12057 0
10438 -12055 0
12058 -12049 -12059 0
-12058 12049 0
-12058 12059 0
-10698 1204 12058 0
10698 -1204 0
10698 -12058 0
12060 -12049 -12061 0
-12060 12049 0
-12060 12061 0
-10428 12062 12060 0
10428 -12062 0
10428 -12060 0
12063 -12056 -12061 0
-12063 12056 0
-12063 12061 0
-10437 12064 12063 0
10437 -12064 0
10437 -12063 0
12065 -12049 -12066 0
-12065 12049 0
-12065 12066 0
-10441 1207 12065 0
10441 -1207 0
10441 -12065 0
12067 -12049 -12068 0
-12067 12049 0
-12067 12068 0
-10444 12069 12067 0
10444 -12069 0
10444 -12067 0
12070 -12056 -12068 0
-12070 12056 0
-12070 12068 0
-10446 12071 12070 0
10446 -12071 0
10446 -12070 0
12072 -12049 -12073 0
-12072 12049 0
-12072 12073 0
-10449 1216 12072 0
10449 -1216 0
10449 -12072 0
12074 -12049 -12075 0
-12074 12049 0
-12074 12075 0
-10452 12076 12074 0
10452 -12076 0
10452 -12074 0
12077 -12056 -12075 0
-12077 12056 0
-12077 12075 0
-10454 12078 12077 0
10454 -12078 0
10454 -12077 0
12079 -12051 -12056 0
-12079 12051 0
-12079 12056 0
-10456 12080 12079 0
10456 -12080 0
10456 -12079 0
12081 -12051 -12051 0
-12081 12051 0
-12081 12051 0
-10458 1203 12081 0
10458 -1203 0
10458 -12081 0
12082 -12051 -12059 0
-12082 12051 0
-12082 12059 0
-10731 1205 12082 0
10731 -1205 0
10731 -12082 0
12083 -12051 -12061 0
-12083 12051 0
-12083 12061 0
-10431 12084 12083 0
10431 -12084 0
10431 -12083 0
12085 -12053 -12061 0
-12085 12053 0
-12085 12061 0
-10434 12086 12085 0
10434 -12086 0
10434 -12085 0
12087 -12051 -12066 0
-12087 12051 0
-12087 12066 0
-10460 1208 12087 0
10460 -1208 0
10460 -12087 0
12088 -12051 -12068 0
-12088 12051 0
-12088 12068 0
-10462 12089 12088 0
10462 -12089 0
10462 -12088 0
12090 -12053 -12068 0
-12090 12053 0
-12090 12068 0
-10464 12091 12090 0
10464 -12091 0
10464 -12090 0
12092 -12051 -12073 0
-12092 12051 0
-12092 12073 0
-10466 1217 12092 0
10466 -1217 0
10466 -12092 0
12093 -12051 -12075 0
-12093 12051 0
-12093 12075 0
-10468 12094 12093 0
10468 -12094 0
10468 -12093 0
12095 -12053 -12075 0
-12095 12053 0
-12095 12075 0
-10470 12096 12095 0
10470 -12096 0
10470 -12095 0
12097 -12059 -12056 0
-12097 12059 0
-12097 12056 0
-10756 12098 12097 0
10756 -12098 0
10756 -12097 0
12099 -12059 -12053 0
-12099 12059 0
-12099 12053 0
-10761 12100 12099 0
10761 -12100 0
10761 -12099 0
12101 -12059 -12059 0
-12101 12059 0
-12101 12059 0
-10766 1206 12101 0
10766 -1206 0
10766 -12101 0
12102 -12059 -12066 0
-12102 12059 0
-12102 12066 0
-10693 1209 12102 0
10693 -1209 0
10693 -12102 0
12103 -12059 -12068 0
-12103 12059 0
-12103 12068 0
-10696 12104 12103 0
10696 -12104 0
10696 -12103 0
12105 -12061 -12068 0
-12105 12061 0
-12105 12068 0
-10443 12106 12105 0
10443 -12106 0
10443 -12105 0
12107 -12059 -12073 0
-12107 12059 0
-12107 12073 0
-10771 1218 12107 0
10771 -1218 0
10771 -12107 0
12108 -12059 -12075 0
-12108 12059 0
-12108 12075 0
-10776 12109 12108 0
10776 -12109 0
10776 -12108 0
12110 -12061 -12075 0
-12110 12061 0
-12110 12075 0
-10451 12111 12110 0
10451 -12111 0
10451 -12110 0
12112 -12066 -12056 0
-12112 12066 0
-12112 12056 0
-10472 12113 12112 0
10472 -12113 0
10472 -12112 0
12114 -12066 -12053 0
-12114 12066 0
-12114 12053 0
-10474 12115 12114 0
10474 -12115 0
10474 -12114 0
12116 -12066 -12061 0
-12116 12066 0
-12116 12061 0
-10440 12117 12116 0
10440 -12117 0
10440 -12116 0
12118 -12066 -12066 0
-12118 12066 0
-12118 12066 0
-10476 1210 12118 0
10476 -1210 0
10476 -12118 0
12119 -12066 -12073 0
-12119 12066 0
-12119 12073 0
-10478 1219 12119 0
10478 -1219 0
10478 -12119 0
12120 -12066 -12075 0
-12120 12066 0
-12120 12075 0
-10480 12121 12120 0
10480 -12121 0
10480 -12120 0
12122 -12068 -12075 0
-12122 12068 0
-12122 12075 0
-10482 12123 12122 0
10482 -12123 0
10482 -12122 0
12124 -12073 -12056 0
-12124 12073 0
-12124 12056 0
-10484 12125 12124 0
10484 -12125 0
10484 -12124 0
12126 -12073 -12053 0
-12126 12073 0
-12126 12053 0
-10486 12127 12126 0
10486 -12127 0
10486 -12126 0
12128 -12073 -12061 0
-12128 12073 0
-12128 12061 0
-10448 12129 12128 0
10448 -12129 0
10448 -12128 0
12130 -12073 -12068 0
-12130 12073 0
-12130 12068 0
-10488 12131 12130 0
10488 -12131 0
10488 -12130 0
12132 -12073 -12073 0
-12132 12073 0
-12132 12073 0
-10490 1221 12132 0
10490 -1221 0
10490 -12132 0
12133 -12076 -1216 0
-12133 12076 0
-12133 1216 0
12134 -1216 -1216 0
-12134 1216 0
-12134 1216 0
12135 -1216 -12076 0
-12135 1216 0
-12135 12076 0
12136 -12076 -12076 -1221 0
-12136 12076 0
-12136 12076 0
-12136 1221 0
-10329 1201 12133 12134 12135 12136 0
10329 -1201 0
10329 -12133 0
10329 -12134 0
10329 -12135 0
10329 -12136 0
12137 -12076 -1217 0
-12137 12076 0
-12137 1217 0
12138 -1216 -1217 0
-12138 1216 0
-12138 1217 0
12139 -1216 -12094 0
-12139 1216 0
-12139 12094 0
12140 -12076 -12094 -1221 0
-12140 12076 0
-12140 12094 0
-12140 1221 0
-10332 1202 12137 12138 12139 12140 0
10332 -1202 0
10332 -12137 0
10332 -12138 0
10332 -12139 0
10332 -12140 0
12141 -12076 -12127 0
-12141 12076 0
-12141 12127 0
12142 -1216 -12096 0
-12142 1216 0
-12142 12096 0
12143 -1216 -12127 0
-12143 1216 0
-12143 12127 0
12144 -12076 -12096 -1221 0
-12144 12076 0
-12144 12096 0
-12144 1221 0
-10335 12054 12141 12142 12143 12144 0
10335 -12054 0
10335 -12141 0
10335 -12142 0
10335 -12143 0
10335 -12144 0
12145 -12078 -12127 0
-12145 12078 0
-12145 12127 0
12146 -12125 -12127 0
-12146 12125 0
-12146 12127 0
12147 -12125 -12096 0
-12147 12125 0
-12147 12096 0
12148 -12078 -12096 -1221 0
-12148 12078 0
-12148 12096 0
-12148 1221 0
-10338 12057 12145 12146 12147 12148 0
10338 -12057 0
10338 -12145 0
10338 -12146 0
10338 -12147 0
10338 -12148 0
12149 -12076 -1218 0
-12149 12076 0
-12149 1218 0
12150 -1216 -1218 0
-12150 1216 0
-12150 1218 0
12151 -1216 -12109 0
-12151 1216 0
-12151 12109 0
12152 -12076 -12109 -1221 0
-12152 12076 0
-12152 12109 0
-12152 1221 0
-10341 1204 12149 12150 12151 12152 0
10341 -1204 0
10341 -12149 0
10341 -12150 0
10341 -12151 0
10341 -12152 0
12153 -12076 -12129 0
-12153 12076 0
-12153 12129 0
12154 -1216 -12111 0
-12154 1216 0
-12154 12111 0
12155 -1216 -12129 0
-12155 1216 0
-12155 12129 0
12156 -12076 -12111 -1221 0
-12156 12076 0
-12156 12111 0
-12156 1221 0
-10344 12062 12153 12154 12155 12156 0
10344 -12062 0
10344 -12153 0
10344 -12154 0
10344 -12155 0
10344 -12156 0
12157 -12078 -12129 0
-12157 12078 0
-12157 12129 0
12158 -12125 -12129 0
-12158 12125 0
-12158 12129 0
12159 -12125 -12111 0
-12159 12125 0
-12159 12111 0
12160 -12078 -12111 -1221 0
-12160 12078 0
-12160 12111 0
-12160 1221 0
-10346 12064 12157 12158 12159 12160 0
10346 -12064 0
10346 -12157 0
10346 -12158 0
10346 -12159 0
10346 -12160 0
12161 -12076 -1219 0
-12161 12076 0
-12161 1219 0
12162 -1216 -1219 0
-12162 1216 0
-12162 1219 0
12163 -1216 -12121 0
-12163 1216 0
-12163 12121 0
12164 -12076 -12121 -1221 0
-12164 12076 0
-12164 12121 0
-12164 1221 0
-10349 1207 12161 12162 12163 12164 0
10349 -1207 0
10349 -12161 0
10349 -12162 0
10349 -12163 0
10349 -12164 0
12165 -12076 -12131 0
-12165 12076 0
-12165 12131 0
12166 -1216 -12123 0
-12166 1216 0
-12166 12123 0
12167 -1216 -12131 0
-12167 1216 0
-12167 12131 0
12168 -12076 -12123 -1221 0
-12168 12076 0
-12168 12123 0
-12168 1221 0
-10352 12069 12165 12166 12167 12168 0
10352 -12069 0
10352 -12165 0
10352 -12166 0
10352 -12167 0
10352 -12168 0
12169 -12078 -12131 0
-12169 12078 0
-12169 12131 0
12170 -12125 -12131 0
-12170 12125 0
-12170 12131 0
12171 -12125 -12123 0
-12171 12125 0
-12171 12123 0
12172 -12078 -12123 -1221 0
-12172 12078 0
-12172 12123 0
-12172 1221 0
-10354 12071 12169 12170 12171 12172 0
10354 -12071 0
10354 -12169 0
10354 -12170 0
10354 -12171 0
10354 -12172 0
12173 -12076 -1220 0
-12173 12076 0
-12173 1220 0
12174 -1216 -1220 0
-12174 1216 0
-12174 1220 0
12175 -1216 -12176 0
-12175 1216 0
-12175 12176 0
12177 -12076 -12176 -1221 0
-12177 12076 0
-12177 12176 0
-12177 1221 0
-10400 1211 12173 12174 12175 12177 0
10400 -1211 0
10400 -12173 0
10400 -12174 0
10400 -12175 0
10400 -12177 0
12178 -12076 -12073 0
-12178 12076 0
-12178 12073 0
12179 -1216 -12075 0
-12179 1216 0
-12179 12075 0
12180 -1216 -12073 0
-12180 1216 0
-12180 12073 0
12181 -12076 -12075 -1221 0
-12181 12076 0
-12181 12075 0
-12181 1221 0
-10328 12049 12178 12179 12180 12181 0
10328 -12049 0
10328 -12178 0
10328 -12179 0
10328 -12180 0
10328 -12181 0
12182 -12078 -12073 0
-12182 12078 0
-12182 12073 0
12183 -12125 -12073 0
-12183 12125 0
-12183 12073 0
12184 -12125 -12075 0
-12184 12125 0
-12184 12075 0
12185 -12078 -12075 -1221 0
-12185 12078 0
-12185 12075 0
-12185 1221 0
-10337 12056 12182 12183 12184 12185 0
10337 -12056 0
10337 -12182 0
10337 -12183 0
10337 -12184 0
10337 -12185 0
12186 -12094 -12125 0
-12186 12094 0
-12186 12125 0
12187 -1217 -12078 0
-12187 1217 0
-12187 12078 0
12188 -1217 -12125 0
-12188 1217 0
-12188 12125 0
12189 -12094 -12078 -1221 0
-12189 12094 0
-12189 12078 0
-12189 1221 0
-10356 12080 12186 12187 12188 12189 0
10356 -12080 0
10356 -12186 0
10356 -12187 0
10356 -12188 0
10356 -12189 0
12190 -12094 -1217 0
-12190 12094 0
-12190 1217 0
12191 -1217 -1217 0
-12191 1217 0
-12191 1217 0
12192 -1217 -12094 0
-12192 1217 0
-12192 12094 0
12193 -12094 -12094 -1221 0
-12193 12094 0
-12193 12094 0
-12193 1221 0
-10358 1203 12190 12191 12192 12193 0
10358 -1203 0
10358 -12190 0
10358 -12191 0
10358 -12192 0
10358 -12193 0
12194 -12094 -1218 0
-12194 12094 0
-12194 1218 0
12195 -1217 -1218 0
-12195 1217 0
-12195 1218 0
12196 -1217 -12109 0
-12196 1217 0
-12196 12109 0
12197 -12094 -12109 -1221 0
-12197 12094 0
-12197 12109 0
-12197 1221 0
-10360 1205 12194 12195 12196 12197 0
10360 -1205 0
10360 -12194 0
10360 -12195 0
10360 -12196 0
10360 -12197 0
12198 -12094 -12129 0
-12198 12094 0
-12198 12129 0
12199 -1217 -12111 0
-12199 1217 0
-12199 12111 0
12200 -1217 -12129 0
-12200 1217 0
-12200 12129 0
12201 -12094 -12111 -1221 0
-12201 12094 0
-12201 12111 0
-12201 1221 0
-10362 12084 12198 12199 12200 12201 0
10362 -12084 0
10362 -12198 0
10362 -12199 0
10362 -12200 0
10362 -12201 0
12202 -12096 -12129 0
-12202 12096 0
-12202 12129 0
12203 -12127 -12129 0
-12203 12127 0
-12203 12129 0
12204 -12127 -12111 0
-12204 12127 0
-12204 12111 0
12205 -12096 -12111 -1221 0
-12205 12096 0
-12205 12111 0
-12205 1221 0
-10364 12086 12202 12203 12204 12205 0
10364 -12086 0
10364 -12202 0
10364 -12203 0
10364 -12204 0
10364 -12205 0
12206 -12094 -1219 0
-12206 12094 0
-12206 1219 0
12207 -1217 -1219 0
-12207 1217 0
-12207 1219 0
12208 -1217 -12121 0
-12208 1217 0
-12208 12121 0
12209 -12094 -12121 -1221 0
-12209 12094 0
-12209 12121 0
-12209 1221 0
-10366 1208 12206 12207 12208 12209 0
10366 -1208 0
10366 -12206 0
10366 -12207 0
10366 -12208 0
10366 -12209 0
12210 -12094 -12131 0
-12210 12094 0
-12210 12131 0
12211 -1217 -12123 0
-12211 1217 0
-12211 12123 0
12212 -1217 -12131 0
-12212 1217 0
-12212 12131 0
12213 -12094 -12123 -1221 0
-12213 12094 0
-12213 12123 0
-12213 1221 0
-10368 12089 12210 12211 12212 12213 0
10368 -12089 0
10368 -12210 0
10368 -12211 0
10368 -12212 0
10368 -12213 0
12214 -12096 -12131 0
-12214 12096 0
-12214 12131 0
12215 -12127 -12131 0
-12215 12127 0
-12215 12131 0
12216 -12127 -12123 0
-12216 12127 0
-12216 12123 0
12217 -12096 -12123 -1221 0
-12217 12096 0
-12217 12123 0
-12217 1221 0
-10370 12091 12214 12215 12216 12217 0
10370 -12091 0
10370 -12214 0
10370 -12215 0
10370 -12216 0
10370 -12217 0
12218 -12094 -1220 0
-12218 12094 0
-12218 1220 0
12219 -1217 -1220 0
-12219 1217 0
-12219 1220 0
12220 -1217 -12176 0
-12220 1217 0
-12220 12176 0
12221 -12094 -12176 -1221 0
-12221 12094 0
-12221 12176 0
-12221 1221 0
-10409 1212 12218 12219 12220 12221 0
10409 -1212 0
10409 -12218 0
10409 -12219 0
10409 -12220 0
10409 -12221 0
12222 -12094 -12073 0
-12222 12094 0
-12222 12073 0
12223 -1217 -12075 0
-12223 1217 0
-12223 12075 0
12224 -1217 -12073 0
-12224 1217 0
-12224 12073 0
12225 -12094 -12075 -1221 0
-12225 12094 0
-12225 12075 0
-12225 1221 0
-10331 12051 12222 12223 12224 12225 0
10331 -12051 0
10331 -12222 0
10331 -12223 0
10331 -12224 0
10331 -12225 0
12226 -12096 -12073 0
-12226 12096 0
-12226 12073 0
12227 -12127 -12073 0
-12227 12127 0
-12227 12073 0
12228 -12127 -12075 0
-12228 12127 0
-12228 12075 0
12229 -12096 -12075 -1221 0
-12229 12096 0
-12229 12075 0
-12229 1221 0
-10334 12053 12226 12227 12228 12229 0
10334 -12053 0
10334 -12226 0
10334 -12227 0
10334 -12228 0
10334 -12229 0
12230 -12109 -12125 0
-12230 12109 0
-12230 12125 0
12231 -1218 -12078 0
-12231 1218 0
-12231 12078 0
12232 -1218 -12125 0
-12232 1218 0
-12232 12125 0
12233 -12109 -12078 -1221 0
-12233 12109 0
-12233 12078 0
-12233 1221 0
-10372 12098 12230 12231 12232 12233 0
10372 -12098 0
10372 -12230 0
10372 -12231 0
10372 -12232 0
10372 -12233 0
12234 -12109 -12127 0
-12234 12109 0
-12234 12127 0
12235 -1218 -12096 0
-12235 1218 0
-12235 12096 0
12236 -1218 -12127 0
-12236 1218 0
-12236 12127 0
12237 -12109 -12096 -1221 0
-12237 12109 0
-12237 12096 0
-12237 1221 0
-10374 12100 12234 12235 12236 12237 0
10374 -12100 0
10374 -12234 0
10374 -12235 0
10374 -12236 0
10374 -12237 0
12238 -12109 -1218 0
-12238 12109 0
-12238 1218 0
12239 -1218 -1218 0
-12239 1218 0
-12239 1218 0
12240 -1218 -12109 0
-12240 1218 0
-12240 12109 0
12241 -12109 -12109 -1221 0
-12241 12109 0
-12241 12109 0
-12241 1221 0
-10376 1206 12238 12239 12240 12241 0
10376 -1206 0
10376 -12238 0
10376 -12239 0
10376 -12240 0
10376 -12241 0
12242 -12109 -1219 0
-12242 12109 0
-12242 1219 0
12243 -1218 -1219 0
-12243 1218 0
-12243 1219 0
12244 -1218 -12121 0
-12244 1218 0
-12244 12121 0
12245 -12109 -12121 -1221 0
-12245 12109 0
-12245 12121 0
-12245 1221 0
-10378 1209 12242 12243 12244 12245 0
10378 -1209 0
10378 -12242 0
10378 -12243 0
10378 -12244 0
10378 -12245 0
12246 -12109 -12131 0
-12246 12109 0
-12246 12131 0
12247 -1218 -12123 0
-12247 1218 0
-12247 12123 0
12248 -1218 -12131 0
-12248 1218 0
-12248 12131 0
12249 -12109 -12123 -1221 0
-12249 12109 0
-12249 12123 0
-12249 1221 0
-10380 12104 12246 12247 12248 12249 0
10380 -12104 0
10380 -12246 0
10380 -12247 0
10380 -12248 0
10380 -12249 0
12250 -12111 -12131 0
-12250 12111 0
-12250 12131 0
12251 -12129 -12131 0
-12251 12129 0
-12251 12131 0
12252 -12129 -12123 0
-12252 12129 0
-12252 12123 0
12253 -12111 -12123 -1221 0
-12253 12111 0
-12253 12123 0
-12253 1221 0
-10382 12106 12250 12251 12252 12253 0
10382 -12106 0
10382 -12250 0
10382 -12251 0
10382 -12252 0
10382 -12253 0
12254 -12109 -1220 0
-12254 12109 0
-12254 1220 0
12255 -1218 -1220 0
-12255 1218 0
-12255 1220 0
12256 -1218 -12176 0
-12256 1218 0
-12256 12176 0
12257 -12109 -12176 -1221 0
-12257 12109 0
-12257 12176 0
-12257 1221 0
-10966 1213 12254 12255 12256 12257 0
10966 -1213 0
10966 -12254 0
10966 -12255 0
10966 -12256 0
10966 -12257 0
12258 -12109 -12073 0
-12258 12109 0
-12258 12073 0
12259 -1218 -12075 0
-12259 1218 0
-12259 12075 0
12260 -1218 -12073 0
-12260 1218 0
-12260 12073 0
12261 -12109 -12075 -1221 0
-12261 12109 0
-12261 12075 0
-12261 1221 0
-10340 12059 12258 12259 12260 12261 0
10340 -12059 0
10340 -12258 0
10340 -12259 0
10340 -12260 0
10340 -12261 0
12262 -12111 -12073 0
-12262 12111 0
-12262 12073 0
12263 -12129 -12073 0
-12263 12129 0
-12263 12073 0
12264 -12129 -12075 0
-12264 12129 0
-12264 12075 0
12265 -12111 -12075 -1221 0
-12265 12111 0
-12265 12075 0
-12265 1221 0
-10343 12061 12262 12263 12264 12265 0
10343 -12061 0
10343 -12262 0
10343 -12263 0
10343 -12264 0
10343 -12265 0
12266 -12121 -12125 0
-12266 12121 0
-12266 12125 0
12267 -1219 -12078 0
-12267 1219 0
-12267 12078 0
12268 -1219 -12125 0
-12268 1219 0
-12268 12125 0
12269 -12121 -12078 -1221 0
-12269 12121 0
-12269 12078 0
-12269 1221 0
-10384 12113 12266 12267 12268 12269 0
10384 -12113 0
10384 -12266 0
10384 -12267 0
10384 -12268 0
10384 -12269 0
12270 -12121 -12127 0
-12270 12121 0
-12270 12127 0
12271 -1219 -12096 0
-12271 1219 0
-12271 12096 0
12272 -1219 -12127 0
-12272 1219 0
-12272 12127 0
12273 -12121 -12096 -1221 0
-12273 12121 0
-12273 12096 0
-12273 1221 0
-10386 12115 12270 12271 12272 12273 0
10386 -12115 0
10386 -12270 0
10386 -12271 0
10386 -12272 0
10386 -12273 0
12274 -12121 -12129 0
-12274 12121 0
-12274 12129 0
12275 -1219 -12111 0
-12275 1219 0
-12275 12111 0
12276 -1219 -12129 0
-12276 1219 0
-12276 12129 0
12277 -12121 -12111 -1221 0
-12277 12121 0
-12277 12111 0
-12277 1221 0
-10388 12117 12274 12275 12276 12277 0
10388 -12117 0
10388 -12274 0
10388 -12275 0
10388 -12276 0
10388 -12277 0
12278 -12121 -1219 0
-12278 12121 0
-12278 1219 0
12279 -1219 -1219 0
-12279 1219 0
-12279 1219 0
12280 -1219 -12121 0
-12280 1219 0
-12280 12121 0
12281 -12121 -12121 -1221 0
-12281 12121 0
-12281 12121 0
-12281 1221 0
-10390 1210 12278 12279 12280 12281 0
10390 -1210 0
10390 -12278 0
10390 -12279 0
10390 -12280 0
10390 -12281 0
12282 -12121 -1220 0
-12282 12121 0
-12282 1220 0
12283 -1219 -1220 0
-12283 1219 0
-12283 1220 0
12284 -1219 -12176 0
-12284 1219 0
-12284 12176 0
12285 -12121 -12176 -1221 0
-12285 12121 0
-12285 12176 0
-12285 1221 0
-10416 1214 12282 12283 12284 12285 0
10416 -1214 0
10416 -12282 0
10416 -12283 0
10416 -12284 0
10416 -12285 0
12286 -12121 -12073 0
-12286 12121 0
-12286 12073 0
12287 -1219 -12075 0
-12287 1219 0
-12287 12075 0
12288 -1219 -12073 0
-12288 1219 0
-12288 12073 0
12289 -12121 -12075 -1221 0
-12289 12121 0
-12289 12075 0
-12289 1221 0
-10348 12066 12286 12287 12288 12289 0
10348 -12066 0
10348 -12286 0
10348 -12287 0
10348 -12288 0
10348 -12289 0
12290 -12123 -12073 0
-12290 12123 0
-12290 12073 0
12291 -12131 -12073 0
-12291 12131 0
-12291 12073 0
12292 -12131 -12075 0
-12292 12131 0
-12292 12075 0
12293 -12123 -12075 -1221 0
-12293 12123 0
-12293 12075 0
-12293 1221 0
-10351 12068 12290 12291 12292 12293 0
10351 -12068 0
10351 -12290 0
10351 -12291 0
10351 -12292 0
10351 -12293 0
12294 -12176 -12125 0
-12294 12176 0
-12294 12125 0
12295 -1220 -12078 0
-12295 1220 0
-12295 12078 0
12296 -1220 -12125 0
-12296 1220 0
-12296 12125 0
12297 -12176 -12078 -1221 0
-12297 12176 0
-12297 12078 0
-12297 1221 0
-10420 12298 12294 12295 12296 12297 0
10420 -12298 0
10420 -12294 0
10420 -12295 0
10420 -12296 0
10420 -12297 0
12299 -12176 -12127 0
-12299 12176 0
-12299 12127 0
12300 -1220 -12096 0
-12300 1220 0
-12300 12096 0
12301 -1220 -12127 0
-12301 1220 0
-12301 12127 0
12302 -12176 -12096 -1221 0
-12302 12176 0
-12302 12096 0
-12302 1221 0
-10422 12303 12299 12300 12301 12302 0
10422 -12303 0
10422 -12299 0
10422 -12300 0
10422 -12301 0
10422 -12302 0
12304 -12176 -12129 0
-12304 12176 0
-12304 12129 0
12305 -1220 -12111 0
-12305 1220 0
-12305 12111 0
12306 -1220 -12129 0
-12306 1220 0
-12306 12129 0
12307 -12176 -12111 -1221 0
-12307 12176 0
-12307 12111 0
-12307 1221 0
-10399 12308 12304 12305 12306 12307 0
10399 -12308 0
10399 -12304 0
10399 -12305 0
10399 -12306 0
10399 -12307 0
12309 -12176 -12131 0
-12309 12176 0
-12309 12131 0
12310 -1220 -12123 0
-12310 1220 0
-12310 12123 0
12311 -1220 -12131 0
-12311 1220 0
-12311 12131 0
12312 -12176 -12123 -1221 0
-12312 12176 0
-12312 12123 0
-12312 1221 0
-10424 12313 12309 12310 12311 12312 0
10424 -12313 0
10424 -12309 0
10424 -12310 0
10424 -12311 0
10424 -12312 0
12314 -12176 -1220 0
-12314 12176 0
-12314 1220 0
12315 -1220 -1220 0
-12315 1220 0
-12315 1220 0
12316 -1220 -12176 0
-12316 1220 0
-12316 12176 0
12317 -12176 -12176 -1221 0
-12317 12176 0
-12317 12176 0
-12317 1221 0
-10426 1215 12314 12315 12316 12317 0
10426 -1215 0
10426 -12314 0
10426 -12315 0
10426 -12316 0
10426 -12317 0
12318 -12069 -1207 0
-12318 12069 0
-12318 1207 0
12319 -1207 -1207 0
-12319 1207 0
-12319 1207 0
12320 -1207 -12069 0
-12320 1207 0
-12320 12069 0
12321 -12069 -12069 -1210 0
-12321 12069 0
-12321 12069 0
-12321 1210 0
-11253 1201 12318 12319 12320 12321 0
11253 -1201 0
11253 -12318 0
11253 -12319 0
11253 -12320 0
11253 -12321 0
12322 -12069 -1208 0
-12322 12069 0
-12322 1208 0
12323 -1207 -1208 0
-12323 1207 0
-12323 1208 0
12324 -1207 -12089 0
-12324 1207 0
-12324 12089 0
12325 -12069 -12089 -1210 0
-12325 12069 0
-12325 12089 0
-12325 1210 0
-11256 1202 12322 12323 12324 12325 0
11256 -1202 0
11256 -12322 0
11256 -12323 0
11256 -12324 0
11256 -12325 0
12326 -12069 -12115 0
-12326 12069 0
-12326 12115 0
12327 -1207 -12091 0
-12327 1207 0
-12327 12091 0
12328 -1207 -12115 0
-12328 1207 0
-12328 12115 0
12329 -12069 -12091 -1210 0
-12329 12069 0
-12329 12091 0
-12329 1210 0
-11259 12054 12326 12327 12328 12329 0
11259 -12054 0
11259 -12326 0
11259 -12327 0
11259 -12328 0
11259 -12329 0
12330 -12071 -12115 0
-12330 12071 0
-12330 12115 0
12331 -12113 -12115 0
-12331 12113 0
-12331 12115 0
12332 -12113 -12091 0
-12332 12113 0
-12332 12091 0
12333 -12071 -12091 -1210 0
-12333 12071 0
-12333 12091 0
-12333 1210 0
-11262 12057 12330 12331 12332 12333 0
11262 -12057 0
11262 -12330 0
11262 -12331 0
11262 -12332 0
11262 -12333 0
12334 -12069 -1209 0
-12334 12069 0
-12334 1209 0
12335 -1207 -1209 0
-12335 1207 0
-12335 1209 0
12336 -1207 -12104 0
-12336 1207 0
-12336 12104 0
12337 -12069 -12104 -1210 0
-12337 12069 0
-12337 12104 0
-12337 1210 0
-11817 1204 12334 12335 12336 12337 0
11817 -1204 0
11817 -12334 0
11817 -12335 0
11817 -12336 0
11817 -12337 0
12338 -12069 -12117 0
-12338 12069 0
-12338 12117 0
12339 -1207 -12106 0
-12339 1207 0
-12339 12106 0
12340 -1207 -12117 0
-12340 1207 0
-12340 12117 0
12341 -12069 -12106 -1210 0
-12341 12069 0
-12341 12106 0
-12341 1210 0
-11252 12062 12338 12339 12340 12341 0
11252 -12062 0
11252 -12338 0
11252 -12339 0
11252 -12340 0
11252 -12341 0
12342 -12071 -12117 0
-12342 12071 0
-12342 12117 0
12343 -12113 -12117 0
-12343 12113 0
-12343 12117 0
12344 -12113 -12106 0
-12344 12113 0
-12344 12106 0
12345 -12071 -12106 -1210 0
-12345 12071 0
-12345 12106 0
-12345 1210 0
-11261 12064 12342 12343 12344 12345 0
11261 -12064 0
11261 -12342 0
11261 -12343 0
11261 -12344 0
11261 -12345 0
12346 -12069 -1214 0
-12346 12069 0
-12346 1214 0
12347 -1207 -1214 0
-12347 1207 0
-12347 1214 0
12348 -1207 -12313 0
-12348 1207 0
-12348 12313 0
12349 -12069 -12313 -1210 0
-12349 12069 0
-12349 12313 0
-12349 1210 0
-11265 1211 12346 12347 12348 12349 0
11265 -1211 0
11265 -12346 0
11265 -12347 0
11265 -12348 0
11265 -12349 0
12350 -12069 -12066 0
-12350 12069 0
-12350 12066 0
12351 -1207 -12068 0
-12351 1207 0
-12351 12068 0
12352 -1207 -12066 0
-12352 1207 0
-12352 12066 0
12353 -12069 -12068 -1210 0
-12353 12069 0
-12353 12068 0
-12353 1210 0
-11268 12049 12350 12351 12352 12353 0
11268 -12049 0
11268 -12350 0
11268 -12351 0
11268 -12352 0
11268 -12353 0
12354 -12071 -12066 0
-12354 12071 0
-12354 12066 0
12355 -12113 -12066 0
-12355 12113 0
-12355 12066 0
12356 -12113 -12068 0
-12356 12113 0
-12356 12068 0
12357 -12071 -12068 -1210 0
-12357 12071 0
-12357 12068 0
-12357 1210 0
-11270 12056 12354 12355 12356 12357 0
11270 -12056 0
11270 -12354 0
11270 -12355 0
11270 -12356 0
11270 -12357 0
12358 -12069 -1219 0
-12358 12069 0
-12358 1219 0
12359 -1207 -1219 0
-12359 1207 0
-12359 1219 0
12360 -1207 -12131 0
-12360 1207 0
-12360 12131 0
12361 -12069 -12131 -1210 0
-12361 12069 0
-12361 12131 0
-12361 1210 0
-11273 1216 12358 12359 12360 12361 0
11273 -1216 0
11273 -12358 0
11273 -12359 0
11273 -12360 0
11273 -12361 0
12362 -12069 -12121 0
-12362 12069 0
-12362 12121 0
12363 -1207 -12123 0
-12363 1207 0
-12363 12123 0
12364 -1207 -12121 0
-12364 1207 0
-12364 12121 0
12365 -12069 -12123 -1210 0
-12365 12069 0
-12365 12123 0
-12365 1210 0
-11276 12076 12362 12363 12364 12365 0
11276 -12076 0
11276 -12362 0
11276 -12363 0
11276 -12364 0
11276 -12365 0
12366 -12071 -12121 0
-12366 12071 0
-12366 12121 0
12367 -12113 -12121 0
-12367 12113 0
-12367 12121 0
12368 -12113 -12123 0
-12368 12113 0
-12368 12123 0
12369 -12071 -12123 -1210 0
-12369 12071 0
-12369 12123 0
-12369 1210 0
-11278 12078 12366 12367 12368 12369 0
11278 -12078 0
11278 -12366 0
11278 -12367 0
11278 -12368 0
11278 -12369 0
12370 -12089 -12113 0
-12370 12089 0
-12370 12113 0
12371 -1208 -12071 0
-12371 1208 0
-12371 12071 0
12372 -1208 -12113 0
-12372 1208 0
-12372 12113 0
12373 -12089 -12071 -1210 0
-12373 12089 0
-12373 12071 0
-12373 1210 0
-11280 12080 12370 12371 12372 12373 0
11280 -12080 0
11280 -12370 0
11280 -12371 0
11280 -12372 0
11280 -12373 0
12374 -12089 -1208 0
-12374 12089 0
-12374 1208 0
12375 -1208 -1208 0
-12375 1208 0
-12375 1208 0
12376 -1208 -12089 0
-12376 1208 0
-12376 12089 0
12377 -12089 -12089 -1210 0
-12377 12089 0
-12377 12089 0
-12377 1210 0
-11282 1203 12374 12375 12376 12377 0
11282 -1203 0
11282 -12374 0
11282 -12375 0
11282 -12376 0
11282 -12377 0
12378 -12089 -1209 0
-12378 12089 0
-12378 1209 0
12379 -1208 -1209 0
-12379 1208 0
-12379 1209 0
12380 -1208 -12104 0
-12380 1208 0
-12380 12104 0
12381 -12089 -12104 -1210 0
-12381 12089 0
-12381 12104 0
-12381 1210 0
-11823 1205 12378 12379 12380 12381 0
11823 -1205 0
11823 -12378 0
11823 -12379 0
11823 -12380 0
11823 -12381 0
12382 -12089 -12117 0
-12382 12089 0
-12382 12117 0
12383 -1208 -12106 0
-12383 1208 0
-12383 12106 0
12384 -1208 -12117 0
-12384 1208 0
-12384 12117 0
12385 -12089 -12106 -1210 0
-12385 12089 0
-12385 12106 0
-12385 1210 0
-11255 12084 12382 12383 12384 12385 0
11255 -12084 0
11255 -12382 0
11255 -12383 0
11255 -12384 0
11255 -12385 0
12386 -12091 -12117 0
-12386 12091 0
-12386 12117 0
12387 -12115 -12117 0
-12387 12115 0
-12387 12117 0
12388 -12115 -12106 0
-12388 12115 0
-12388 12106 0
12389 -12091 -12106 -1210 0
-12389 12091 0
-12389 12106 0
-12389 1210 0
-11258 12086 12386 12387 12388 12389 0
11258 -12086 0
11258 -12386 0
11258 -12387 0
11258 -12388 0
11258 -12389 0
12390 -12089 -1214 0
-12390 12089 0
-12390 1214 0
12391 -1208 -1214 0
-12391 1208 0
-12391 1214 0
12392 -1208 -12313 0
-12392 1208 0
-12392 12313 0
12393 -12089 -12313 -1210 0
-12393 12089 0
-12393 12313 0
-12393 1210 0
-11284 1212 12390 12391 12392 12393 0
11284 -1212 0
11284 -12390 0
11284 -12391 0
11284 -12392 0
11284 -12393 0
12394 -12089 -12066 0
-12394 12089 0
-12394 12066 0
12395 -1208 -12068 0
-12395 1208 0
-12395 12068 0
12396 -1208 -12066 0
-12396 1208 0
-12396 12066 0
12397 -12089 -12068 -1210 0
-12397 12089 0
-12397 12068 0
-12397 1210 0
-11286 12051 12394 12395 12396 12397 0
11286 -12051 0
11286 -12394 0
11286 -12395 0
11286 -12396 0
11286 -12397 0
12398 -12091 -12066 0
-12398 12091 0
-12398 12066 0
12399 -12115 -12066 0
-12399 12115 0
-12399 12066 0
12400 -12115 -12068 0
-12400 12115 0
-12400 12068 0
12401 -12091 -12068 -1210 0
-12401 12091 0
-12401 12068 0
-12401 1210 0
-11288 12053 12398 12399 12400 12401 0
11288 -12053 0
11288 -12398 0
11288 -12399 0
11288 -12400 0
11288 -12401 0
12402 -12089 -1219 0
-12402 12089 0
-12402 1219 0
12403 -1208 -1219 0
-12403 1208 0
-12403 1219 0
12404 -1208 -12131 0
-12404 1208 0
-12404 12131 0
12405 -12089 -12131 -1210 0
-12405 12089 0
-12405 12131 0
-12405 1210 0
-11290 1217 12402 12403 12404 12405 0
11290 -1217 0
11290 -12402 0
11290 -12403 0
11290 -12404 0
11290 -12405 0
12406 -12089 -12121 0
-12406 12089 0
-12406 12121 0
12407 -1208 -12123 0
-12407 1208 0
-12407 12123 0
12408 -1208 -12121 0
-12408 1208 0
-12408 12121 0
12409 -12089 -12123 -1210 0
-12409 12089 0
-12409 12123 0
-12409 1210 0
-11292 12094 12406 12407 12408 12409 0
11292 -12094 0
11292 -12406 0
11292 -12407 0
11292 -12408 0
11292 -12409 0
12410 -12091 -12121 0
-12410 12091 0
-12410 12121 0
12411 -12115 -12121 0
-12411 12115 0
-12411 12121 0
12412 -12115 -12123 0
-12412 12115 0
-12412 12123 0
12413 -12091 -12123 -1210 0
-12413 12091 0
-12413 12123 0
-12413 1210 0
-11294 12096 12410 12411 12412 12413 0
11294 -12096 0
11294 -12410 0
11294 -12411 0
11294 -12412 0
11294 -12413 0
12414 -12104 -12113 0
-12414 12104 0
-12414 12113 0
12415 -1209 -12071 0
-12415 1209 0
-12415 12071 0
12416 -1209 -12113 0
-12416 1209 0
-12416 12113 0
12417 -12104 -12071 -1210 0
-12417 12104 0
-12417 12071 0
-12417 1210 0
-11834 12098 12414 12415 12416 12417 0
11834 -12098 0
11834 -12414 0
11834 -12415 0
11834 -12416 0
11834 -12417 0
12418 -12104 -12115 0
-12418 12104 0
-12418 12115 0
12419 -1209 -12091 0
-12419 1209 0
-12419 12091 0
12420 -1209 -12115 0
-12420 1209 0
-12420 12115 0
12421 -12104 -12091 -1210 0
-12421 12104 0
-12421 12091 0
-12421 1210 0
-11828 12100 12418 12419 12420 12421 0
11828 -12100 0
11828 -12418 0
11828 -12419 0
11828 -12420 0
11828 -12421 0
12422 -12104 -1209 0
-12422 12104 0
-12422 1209 0
12423 -1209 -1209 0
-12423 1209 0
-12423 1209 0
12424 -1209 -12104 0
-12424 1209 0
-12424 12104 0
12425 -12104 -12104 -1210 0
-12425 12104 0
-12425 12104 0
-12425 1210 0
-11821 1206 12422 12423 12424 12425 0
11821 -1206 0
11821 -12422 0
11821 -12423 0
11821 -12424 0
11821 -12425 0
12426 -12104 -1214 0
-12426 12104 0
-12426 1214 0
12427 -1209 -1214 0
-12427 1209 0
-12427 1214 0
12428 -1209 -12313 0
-12428 1209 0
-12428 12313 0
12429 -12104 -12313 -1210 0
-12429 12104 0
-12429 12313 0
-12429 1210 0
-11838 1213 12426 12427 12428 12429 0
11838 -1213 0
11838 -12426 0
11838 -12427 0
11838 -12428 0
11838 -12429 0
12430 -12104 -12066 0
-12430 12104 0
-12430 12066 0
12431 -1209 -12068 0
-12431 1209 0
-12431 12068 0
12432 -1209 -12066 0
-12432 1209 0
-12432 12066 0
12433 -12104 -12068 -1210 0
-12433 12104 0
-12433 12068 0
-12433 1210 0
-11843 12059 12430 12431 12432 12433 0
11843 -12059 0
11843 -12430 0
11843 -12431 0
11843 -12432 0
11843 -12433 0
12434 -12106 -12066 0
-12434 12106 0
-12434 12066 0
12435 -12117 -12066 0
-12435 12117 0
-12435 12066 0
12436 -12117 -12068 0
-12436 12117 0
-12436 12068 0
12437 -12106 -12068 -1210 0
-12437 12106 0
-12437 12068 0
-12437 1210 0
-11267 12061 12434 12435 12436 12437 0
11267 -12061 0
11267 -12434 0
11267 -12435 0
11267 -12436 0
11267 -12437 0
12438 -12104 -1219 0
-12438 12104 0
-12438 1219 0
12439 -1209 -1219 0
-12439 1209 0
-12439 1219 0
12440 -1209 -12131 0
-12440 1209 0
-12440 12131 0
12441 -12104 -12131 -1210 0
-12441 12104 0
-12441 12131 0
-12441 1210 0
-11852 1218 12438 12439 12440 12441 0
11852 -1218 0
11852 -12438 0
11852 -12439 0
11852 -12440 0
11852 -12441 0
12442 -12104 -12121 0
-12442 12104 0
-12442 12121 0
12443 -1209 -12123 0
-12443 1209 0
-12443 12123 0
12444 -1209 -12121 0
-12444 1209 0
-12444 12121 0
12445 -12104 -12123 -1210 0
-12445 12104 0
-12445 12123 0
-12445 1210 0
-11857 12109 12442 12443 12444 12445 0
11857 -12109 0
11857 -12442 0
11857 -12443 0
11857 -12444 0
11857 -12445 0
12446 -12106 -12121 0
-12446 12106 0
-12446 12121 0
12447 -12117 -12121 0
-12447 12117 0
-12447 12121 0
12448 -12117 -12123 0
-12448 12117 0
-12448 12123 0
12449 -12106 -12123 -1210 0
-12449 12106 0
-12449 12123 0
-12449 1210 0
-11275 12111 12446 12447 12448 12449 0
11275 -12111 0
11275 -12446 0
11275 -12447 0
11275 -12448 0
11275 -12449 0
12450 -12313 -12113 0
-12450 12313 0
-12450 12113 0
12451 -1214 -12071 0
-12451 1214 0
-12451 12071 0
12452 -1214 -12113 0
-12452 1214 0
-12452 12113 0
12453 -12313 -12071 -1210 0
-12453 12313 0
-12453 12071 0
-12453 1210 0
-11296 12298 12450 12451 12452 12453 0
11296 -12298 0
11296 -12450 0
11296 -12451 0
11296 -12452 0
11296 -12453 0
12454 -12313 -12115 0
-12454 12313 0
-12454 12115 0
12455 -1214 -12091 0
-12455 1214 0
-12455 12091 0
12456 -1214 -12115 0
-12456 1214 0
-12456 12115 0
12457 -12313 -12091 -1210 0
-12457 12313 0
-12457 12091 0
-12457 1210 0
-11298 12303 12454 12455 12456 12457 0
11298 -12303 0
11298 -12454 0
11298 -12455 0
11298 -12456 0
11298 -12457 0
12458 -12313 -12117 0
-12458 12313 0
-12458 12117 0
12459 -1214 -12106 0
-12459 1214 0
-12459 12106 0
12460 -1214 -12117 0
-12460 1214 0
-12460 12117 0
12461 -12313 -12106 -1210 0
-12461 12313 0
-12461 12106 0
-12461 1210 0
-11264 12308 12458 12459 12460 12461 0
11264 -12308 0
11264 -12458 0
11264 -12459 0
11264 -12460 0
11264 -12461 0
12462 -12313 -1214 0
-12462 12313 0
-12462 1214 0
12463 -1214 -1214 0
-12463 1214 0
-12463 1214 0
12464 -1214 -12313 0
-12464 1214 0
-12464 12313 0
12465 -12313 -12313 -1210 0
-12465 12313 0
-12465 12313 0
-12465 1210 0
-11300 1215 12462 12463 12464 12465 0
11300 -1215 0
11300 -12462 0
11300 -12463 0
11300 -12464 0
11300 -12465 0
12466 -12313 -1219 0
-12466 12313 0
-12466 1219 0
12467 -1214 -1219 0
-12467 1214 0
-12467 1219 0
12468 -1214 -12131 0
-12468 1214 0
-12468 12131 0
12469 -12313 -12131 -1210 0
-12469 12313 0
-12469 12131 0
-12469 1210 0
-11302 1220 12466 12467 12468 12469 0
11302 -1220 0
11302 -12466 0
11302 -12467 0
11302 -12468 0
11302 -12469 0
12470 -12313 -12121 0
-12470 12313 0
-12470 12121 0
12471 -1214 -12123 0
-12471 1214 0
-12471 12123 0
12472 -1214 -12121 0
-12472 1214 0
-12472 12121 0
12473 -12313 -12123 -1210 0
-12473 12313 0
-12473 12123 0
-12473 1210 0
-11304 12176 12470 12471 12472 12473 0
11304 -12176 0
11304 -12470 0
11304 -12471 0
11304 -12472 0
11304 -12473 0
12474 -12068 -12121 0
-12474 12068 0
-12474 12121 0
12475 -12066 -12121 0
-12475 12066 0
-12475 12121 0
12476 -12066 -12123 0
-12476 12066 0
-12476 12123 0
12477 -12068 -12123 -1210 0
-12477 12068 0
-12477 12123 0
-12477 1210 0
-11306 12075 12474 12475 12476 12477 0
11306 -12075 0
11306 -12474 0
11306 -12475 0
11306 -12476 0
11306 -12477 0
12478 -12131 -12113 0
-12478 12131 0
-12478 12113 0
12479 -1219 -12071 0
-12479 1219 0
-12479 12071 0
12480 -1219 -12113 0
-12480 1219 0
-12480 12113 0
12481 -12131 -12071 -1210 0
-12481 12131 0
-12481 12071 0
-12481 1210 0
-11308 12125 12478 12479 12480 12481 0
11308 -12125 0
11308 -12478 0
11308 -12479 0
11308 -12480 0
11308 -12481 0
12482 -12131 -12115 0
-12482 12131 0
-12482 12115 0
12483 -1219 -12091 0
-12483 1219 0
-12483 12091 0
12484 -1219 -12115 0
-12484 1219 0
-12484 12115 0
12485 -12131 -12091 -1210 0
-12485 12131 0
-12485 12091 0
-12485 1210 0
-11310 12127 12482 12483 12484 12485 0
11310 -12127 0
11310 -12482 0
11310 -12483 0
11310 -12484 0
11310 -12485 0
12486 -12131 -12117 0
-12486 12131 0
-12486 12117 0
12487 -1219 -12106 0
-12487 1219 0
-12487 12106 0
12488 -1219 -12117 0
-12488 1219 0
-12488 12117 0
12489 -12131 -12106 -1210 0
-12489 12131 0
-12489 12106 0
-12489 1210 0
-11272 12129 12486 12487 12488 12489 0
11272 -12129 0
11272 -12486 0
11272 -12487 0
11272 -12488 0
11272 -12489 0
12490 -12131 -12066 0
-12490 12131 0
-12490 12066 0
12491 -1219 -12068 0
-12491 1219 0
-12491 12068 0
12492 -1219 -12066 0
-12492 1219 0
-12492 12066 0
12493 -12131 -12068 -1210 0
-12493 12131 0
-12493 12068 0
-12493 1210 0
-11312 12073 12490 12491 12492 12493 0
11312 -12073 0
11312 -12490 0
11312 -12491 0
11312 -12492 0
11312 -12493 0
12494 -12131 -1219 0
-12494 12131 0
-12494 1219 0
12279 -1219 -1219 0
-12279 1219 0
-12279 1219 0
12495 -1219 -12131 0
-12495 1219 0
-12495 12131 0
12496 -12131 -12131 -1210 0
-12496 12131 0
-12496 12131 0
-12496 1210 0
-11314 1221 12494 12279 12495 12496 0
11314 -1221 0
11314 -12494 0
11314 -12279 0
11314 -12495 0
11314 -12496 0
12497 -12076 -12076 0
-12497 12076 0
-12497 12076 0
-10177 1201 12497 0
10177 -1201 0
10177 -12497 0
12498 -12076 -12094 0
-12498 12076 0
-12498 12094 0
-10184 1202 12498 0
10184 -1202 0
10184 -12498 0
12499 -12076 -12096 0
-12499 12076 0
-12499 12096 0
-10191 12054 12499 0
10191 -12054 0
10191 -12499 0
12500 -12078 -12096 0
-12500 12078 0
-12500 12096 0
-10198 12057 12500 0
10198 -12057 0
10198 -12500 0
12501 -12076 -12109 0
-12501 12076 0
-12501 12109 0
-10205 1204 12501 0
10205 -1204 0
10205 -12501 0
12502 -12076 -12111 0
-12502 12076 0
-12502 12111 0
-10212 12062 12502 0
10212 -12062 0
10212 -12502 0
12503 -12078 -12111 0
-12503 12078 0
-12503 12111 0
-10217 12064 12503 0
10217 -12064 0
10217 -12503 0
12504 -12076 -12121 0
-12504 12076 0
-12504 12121 0
-10172 1207 12504 0
10172 -1207 0
10172 -12504 0
12505 -12076 -12123 0
-12505 12076 0
-12505 12123 0
-10171 12069 12505 0
10171 -12069 0
10171 -12505 0
12506 -12078 -12123 0
-12506 12078 0
-12506 12123 0
-10193 12071 12506 0
10193 -12071 0
10193 -12506 0
12507 -12076 -12176 0
-12507 12076 0
-12507 12176 0
-10224 1211 12507 0
10224 -1211 0
10224 -12507 0
12508 -12076 -12075 0
-12508 12076 0
-12508 12075 0
-10231 12049 12508 0
10231 -12049 0
10231 -12508 0
12509 -12078 -12075 0
-12509 12078 0
-12509 12075 0
-10236 12056 12509 0
10236 -12056 0
10236 -12509 0
12510 -12094 -12078 0
-12510 12094 0
-12510 12078 0
-10241 12080 12510 0
10241 -12080 0
10241 -12510 0
12511 -12094 -12094 0
-12511 12094 0
-12511 12094 0
-10246 1203 12511 0
10246 -1203 0
10246 -12511 0
12512 -12094 -12109 0
-12512 12094 0
-12512 12109 0
-10251 1205 12512 0
10251 -1205 0
10251 -12512 0
12513 -12094 -12111 0
-12513 12094 0
-12513 12111 0
-10256 12084 12513 0
10256 -12084 0
10256 -12513 0
12514 -12096 -12111 0
-12514 12096 0
-12514 12111 0
-10261 12086 12514 0
10261 -12086 0
10261 -12514 0
12515 -12094 -12121 0
-12515 12094 0
-12515 12121 0
-10179 1208 12515 0
10179 -1208 0
10179 -12515 0
12516 -12094 -12123 0
-12516 12094 0
-12516 12123 0
-10182 12089 12516 0
10182 -12089 0
10182 -12516 0
12517 -12096 -12123 0
-12517 12096 0
-12517 12123 0
-10188 12091 12517 0
10188 -12091 0
10188 -12517 0
12518 -12094 -12176 0
-12518 12094 0
-12518 12176 0
-10266 1212 12518 0
10266 -1212 0
10266 -12518 0
12519 -12094 -12075 0
-12519 12094 0
-12519 12075 0
-10271 12051 12519 0
10271 -12051 0
10271 -12519 0
12520 -12096 -12075 0
-12520 12096 0
-12520 12075 0
-10276 12053 12520 0
10276 -12053 0
10276 -12520 0
12521 -12109 -12078 0
-12521 12109 0
-12521 12078 0
-10281 12098 12521 0
10281 -12098 0
10281 -12521 0
12522 -12109 -12096 0
-12522 12109 0
-12522 12096 0
-10286 12100 12522 0
10286 -12100 0
10286 -12522 0
12523 -12109 -12109 0
-12523 12109 0
-12523 12109 0
-10291 1206 12523 0
10291 -1206 0
10291 -12523 0
12524 -12109 -12121 0
-12524 12109 0
-12524 12121 0
-10200 1209 12524 0
10200 -1209 0
10200 -12524 0
12525 -12109 -12123 0
-12525 12109 0
-12525 12123 0
-10203 12104 12525 0
10203 -12104 0
10203 -12525 0
12526 -12111 -12123 0
-12526 12111 0
-12526 12123 0
-10209 12106 12526 0
10209 -12106 0
10209 -12526 0
12527 -12109 -12176 0
-12527 12109 0
-12527 12176 0
-10296 1213 12527 0
10296 -1213 0
10296 -12527 0
12528 -12109 -12075 0
-12528 12109 0
-12528 12075 0
-10301 12059 12528 0
10301 -12059 0
10301 -12528 0
12529 -12111 -12075 0
-12529 12111 0
-12529 12075 0
-10306 12061 12529 0
10306 -12061 0
10306 -12529 0
12530 -12121 -12078 0
-12530 12121 0
-12530 12078 0
-10195 12113 12530 0
10195 -12113 0
10195 -12530 0
12531 -12121 -12096 0
-12531 12121 0
-12531 12096 0
-10186 12115 12531 0
10186 -12115 0
10186 -12531 0
12532 -12121 -12111 0
-12532 12121 0
-12532 12111 0
-10207 12117 12532 0
10207 -12117 0
10207 -12532 0
12533 -12121 -12121 0
-12533 12121 0
-12533 12121 0
-10176 1210 12533 0
10176 -1210 0
10176 -12533 0
12534 -12121 -12176 0
-12534 12121 0
-12534 12176 0
-10219 1214 12534 0
10219 -1214 0
10219 -12534 0
12535 -12121 -12075 0
-12535 12121 0
-12535 12075 0
-10226 12066 12535 0
10226 -12066 0
10226 -12535 0
12536 -12123 -12075 0
-12536 12123 0
-12536 12075 0
-10228 12068 12536 0
10228 -12068 0
10228 -12536 0
12537 -12176 -12078 0
-12537 12176 0
-12537 12078 0
-10311 12298 12537 0
10311 -12298 0
10311 -12537 0
12538 -12176 -12096 0
-12538 12176 0
-12538 12096 0
-10316 12303 12538 0
10316 -12303 0
10316 -12538 0
12539 -12176 -12111 0
-12539 12176 0
-12539 12111 0
-10321 12308 12539 0
10321 -12308 0
10321 -12539 0
12540 -12176 -12123 0
-12540 12176 0
-12540 12123 0
-10222 12313 12540 0
10222 -12313 0
10222 -12540 0
12541 -12176 -12176 0
-12541 12176 0
-12541 12176 0
-10326 1215 12541 0
10326 -1215 0
10326 -12541 0
12542 -12069 -12069 0
-12542 12069 0
-12542 12069 0
-10498 1201 12542 0
10498 -1201 0
10498 -12542 0
12543 -12069 -12089 0
-12543 12069 0
-12543 12089 0
-10505 1202 12543 0
10505 -1202 0
10505 -12543 0
12544 -12069 -12091 0
-12544 12069 0
-12544 12091 0
-10512 12054 12544 0
10512 -12054 0
10512 -12544 0
12545 -12071 -12091 0
-12545 12071 0
-12545 12091 0
-10519 12057 12545 0
10519 -12057 0
10519 -12545 0
12546 -12069 -12104 0
-12546 12069 0
-12546 12104 0
-10493 1204 12546 0
10493 -1204 0
10493 -12546 0
12547 -12069 -12106 0
-12547 12069 0
-12547 12106 0
-10492 12062 12547 0
10492 -12062 0
10492 -12547 0
12548 -12071 -12106 0
-12548 12071 0
-12548 12106 0
-10514 12064 12548 0
10514 -12064 0
10514 -12548 0
12549 -12069 -12313 0
-12549 12069 0
-12549 12313 0
-10526 1211 12549 0
10526 -1211 0
10526 -12549 0
12550 -12069 -12068 0
-12550 12069 0
-12550 12068 0
-10533 12049 12550 0
10533 -12049 0
10533 -12550 0
12551 -12071 -12068 0
-12551 12071 0
-12551 12068 0
-10538 12056 12551 0
10538 -12056 0
10538 -12551 0
12552 -12069 -12131 0
-12552 12069 0
-12552 12131 0
-10545 1216 12552 0
10545 -1216 0
10545 -12552 0
12553 -12069 -12123 0
-12553 12069 0
-12553 12123 0
-10552 12076 12553 0
10552 -12076 0
10552 -12553 0
12554 -12071 -12123 0
-12554 12071 0
-12554 12123 0
-10557 12078 12554 0
10557 -12078 0
10557 -12554 0
12555 -12089 -12071 0
-12555 12089 0
-12555 12071 0
-10562 12080 12555 0
10562 -12080 0
10562 -12555 0
12556 -12089 -12089 0
-12556 12089 0
-12556 12089 0
-10567 1203 12556 0
10567 -1203 0
10567 -12556 0
12557 -12089 -12104 0
-12557 12089 0
-12557 12104 0
-10500 1205 12557 0
10500 -1205 0
10500 -12557 0
12558 -12089 -12106 0
-12558 12089 0
-12558 12106 0
-10503 12084 12558 0
10503 -12084 0
10503 -12558 0
12559 -12091 -12106 0
-12559 12091 0
-12559 12106 0
-10509 12086 12559 0
10509 -12086 0
10509 -12559 0
12560 -12089 -12313 0
-12560 12089 0
-12560 12313 0
-10572 1212 12560 0
10572 -1212 0
10572 -12560 0
12561 -12089 -12068 0
-12561 12089 0
-12561 12068 0
-10577 12051 12561 0
10577 -12051 0
10577 -12561 0
12562 -12091 -12068 0
-12562 12091 0
-12562 12068 0
-10582 12053 12562 0
10582 -12053 0
10582 -12562 0
12563 -12089 -12131 0
-12563 12089 0
-12563 12131 0
-10587 1217 12563 0
10587 -1217 0
10587 -12563 0
12564 -12089 -12123 0
-12564 12089 0
-12564 12123 0
-10592 12094 12564 0
10592 -12094 0
10592 -12564 0
12565 -12091 -12123 0
-12565 12091 0
-12565 12123 0
-10597 12096 12565 0
10597 -12096 0
10597 -12565 0
12566 -12104 -12071 0
-12566 12104 0
-12566 12071 0
-10516 12098 12566 0
10516 -12098 0
10516 -12566 0
12567 -12104 -12091 0
-12567 12104 0
-12567 12091 0
-10507 12100 12567 0
10507 -12100 0
10507 -12567 0
12568 -12104 -12104 0
-12568 12104 0
-12568 12104 0
-10497 1206 12568 0
10497 -1206 0
10497 -12568 0
12569 -12104 -12313 0
-12569 12104 0
-12569 12313 0
-10521 1213 12569 0
10521 -1213 0
10521 -12569 0
12570 -12104 -12068 0
-12570 12104 0
-12570 12068 0
-10528 12059 12570 0
10528 -12059 0
10528 -12570 0
12571 -12106 -12068 0
-12571 12106 0
-12571 12068 0
-10530 12061 12571 0
10530 -12061 0
10530 -12571 0
12572 -12104 -12131 0
-12572 12104 0
-12572 12131 0
-10540 1218 12572 0
10540 -1218 0
10540 -12572 0
12573 -12104 -12123 0
-12573 12104 0
-12573 12123 0
-10547 12109 12573 0
10547 -12109 0
10547 -12573 0
12574 -12106 -12123 0
-12574 12106 0
-12574 12123 0
-10549 12111 12574 0
10549 -12111 0
10549 -12574 0
12575 -12313 -12071 0
-12575 12313 0
-12575 12071 0
-10602 12298 12575 0
10602 -12298 0
10602 -12575 0
12576 -12313 -12091 0
-12576 12313 0
-12576 12091 0
-10607 12303 12576 0
10607 -12303 0
10607 -12576 0
12577 -12313 -12106 0
-12577 12313 0
-12577 12106 0
-10524 12308 12577 0
10524 -12308 0
10524 -12577 0
12578 -12313 -12313 0
-12578 12313 0
-12578 12313 0
-10612 1215 12578 0
10612 -1215 0
10612 -12578 0
12579 -12313 -12131 0
-12579 12313 0
-12579 12131 0
-10617 1220 12579 0
10617 -1220 0
10617 -12579 0
12580 -12313 -12123 0
-12580 12313 0
-12580 12123 0
-10622 12176 12580 0
10622 -12176 0
10622 -12580 0
12581 -12068 -12123 0
-12581 12068 0
-12581 12123 0
-10627 12075 12581 0
10627 -12075 0
10627 -12581 0
12582 -12131 -12071 0
-12582 12131 0
-12582 12071 0
-10632 12125 12582 0
10632 -12125 0
10632 -12582 0
12583 -12131 -12091 0
-12583 12131 0
-12583 12091 0
-10637 12127 12583 0
10637 -12127 0
10637 -12583 0
12584 -12131 -12106 0
-12584 12131 0
-12584 12106 0
-10543 12129 12584 0
10543 -12129 0
10543 -12584 0
12585 -12131 -12068 0
-12585 12131 0
-12585 12068 0
-10642 12073 12585 0
10642 -12073 0
10642 -12585 0
12586 -12131 -12131 0
-12586 12131 0
-12586 12131 0
-10647 1221 12586 0
10647 -1221 0
10647 -12586 0
12587 -12049 -1211 0
-12587 12049 0
-12587 1211 0
12588 -1211 -1211 0
-12588 1211 0
-12588 1211 0
12589 -1211 -12049 0
-12589 1211 0
-12589 12049 0
12590 -12049 -12049 -1215 0
-12590 12049 0
-12590 12049 0
-12590 1215 0
-10108 1201 12587 12588 12589 12590 0
10108 -1201 0
10108 -12587 0
10108 -12588 0
10108 -12589 0
10108 -12590 0
12591 -12049 -1212 0
-12591 12049 0
-12591 1212 0
12592 -1211 -1212 0
-12592 1211 0
-12592 1212 0
12593 -1211 -12051 0
-12593 1211 0
-12593 12051 0
12594 -12049 -12051 -1215 0
-12594 12049 0
-12594 12051 0
-12594 1215 0
-10111 1202 12591 12592 12593 12594 0
10111 -1202 0
10111 -12591 0
10111 -12592 0
10111 -12593 0
10111 -12594 0
12595 -12049 -12303 0
-12595 12049 0
-12595 12303 0
12596 -1211 -12053 0
-12596 1211 0
-12596 12053 0
12597 -1211 -12303 0
-12597 1211 0
-12597 12303 0
12598 -12049 -12053 -1215 0
-12598 12049 0
-12598 12053 0
-12598 1215 0
-10114 12054 12595 12596 12597 12598 0
10114 -12054 0
10114 -12595 0
10114 -12596 0
10114 -12597 0
10114 -12598 0
12599 -12056 -12303 0
-12599 12056 0
-12599 12303 0
12600 -12298 -12303 0
-12600 12298 0
-12600 12303 0
12601 -12298 -12053 0
-12601 12298 0
-12601 12053 0
12602 -12056 -12053 -1215 0
-12602 12056 0
-12602 12053 0
-12602 1215 0
-10117 12057 12599 12600 12601 12602 0
10117 -12057 0
10117 -12599 0
10117 -12600 0
10117 -12601 0
10117 -12602 0
12603 -12049 -1213 0
-12603 12049 0
-12603 1213 0
12604 -1211 -1213 0
-12604 1211 0
-12604 1213 0
12605 -1211 -12059 0
-12605 1211 0
-12605 12059 0
12606 -12049 -12059 -1215 0
-12606 12049 0
-12606 12059 0
-12606 1215 0
-10120 1204 12603 12604 12605 12606 0
10120 -1204 0
10120 -12603 0
10120 -12604 0
10120 -12605 0
10120 -12606 0
12607 -12049 -12308 0
-12607 12049 0
-12607 12308 0
12608 -1211 -12061 0
-12608 1211 0
-12608 12061 0
12609 -1211 -12308 0
-12609 1211 0
-12609 12308 0
12610 -12049 -12061 -1215 0
-12610 12049 0
-12610 12061 0
-12610 1215 0
-10123 12062 12607 12608 12609 12610 0
10123 -12062 0
10123 -12607 0
10123 -12608 0
10123 -12609 0
10123 -12610 0
12611 -12056 -12308 0
-12611 12056 0
-12611 12308 0
12612 -12298 -12308 0
-12612 12298 0
-12612 12308 0
12613 -12298 -12061 0
-12613 12298 0
-12613 12061 0
12614 -12056 -12061 -1215 0
-12614 12056 0
-12614 12061 0
-12614 1215 0
-10125 12064 12611 12612 12613 12614 0
10125 -12064 0
10125 -12611 0
10125 -12612 0
10125 -12613 0
10125 -12614 0
12615 -12049 -1214 0
-12615 12049 0
-12615 1214 0
12616 -1211 -1214 0
-12616 1211 0
-12616 1214 0
12617 -1211 -12066 0
-12617 1211 0
-12617 12066 0
12618 -12049 -12066 -1215 0
-12618 12049 0
-12618 12066 0
-12618 1215 0
-10803 1207 12615 12616 12617 12618 0
10803 -1207 0
10803 -12615 0
10803 -12616 0
10803 -12617 0
10803 -12618 0
12619 -12049 -12313 0
-12619 12049 0
-12619 12313 0
12620 -1211 -12068 0
-12620 1211 0
-12620 12068 0
12621 -1211 -12313 0
-12621 1211 0
-12621 12313 0
12622 -12049 -12068 -1215 0
-12622 12049 0
-12622 12068 0
-12622 1215 0
-10107 12069 12619 12620 12621 12622 0
10107 -12069 0
10107 -12619 0
10107 -12620 0
10107 -12621 0
10107 -12622 0
12623 -12056 -12313 0
-12623 12056 0
-12623 12313 0
12624 -12298 -12313 0
-12624 12298 0
-12624 12313 0
12625 -12298 -12068 0
-12625 12298 0
-12625 12068 0
12626 -12056 -12068 -1215 0
-12626 12056 0
-12626 12068 0
-12626 1215 0
-10116 12071 12623 12624 12625 12626 0
10116 -12071 0
10116 -12623 0
10116 -12624 0
10116 -12625 0
10116 -12626 0
12627 -12049 -1220 0
-12627 12049 0
-12627 1220 0
12628 -1211 -1220 0
-12628 1211 0
-12628 1220 0
12629 -1211 -12073 0
-12629 1211 0
-12629 12073 0
12630 -12049 -12073 -1215 0
-12630 12049 0
-12630 12073 0
-12630 1215 0
-10128 1216 12627 12628 12629 12630 0
10128 -1216 0
10128 -12627 0
10128 -12628 0
10128 -12629 0
10128 -12630 0
12631 -12049 -12176 0
-12631 12049 0
-12631 12176 0
12632 -1211 -12075 0
-12632 1211 0
-12632 12075 0
12633 -1211 -12176 0
-12633 1211 0
-12633 12176 0
12634 -12049 -12075 -1215 0
-12634 12049 0
-12634 12075 0
-12634 1215 0
-10131 12076 12631 12632 12633 12634 0
10131 -12076 0
10131 -12631 0
10131 -12632 0
10131 -12633 0
10131 -12634 0
12635 -12056 -12176 0
-12635 12056 0
-12635 12176 0
12636 -12298 -12176 0
-12636 12298 0
-12636 12176 0
12637 -12298 -12075 0
-12637 12298 0
-12637 12075 0
12638 -12056 -12075 -1215 0
-12638 12056 0
-12638 12075 0
-12638 1215 0
-10133 12078 12635 12636 12637 12638 0
10133 -12078 0
10133 -12635 0
10133 -12636 0
10133 -12637 0
10133 -12638 0
12639 -12051 -12298 0
-12639 12051 0
-12639 12298 0
12640 -1212 -12056 0
-12640 1212 0
-12640 12056 0
12641 -1212 -12298 0
-12641 1212 0
-12641 12298 0
12642 -12051 -12056 -1215 0
-12642 12051 0
-12642 12056 0
-12642 1215 0
-10135 12080 12639 12640 12641 12642 0
10135 -12080 0
10135 -12639 0
10135 -12640 0
10135 -12641 0
10135 -12642 0
12643 -12051 -1212 0
-12643 12051 0
-12643 1212 0
12644 -1212 -1212 0
-12644 1212 0
-12644 1212 0
12645 -1212 -12051 0
-12645 1212 0
-12645 12051 0
12646 -12051 -12051 -1215 0
-12646 12051 0
-12646 12051 0
-12646 1215 0
-10137 1203 12643 12644 12645 12646 0
10137 -1203 0
10137 -12643 0
10137 -12644 0
10137 -12645 0
10137 -12646 0
12647 -12051 -1213 0
-12647 12051 0
-12647 1213 0
12648 -1212 -1213 0
-12648 1212 0
-12648 1213 0
12649 -1212 -12059 0
-12649 1212 0
-12649 12059 0
12650 -12051 -12059 -1215 0
-12650 12051 0
-12650 12059 0
-12650 1215 0
-10139 1205 12647 12648 12649 12650 0
10139 -1205 0
10139 -12647 0
10139 -12648 0
10139 -12649 0
10139 -12650 0
12651 -12051 -12308 0
-12651 12051 0
-12651 12308 0
12652 -1212 -12061 0
-12652 1212 0
-12652 12061 0
12653 -1212 -12308 0
-12653 1212 0
-12653 12308 0
12654 -12051 -12061 -1215 0
-12654 12051 0
-12654 12061 0
-12654 1215 0
-10141 12084 12651 12652 12653 12654 0
10141 -12084 0
10141 -12651 0
10141 -12652 0
10141 -12653 0
10141 -12654 0
12655 -12053 -12308 0
-12655 12053 0
-12655 12308 0
12656 -12303 -12308 0
-12656 12303 0
-12656 12308 0
12657 -12303 -12061 0
-12657 12303 0
-12657 12061 0
12658 -12053 -12061 -1215 0
-12658 12053 0
-12658 12061 0
-12658 1215 0
-10143 12086 12655 12656 12657 12658 0
10143 -12086 0
10143 -12655 0
10143 -12656 0
10143 -12657 0
10143 -12658 0
12659 -12051 -1214 0
-12659 12051 0
-12659 1214 0
12660 -1212 -1214 0
-12660 1212 0
-12660 1214 0
12661 -1212 -12066 0
-12661 1212 0
-12661 12066 0
12662 -12051 -12066 -1215 0
-12662 12051 0
-12662 12066 0
-12662 1215 0
-10812 1208 12659 12660 12661 12662 0
10812 -1208 0
10812 -12659 0
10812 -12660 0
10812 -12661 0
10812 -12662 0
12663 -12051 -12313 0
-12663 12051 0
-12663 12313 0
12664 -1212 -12068 0
-12664 1212 0
-12664 12068 0
12665 -1212 -12313 0
-12665 1212 0
-12665 12313 0
12666 -12051 -12068 -1215 0
-12666 12051 0
-12666 12068 0
-12666 1215 0
-10110 12089 12663 12664 12665 12666 0
10110 -12089 0
10110 -12663 0
10110 -12664 0
10110 -12665 0
10110 -12666 0
12667 -12053 -12313 0
-12667 12053 0
-12667 12313 0
12668 -12303 -12313 0
-12668 12303 0
-12668 12313 0
12669 -12303 -12068 0
-12669 12303 0
-12669 12068 0
12670 -12053 -12068 -1215 0
-12670 12053 0
-12670 12068 0
-12670 1215 0
-10113 12091 12667 12668 12669 12670 0
10113 -12091 0
10113 -12667 0
10113 -12668 0
10113 -12669 0
10113 -12670 0
12671 -12051 -1220 0
-12671 12051 0
-12671 1220 0
12672 -1212 -1220 0
-12672 1212 0
-12672 1220 0
12673 -1212 -12073 0
-12673 1212 0
-12673 12073 0
12674 -12051 -12073 -1215 0
-12674 12051 0
-12674 12073 0
-12674 1215 0
-10145 1217 12671 12672 12673 12674 0
10145 -1217 0
10145 -12671 0
10145 -12672 0
10145 -12673 0
10145 -12674 0
12675 -12051 -12176 0
-12675 12051 0
-12675 12176 0
12676 -1212 -12075 0
-12676 1212 0
-12676 12075 0
12677 -1212 -12176 0
-12677 1212 0
-12677 12176 0
12678 -12051 -12075 -1215 0
-12678 12051 0
-12678 12075 0
-12678 1215 0
-10147 12094 12675 12676 12677 12678 0
10147 -12094 0
10147 -12675 0
10147 -12676 0
10147 -12677 0
10147 -12678 0
12679 -12053 -12176 0
-12679 12053 0
-12679 12176 0
12680 -12303 -12176 0
-12680 12303 0
-12680 12176 0
12681 -12303 -12075 0
-12681 12303 0
-12681 12075 0
12682 -12053 -12075 -1215 0
-12682 12053 0
-12682 12075 0
-12682 1215 0
-10149 12096 12679 12680 12681 12682 0
10149 -12096 0
10149 -12679 0
10149 -12680 0
10149 -12681 0
10149 -12682 0
12683 -12059 -12298 0
-12683 12059 0
-12683 12298 0
12684 -1213 -12056 0
-12684 1213 0
-12684 12056 0
12685 -1213 -12298 0
-12685 1213 0
-12685 12298 0
12686 -12059 -12056 -1215 0
-12686 12059 0
-12686 12056 0
-12686 1215 0
-10151 12098 12683 12684 12685 12686 0
10151 -12098 0
10151 -12683 0
10151 -12684 0
10151 -12685 0
10151 -12686 0
12687 -12059 -12303 0
-12687 12059 0
-12687 12303 0
12688 -1213 -12053 0
-12688 1213 0
-12688 12053 0
12689 -1213 -12303 0
-12689 1213 0
-12689 12303 0
12690 -12059 -12053 -1215 0
-12690 12059 0
-12690 12053 0
-12690 1215 0
-10153 12100 12687 12688 12689 12690 0
10153 -12100 0
10153 -12687 0
10153 -12688 0
10153 -12689 0
10153 -12690 0
12691 -12059 -1213 0
-12691 12059 0
-12691 1213 0
12692 -1213 -1213 0
-12692 1213 0
-12692 1213 0
12693 -1213 -12059 0
-12693 1213 0
-12693 12059 0
12694 -12059 -12059 -1215 0
-12694 12059 0
-12694 12059 0
-12694 1215 0
-10155 1206 12691 12692 12693 12694 0
10155 -1206 0
10155 -12691 0
10155 -12692 0
10155 -12693 0
10155 -12694 0
12695 -12059 -1214 0
-12695 12059 0
-12695 1214 0
12696 -1213 -1214 0
-12696 1213 0
-12696 1214 0
12697 -1213 -12066 0
-12697 1213 0
-12697 12066 0
12698 -12059 -12066 -1215 0
-12698 12059 0
-12698 12066 0
-12698 1215 0
-11582 1209 12695 12696 12697 12698 0
11582 -1209 0
11582 -12695 0
11582 -12696 0
11582 -12697 0
11582 -12698 0
12699 -12059 -12313 0
-12699 12059 0
-12699 12313 0
12700 -1213 -12068 0
-12700 1213 0
-12700 12068 0
12701 -1213 -12313 0
-12701 1213 0
-12701 12313 0
12702 -12059 -12068 -1215 0
-12702 12059 0
-12702 12068 0
-12702 1215 0
-10119 12104 12699 12700 12701 12702 0
10119 -12104 0
10119 -12699 0
10119 -12700 0
10119 -12701 0
10119 -12702 0
12703 -12061 -12313 0
-12703 12061 0
-12703 12313 0
12704 -12308 -12313 0
-12704 12308 0
-12704 12313 0
12705 -12308 -12068 0
-12705 12308 0
-12705 12068 0
12706 -12061 -12068 -1215 0
-12706 12061 0
-12706 12068 0
-12706 1215 0
-10122 12106 12703 12704 12705 12706 0
10122 -12106 0
10122 -12703 0
10122 -12704 0
10122 -12705 0
10122 -12706 0
12707 -12059 -1220 0
-12707 12059 0
-12707 1220 0
12708 -1213 -1220 0
-12708 1213 0
-12708 1220 0
12709 -1213 -12073 0
-12709 1213 0
-12709 12073 0
12710 -12059 -12073 -1215 0
-12710 12059 0
-12710 12073 0
-12710 1215 0
-10157 1218 12707 12708 12709 12710 0
10157 -1218 0
10157 -12707 0
10157 -12708 0
10157 -12709 0
10157 -12710 0
12711 -12059 -12176 0
-12711 12059 0
-12711 12176 0
12712 -1213 -12075 0
-12712 1213 0
-12712 12075 0
12713 -1213 -12176 0
-12713 1213 0
-12713 12176 0
12714 -12059 -12075 -1215 0
-12714 12059 0
-12714 12075 0
-12714 1215 0
-10159 12109 12711 12712 12713 12714 0
10159 -12109 0
10159 -12711 0
10159 -12712 0
10159 -12713 0
10159 -12714 0
12715 -12061 -12176 0
-12715 12061 0
-12715 12176 0
12716 -12308 -12176 0
-12716 12308 0
-12716 12176 0
12717 -12308 -12075 0
-12717 12308 0
-12717 12075 0
12718 -12061 -12075 -1215 0
-12718 12061 0
-12718 12075 0
-12718 1215 0
-10161 12111 12715 12716 12717 12718 0
10161 -12111 0
10161 -12715 0
10161 -12716 0
10161 -12717 0
10161 -12718 0
12719 -12066 -12298 0
-12719 12066 0
-12719 12298 0
12720 -1214 -12056 0
-12720 1214 0
-12720 12056 0
12721 -1214 -12298 0
-12721 1214 0
-12721 12298 0
12722 -12066 -12056 -1215 0
-12722 12066 0
-12722 12056 0
-12722 1215 0
-10819 12113 12719 12720 12721 12722 0
10819 -12113 0
10819 -12719 0
10819 -12720 0
10819 -12721 0
10819 -12722 0
12723 -12066 -12303 0
-12723 12066 0
-12723 12303 0
12724 -1214 -12053 0
-12724 1214 0
-12724 12053 0
12725 -1214 -12303 0
-12725 1214 0
-12725 12303 0
12726 -12066 -12053 -1215 0
-12726 12066 0
-12726 12053 0
-12726 1215 0
-10821 12115 12723 12724 12725 12726 0
10821 -12115 0
10821 -12723 0
10821 -12724 0
10821 -12725 0
10821 -12726 0
12727 -12066 -12308 0
-12727 12066 0
-12727 12308 0
12728 -1214 -12061 0
-12728 1214 0
-12728 12061 0
12729 -1214 -12308 0
-12729 1214 0
-12729 12308 0
12730 -12066 -12061 -1215 0
-12730 12066 0
-12730 12061 0
-12730 1215 0
-10802 12117 12727 12728 12729 12730 0
10802 -12117 0
10802 -12727 0
10802 -12728 0
10802 -12729 0
10802 -12730 0
12731 -12066 -1214 0
-12731 12066 0
-12731 1214 0
12463 -1214 -1214 0
-12463 1214 0
-12463 1214 0
12732 -1214 -12066 0
-12732 1214 0
-12732 12066 0
12733 -12066 -12066 -1215 0
-12733 12066 0
-12733 12066 0
-12733 1215 0
-10823 1210 12731 12463 12732 12733 0
10823 -1210 0
10823 -12731 0
10823 -12463 0
10823 -12732 0
10823 -12733 0
12734 -12066 -1220 0
-12734 12066 0
-12734 1220 0
12735 -1214 -1220 0
-12735 1214 0
-12735 1220 0
12736 -1214 -12073 0
-12736 1214 0
-12736 12073 0
12737 -12066 -12073 -1215 0
-12737 12066 0
-12737 12073 0
-12737 1215 0
-10825 1219 12734 12735 12736 12737 0
10825 -1219 0
10825 -12734 0
10825 -12735 0
10825 -12736 0
10825 -12737 0
12738 -12066 -12176 0
-12738 12066 0
-12738 12176 0
12739 -1214 -12075 0
-12739 1214 0
-12739 12075 0
12740 -1214 -12176 0
-12740 1214 0
-12740 12176 0
12741 -12066 -12075 -1215 0
-12741 12066 0
-12741 12075 0
-12741 1215 0
-10827 12121 12738 12739 12740 12741 0
10827 -12121 0
10827 -12738 0
10827 -12739 0
10827 -12740 0
10827 -12741 0
12742 -12068 -12176 0
-12742 12068 0
-12742 12176 0
12743 -12313 -12176 0
-12743 12313 0
-12743 12176 0
12744 -12313 -12075 0
-12744 12313 0
-12744 12075 0
12745 -12068 -12075 -1215 0
-12745 12068 0
-12745 12075 0
-12745 1215 0
-10130 12123 12742 12743 12744 12745 0
10130 -12123 0
10130 -12742 0
10130 -12743 0
10130 -12744 0
10130 -12745 0
12746 -12073 -12298 0
-12746 12073 0
-12746 12298 0
12747 -1220 -12056 0
-12747 1220 0
-12747 12056 0
12748 -1220 -12298 0
-12748 1220 0
-12748 12298 0
12749 -12073 -12056 -1215 0
-12749 12073 0
-12749 12056 0
-12749 1215 0
-10163 12125 12746 12747 12748 12749 0
10163 -12125 0
10163 -12746 0
10163 -12747 0
10163 -12748 0
10163 -12749 0
12750 -12073 -12303 0
-12750 12073 0
-12750 12303 0
12751 -1220 -12053 0
-12751 1220 0
-12751 12053 0
12752 -1220 -12303 0
-12752 1220 0
-12752 12303 0
12753 -12073 -12053 -1215 0
-12753 12073 0
-12753 12053 0
-12753 1215 0
-10165 12127 12750 12751 12752 12753 0
10165 -12127 0
10165 -12750 0
10165 -12751 0
10165 -12752 0
10165 -12753 0
12754 -12073 -12308 0
-12754 12073 0
-12754 12308 0
12755 -1220 -12061 0
-12755 1220 0
-12755 12061 0
12756 -1220 -12308 0
-12756 1220 0
-12756 12308 0
12757 -12073 -12061 -1215 0
-12757 12073 0
-12757 12061 0
-12757 1215 0
-10167 12129 12754 12755 12756 12757 0
10167 -12129 0
10167 -12754 0
10167 -12755 0
10167 -12756 0
10167 -12757 0
12758 -12073 -12313 0
-12758 12073 0
-12758 12313 0
12759 -1220 -12068 0
-12759 1220 0
-12759 12068 0
12760 -1220 -12313 0
-12760 1220 0
-12760 12313 0
12761 -12073 -12068 -1215 0
-12761 12073 0
-12761 12068 0
-12761 1215 0
-10127 12131 12758 12759 12760 12761 0
10127 -12131 0
10127 -12758 0
10127 -12759 0
10127 -12760 0
10127 -12761 0
12762 -12073 -1220 0
-12762 12073 0
-12762 1220 0
12315 -1220 -1220 0
-12315 1220 0
-12315 1220 0
12763 -1220 -12073 0
-12763 1220 0
-12763 12073 0
12764 -12073 -12073 -1215 0
-12764 12073 0
-12764 12073 0
-12764 1215 0
-10169 1221 12762 12315 12763 12764 0
10169 -1221 0
10169 -12762 0
10169 -12315 0
10169 -12763 0
10169 -12764 0
